6
Interpolated_Step_0 | Energy: -152.099673 Hartree
O -0.755372 -0.921122 -4.005642
H -0.493420 -1.806856 -3.730554
H -0.616336 -0.411307 -3.192303
O -0.206197 0.784773 -1.718121
H -0.965669 1.375017 -1.624367
H 0.450896 1.356129 -2.137662
6
Interpolated_Step_1 | Energy: -152.090512 Hartree
O -0.667131 -0.975955 -3.692975
H -0.517192 -1.877089 -3.385903
H -0.407887 -0.455808 -2.916443
O -0.396743 0.600839 -1.747369
H -1.196113 1.143765 -1.762076
H 0.271905 1.205398 -2.096155
6
Interpolated_Step_2 | Energy: -152.050034 Hartree
O -0.578828 -1.030713 -3.380300
H -0.539795 -1.929436 -3.034482
H -0.201594 -0.519386 -2.647496
O -0.587615 0.417038 -1.776458
H -1.410141 0.908490 -1.902560
H 0.081667 1.056596 -2.054414
6
Interpolated_Step_3 | Energy: -151.958385 Hartree
O -0.490453 -1.085405 -3.067623
H -0.558293 -1.963971 -2.677320
H -0.000559 -0.601818 -2.384314
O -0.778837 0.233350 -1.805430
H -1.607323 0.670186 -2.043676
H -0.119857 0.909020 -2.013874
6
Interpolated_Step_4 | Energy: -151.830189 Hartree
O -0.401996 -1.140042 -2.754951
H -0.569858 -1.981237 -2.315597
H 0.192257 -0.702385 -2.125600
O -0.970428 0.049755 -1.834334
H -1.787561 0.429903 -2.183270
H -0.332482 0.761938 -1.975946
6
Interpolated_Step_5 | Energy: -151.727628 Hartree
O -0.313452 -1.194638 -2.442293
H -0.571847 -1.982231 -1.950616
H 0.374106 -0.819887 -1.869939
O -1.162397 -0.133769 -1.863218
H -1.951088 0.188734 -2.319216
H -0.555806 0.614614 -1.941990
6
Interpolated_Step_6 | Energy: -151.759202 Hartree
O -0.224816 -1.249206 -2.129654
H -0.561868 -1.968382 -1.583761
H 0.542532 -0.952678 -1.615833
O -1.354748 -0.317244 -1.892130
H -2.098465 -0.052215 -2.449463
H -0.789216 0.466311 -1.913289
6
Interpolated_Step_7 | Energy: -151.904153 Hartree
O -0.136086 -1.303760 -1.817042
H -0.537844 -1.941507 -1.216471
H 0.695432 -1.098711 -1.361746
O -1.547477 -0.500697 -1.921117
H -2.230571 -0.291839 -2.572068
H -1.031902 0.316316 -1.891021
6
Interpolated_Step_8 | Energy: -152.021421 Hartree
O -0.047265 -1.358315 -1.504462
H -0.498070 -1.903771 -0.850191
H 0.831114 -1.255588 -1.106140
O -1.740571 -0.684151 -1.950228
H -2.348584 -0.529061 -2.685240
H -1.282871 0.163947 -1.876240
6
Interpolated_Step_9 | Energy: -152.071660 Hartree
O 0.041646 -1.412887 -1.191919
H -0.441255 -1.857620 -0.486345
H 0.948338 -1.420625 -0.847517
O -1.934013 -0.867632 -1.979505
H -2.453959 -0.762850 -2.787374
H -1.540969 0.008568 -1.869851
6
Interpolated_Step_10 | Energy: -152.086144 Hartree
O 0.130641 -1.467488 -0.879417
H -0.366559 -1.805727 -0.126287
H 1.046352 -1.590922 -0.584458
O -2.127777 -1.051164 -2.008990
H -2.548401 -0.992243 -2.877079
H -1.804901 -0.150397 -1.872595
6
Interpolated_Step_11 | Energy: -152.089483 Hartree
O 0.219712 -1.522134 -0.566957
H -0.273612 -1.750913 0.228724
H 1.124910 -1.763442 -0.315663
O -2.321829 -1.234771 -2.038719
H -2.633825 -1.216362 -2.953211
H -2.073257 -0.313453 -1.885033
6
Interpolated_Step_12 | Energy: -152.090143 Hartree
O 0.308849 -1.576836 -0.254543
H -0.162527 -1.696077 0.577564
H 1.184280 -1.935090 -0.039982
O -2.516134 -1.418473 -2.068724
H -2.712328 -1.434436 -3.014890
H -2.344540 -0.481026 -1.907538
6
Interpolated_Step_13 | Energy: -152.090183 Hartree
O 0.398040 -1.631605 0.057825
H -0.033893 -1.644120 0.919274
H 1.225235 -2.102790 0.243554
O -2.710647 -1.602293 -2.099033
H -2.786139 -1.645808 -3.061521
H -2.617197 -0.653452 -1.940283
6
Interpolated_Step_14 | Energy: -152.090240 Hartree
O 0.487273 -1.686451 0.370148
H 0.111236 -1.597865 1.253078
H 1.249035 -2.263575 0.535706
O -2.905323 -1.786246 -2.129665
H -2.857581 -1.849955 -3.092804
H -2.889648 -0.830972 -1.983241
6
Interpolated_Step_15 | Energy: -152.090385 Hartree
O 0.576534 -1.741380 0.682429
H 0.271371 -1.559986 1.578414
H 1.257390 -2.414657 0.837008
O -3.100111 -1.970349 -2.160634
H -2.929025 -2.046498 -3.108741
H -3.160314 -1.013729 -2.036184
6
Interpolated_Step_16 | Energy: -152.090550 Hartree
O 0.665807 -1.796398 0.994670
H 0.444630 -1.532935 1.894939
H 1.252421 -2.553506 1.147752
O -3.294959 -2.154613 -2.191949
H -3.002838 -2.235202 -3.109635
H -3.427656 -1.201761 -2.098688
6
Interpolated_Step_17 | Energy: -152.090695 Hartree
O 0.755078 -1.851507 1.306875
H 0.628781 -1.518880 2.202546
H 1.236597 -2.677913 1.467982
O -3.489814 -2.339048 -2.223611
H -3.081344 -2.415991 -3.096083
H -3.690195 -1.395002 -2.170142
6
Interpolated_Step_18 | Energy: -152.090810 Hartree
O 0.844332 -1.906707 1.619050
H 0.821308 -1.519645 2.501359
H 1.212674 -2.786050 1.797492
O -3.684622 -2.523659 -2.255612
H -3.166773 -2.588941 -3.068967
H -3.946551 -1.593287 -2.249759
6
Interpolated_Step_19 | Energy: -152.090897 Hartree
O 0.933553 -1.961996 1.931199
H 1.019471 -1.536663 2.791738
H 1.183625 -2.876520 2.135830
O -3.879331 -2.708448 -2.287942
H -3.261221 -2.754284 -3.029436
H -4.195462 -1.796347 -2.336591