6
BHMC Sample 1
O     -1.339863     0.217237     3.881336
H     -2.224482     0.293927     3.505442
H     -1.527058    -0.125551     4.762831
O      2.763648    -0.834607    -2.211580
H      2.915002    -0.525216    -3.112927
H      2.842501    -0.021431    -1.697323
6
BHMC Sample 2
O     -1.339863     0.217237     3.881336
H     -2.224482     0.293927     3.505442
H     -1.527058    -0.125551     4.762831
O      3.434309    -1.862713    -2.550925
H      3.585662    -1.553321    -3.452271
H      3.513162    -1.049536    -2.036668
6
BHMC Sample 3
O      3.507161    -1.785012    -2.600874
H      2.622542    -1.708322    -2.976768
H      3.319966    -2.127800    -1.719379
O     -1.412715     0.139537     3.931285
H     -1.261362     0.448928     3.029939
H     -1.333863     0.952713     4.445542
6
BHMC Sample 4
O      4.329601    -3.150469    -3.561730
H      3.444982    -3.073780    -3.937625
H      4.142406    -3.493258    -2.680235
O     -1.412715     0.139537     3.931285
H     -1.261362     0.448928     3.029939
H     -1.333863     0.952713     4.445542
6
BHMC Sample 5
O     -1.339863     0.217237     3.881336
H     -2.224482     0.293927     3.505442
H     -1.527058    -0.125551     4.762831
O      4.256748    -3.228170    -3.511781
H      4.408102    -2.918779    -4.413127
H      4.335601    -2.414993    -2.997524
6
BHMC Sample 6
O      4.329601    -3.150469    -3.561730
H      3.444982    -3.073780    -3.937625
H      4.142406    -3.493258    -2.680235
O     -1.412715     0.139537     3.931285
H     -1.261362     0.448928     3.029939
H     -1.333863     0.952713     4.445542
6
BHMC Sample 7
O     -1.339863     0.217237     3.881336
H     -2.224482     0.293927     3.505442
H     -1.527058    -0.125551     4.762831
O      4.256748    -3.228170    -3.511781
H      4.408102    -2.918779    -4.413127
H      4.335601    -2.414993    -2.997524
6
BHMC Sample 8
O     -1.329024     0.229381     3.883978
H     -2.213177     0.310189     3.507852
H     -1.517951    -0.113900     4.764912
O      4.256748    -3.228170    -3.511781
H      4.408102    -2.918779    -4.413127
H      4.335601    -2.414993    -2.997524
6
BHMC Sample 9
O     -1.242291     1.482650     3.262079
H     -2.126444     1.563458     2.885952
H     -1.431218     1.139369     4.143012
O      4.256748    -3.228170    -3.511781
H      4.408102    -2.918779    -4.413127
H      4.335601    -2.414993    -2.997524
6
BHMC Sample 10
O     -1.242291     1.482650     3.262079
H     -2.126444     1.563458     2.885952
H     -1.431218     1.139369     4.143012
O      2.967461    -2.867120    -2.446061
H      3.118815    -2.557729    -3.347408
H      3.046314    -2.053944    -1.931804
6
BHMC Sample 11
O     -1.661054     1.615152     2.321433
H     -2.545208     1.695960     1.945306
H     -1.849982     1.271871     3.202366
O      2.967461    -2.867120    -2.446061
H      3.118815    -2.557729    -3.347408
H      3.046314    -2.053944    -1.931804
6
BHMC Sample 12
O      3.040385    -2.789623    -2.495966
H      2.156231    -2.708815    -2.872093
H      2.851457    -3.132904    -1.615033
O     -1.733978     1.537654     2.371338
H     -1.582624     1.847046     1.469991
H     -1.655125     2.350831     2.885595
6
BHMC Sample 13
O      3.040385    -2.789623    -2.495966
H      2.156231    -2.708815    -2.872093
H      2.851457    -3.132904    -1.615033
O     -2.700619     2.587989     2.239212
H     -2.549265     2.897380     1.337866
H     -2.621766     3.401165     2.753469
6
BHMC Sample 14
O      3.040385    -2.789623    -2.495966
H      2.156231    -2.708815    -2.872093
H      2.851457    -3.132904    -1.615033
O     -3.762564     4.026879     3.068736
H     -3.611210     4.336271     2.167390
H     -3.683711     4.840056     3.582993
6
BHMC Sample 15
O      2.022118    -2.153053    -2.674442
H      1.137965    -2.072245    -3.050569
H      1.833191    -2.496334    -1.793509
O     -3.762564     4.026879     3.068736
H     -3.611210     4.336271     2.167390
H     -3.683711     4.840056     3.582993
6
BHMC Sample 16
O     -3.689640     4.104377     3.018831
H     -4.573794     4.185185     2.642705
H     -3.878568     3.761096     3.899765
O      1.949195    -2.230550    -2.624538
H      2.100549    -1.921159    -3.525884
H      2.028048    -1.417374    -2.110281
6
BHMC Sample 17
O      2.022118    -2.153053    -2.674442
H      1.137965    -2.072245    -3.050569
H      1.833191    -2.496334    -1.793509
O     -3.762564     4.026879     3.068736
H     -3.611210     4.336271     2.167390
H     -3.683711     4.840056     3.582993
6
BHMC Sample 18
O      0.825123    -1.554082    -2.630735
H     -0.059030    -1.473274    -3.006862
H      0.636196    -1.897363    -1.749802
O     -3.762564     4.026879     3.068736
H     -3.611210     4.336271     2.167390
H     -3.683711     4.840056     3.582993
6
BHMC Sample 19
O      1.671345    -1.789731    -1.542415
H      0.814225    -1.834745    -1.981787
H      1.444845    -2.036170    -0.638233
O     -3.762564     4.026879     3.068736
H     -3.611210     4.336271     2.167390
H     -3.683711     4.840056     3.582993
6
BHMC Sample 20
O     -3.689051     4.105998     3.021069
H     -4.546170     4.060984     2.581697
H     -3.915551     3.859560     3.925251
O      1.597832    -1.868850    -1.494748
H      1.749186    -1.559459    -2.396094
H      1.676685    -1.055674    -0.980491
6
BHMC Sample 21
O     -3.689051     4.105998     3.021069
H     -4.546170     4.060984     2.581697
H     -3.915551     3.859560     3.925251
O      4.037487     3.845334    -1.854817
H      3.864010     4.105843    -2.767559
H      3.504218     4.475576    -1.354464
6
BHMC Sample 22
O     -3.689051     4.105998     3.021069
H     -4.546170     4.060984     2.581697
H     -3.915551     3.859560     3.925251
O      3.970937     3.956454    -1.887683
H      4.855440     3.642870    -2.112127
H      3.569076     3.174854    -1.488253
6
BHMC Sample 23
O     -3.767390     4.026618     3.065157
H     -3.713351     4.413128     2.183443
H     -3.504960     4.767347     3.623753
O      3.970937     3.956454    -1.887683
H      4.855440     3.642870    -2.112127
H      3.569076     3.174854    -1.488253
6
BHMC Sample 24
O     -3.692269     4.123717     3.059902
H     -4.604572     4.386533     3.228309
H     -3.806064     3.252777     2.662294
O      3.970937     3.956454    -1.887683
H      4.855440     3.642870    -2.112127
H      3.569076     3.174854    -1.488253
6
BHMC Sample 25
O     -3.692269     4.123717     3.059902
H     -4.604572     4.386533     3.228309
H     -3.806064     3.252777     2.662294
O      3.612571     3.080359    -1.366508
H      4.497074     2.766775    -1.590952
H      3.210710     2.298759    -0.967079
6
BHMC Sample 26
O     -3.692269     4.123717     3.059902
H     -4.604572     4.386533     3.228309
H     -3.806064     3.252777     2.662294
O      3.617320     3.068570    -1.397161
H      3.117986     2.350426    -0.989740
H      4.514421     2.902232    -1.081763
6
BHMC Sample 27
O      3.696990     3.053106    -1.343892
H      2.784687     3.315922    -1.175485
H      3.583195     2.182166    -1.741500
O     -3.771939     4.139180     3.006633
H     -4.271273     3.421036     3.414054
H     -2.874838     3.972843     3.322031
6
BHMC Sample 28
O      3.623835     3.005401    -1.292035
H      3.356186     3.754556    -1.836884
H      4.172809     2.500713    -1.903179
O     -3.771939     4.139180     3.006633
H     -4.271273     3.421036     3.414054
H     -2.874838     3.972843     3.322031
6
BHMC Sample 29
O     -3.765424     4.076012     3.111759
H     -4.033073     4.825167     2.566910
H     -3.216450     3.571324     2.500615
O      3.617320     3.068570    -1.397161
H      3.117986     2.350426    -0.989740
H      4.514421     2.902232    -1.081763
6
BHMC Sample 30
O     -3.175095     1.499947     2.428663
H     -3.442744     2.249102     1.883815
H     -2.626121     0.995259     1.817520
O      3.617320     3.068570    -1.397161
H      3.117986     2.350426    -0.989740
H      4.514421     2.902232    -1.081763
6
BHMC Sample 31
O      3.623835     3.005401    -1.292035
H      3.356186     3.754556    -1.836884
H      4.172809     2.500713    -1.903179
O     -3.181611     1.563116     2.323537
H     -3.680944     0.844972     2.730958
H     -2.284509     1.396778     2.638935
6
BHMC Sample 32
O     -3.175095     1.499947     2.428663
H     -3.442744     2.249102     1.883815
H     -2.626121     0.995259     1.817520
O      3.617320     3.068570    -1.397161
H      3.117986     2.350426    -0.989740
H      4.514421     2.902232    -1.081763
6
BHMC Sample 33
O     -3.223008     1.505320     2.341669
H     -2.460274     0.925844     2.231336
H     -2.848124     2.233232     2.850772
O      3.617320     3.068570    -1.397161
H      3.117986     2.350426    -0.989740
H      4.514421     2.902232    -1.081763
6
BHMC Sample 34
O     -3.965491     0.559545     2.304148
H     -3.202757    -0.019931     2.193816
H     -3.590607     1.287456     2.813252
O      3.617320     3.068570    -1.397161
H      3.117986     2.350426    -0.989740
H      4.514421     2.902232    -1.081763
6
BHMC Sample 35
O      3.575923     3.010774    -1.379029
H      4.338657     2.431298    -1.489362
H      3.950806     3.738686    -0.869926
O     -3.924094     0.617340     2.286017
H     -4.423427    -0.100804     2.693437
H     -3.026992     0.451003     2.601415
6
BHMC Sample 36
O     -3.965491     0.559545     2.304148
H     -3.202757    -0.019931     2.193816
H     -3.590607     1.287456     2.813252
O      3.617320     3.068570    -1.397161
H      3.117986     2.350426    -0.989740
H      4.514421     2.902232    -1.081763
6
BHMC Sample 37
O     -3.965491     0.559545     2.304148
H     -3.202757    -0.019931     2.193816
H     -3.590607     1.287456     2.813252
O      3.572450     3.011699    -1.352253
H      4.076090     3.724361    -1.763976
H      4.268489     2.430943    -1.020309
6
BHMC Sample 38
O     -3.965491     0.559545     2.304148
H     -3.202757    -0.019931     2.193816
H     -3.590607     1.287456     2.813252
O      3.606664     3.064231    -1.394907
H      4.202760     3.220760    -0.652462
H      3.598775     2.100757    -1.454823
6
BHMC Sample 39
O     -3.446157     0.408044     0.989499
H     -2.683423    -0.171432     0.879167
H     -3.071274     1.135956     1.498603
O      3.606664     3.064231    -1.394907
H      4.202760     3.220760    -0.652462
H      3.598775     2.100757    -1.454823
6
BHMC Sample 40
O     -3.347288     0.458927     1.051380
H     -3.021708    -0.218850     0.447770
H     -4.302243     0.375768     0.947821
O      3.606664     3.064231    -1.394907
H      4.202760     3.220760    -0.652462
H      3.598775     2.100757    -1.454823
6
BHMC Sample 41
O     -3.347288     0.458927     1.051380
H     -3.021708    -0.218850     0.447770
H     -4.302243     0.375768     0.947821
O      3.824632     4.389704    -0.230697
H      4.420728     4.546233     0.511748
H      3.816742     3.426230    -0.290613
6
BHMC Sample 42
O      3.892759     4.387129    -0.152939
H      4.218339     3.709353    -0.756550
H      2.937805     4.303971    -0.256498
O     -3.415416     0.461501     0.973622
H     -2.819320     0.618030     1.716067
H     -3.423305    -0.501973     0.913706
6
BHMC Sample 43
O      3.892759     4.387129    -0.152939
H      4.218339     3.709353    -0.756550
H      2.937805     4.303971    -0.256498
O     -4.229784     0.402030     0.374004
H     -3.633688     0.558559     1.116449
H     -4.237674    -0.561444     0.314088
6
BHMC Sample 44
O      2.732769     3.711375    -4.355601
H      2.988360     2.831017    -4.654551
H      1.809104     3.578948    -4.112937
O     -4.229784     0.402030     0.374004
H     -3.633688     0.558559     1.116449
H     -4.237674    -0.561444     0.314088
6
BHMC Sample 45
O      2.671751     3.711414    -4.387804
H      2.180933     2.967575    -4.019660
H      3.585007     3.441772    -4.236694
O     -4.229784     0.402030     0.374004
H     -3.633688     0.558559     1.116449
H     -4.237674    -0.561444     0.314088
6
BHMC Sample 46
O      4.222098    -0.254773    -2.784319
H      3.359534     0.174822    -2.750248
H      4.416401    -0.236785    -3.728513
O     -4.229784     0.402030     0.374004
H     -3.633688     0.558559     1.116449
H     -4.237674    -0.561444     0.314088
6
BHMC Sample 47
O      4.222098    -0.254773    -2.784319
H      3.359534     0.174822    -2.750248
H      4.416401    -0.236785    -3.728513
O     -4.241435     0.407156     0.420356
H     -3.368357     0.433967     0.010389
H     -4.318086    -0.518218     0.684442
6
BHMC Sample 48
O      4.202249    -1.017275    -1.568369
H      3.339685    -0.587680    -1.534298
H      4.396552    -0.999287    -2.512562
O     -4.241435     0.407156     0.420356
H     -3.368357     0.433967     0.010389
H     -4.318086    -0.518218     0.684442
6
BHMC Sample 49
O      3.851933    -0.255125    -2.917849
H      2.989369     0.174470    -2.883778
H      4.046236    -0.237137    -3.862043
O     -4.241435     0.407156     0.420356
H     -3.368357     0.433967     0.010389
H     -4.318086    -0.518218     0.684442
6
BHMC Sample 50
O      3.851933    -0.255125    -2.917849
H      2.989369     0.174470    -2.883778
H      4.046236    -0.237137    -3.862043
O     -3.992895    -0.237072     1.010537
H     -3.170451    -0.159405     0.511928
H     -3.846398    -1.038459     1.528466
6
BHMC Sample 51
O      3.851933    -0.255125    -2.917849
H      2.989369     0.174470    -2.883778
H      4.046236    -0.237137    -3.862043
O     -4.005056    -0.278768     0.998464
H     -3.397253     0.470211     0.972722
H     -3.426578    -1.006273     1.259295
6
BHMC Sample 52
O     -3.901288    -0.302610     1.062542
H     -4.763852     0.126985     1.096613
H     -3.706985    -0.284622     0.118349
O      3.748165    -0.231283    -2.981928
H      4.355968     0.517696    -3.007669
H      4.326643    -0.958788    -2.721096
6
BHMC Sample 53
O     -3.926198    -0.340290     1.034607
H     -3.645982     0.507185     1.399288
H     -4.429479    -0.066758     0.259064
O      3.748165    -0.231283    -2.981928
H      4.355968     0.517696    -3.007669
H      4.326643    -0.958788    -2.721096
6
BHMC Sample 54
O     -4.121099    -0.166057    -0.782909
H     -3.840882     0.681419    -0.418227
H     -4.624379     0.107476    -1.558452
O      3.748165    -0.231283    -2.981928
H      4.355968     0.517696    -3.007669
H      4.326643    -0.958788    -2.721096
6
BHMC Sample 55
O      3.827023    -0.292805    -2.945784
H      4.107239     0.554670    -2.581103
H      3.323742    -0.019273    -3.721328
O     -4.199956    -0.104534    -0.819052
H     -3.592153     0.644444    -0.844793
H     -3.621478    -0.832040    -0.558220
6
BHMC Sample 56
O      3.827023    -0.292805    -2.945784
H      4.107239     0.554670    -2.581103
H      3.323742    -0.019273    -3.721328
O     -4.022869     0.961737    -0.514428
H     -3.330087     1.628540    -0.594955
H     -3.526419     0.178369    -0.246462
6
BHMC Sample 57
O      3.782449    -0.171095    -2.979228
H      3.860843    -0.684174    -2.166619
H      4.277610    -0.712221    -3.604990
O     -4.022869     0.961737    -0.514428
H     -3.330087     1.628540    -0.594955
H     -3.526419     0.178369    -0.246462
6
BHMC Sample 58
O      3.782449    -0.171095    -2.979228
H      3.860843    -0.684174    -2.166619
H      4.277610    -0.712221    -3.604990
O     -2.986996     0.467853     0.334916
H     -2.294215     1.134656     0.254389
H     -2.490546    -0.315515     0.602883
6
BHMC Sample 59
O      2.548605     3.896382    -3.484984
H      2.996776     3.210191    -2.977033
H      3.028906     3.871380    -4.320606
O     -2.986996     0.467853     0.334916
H     -2.294215     1.134656     0.254389
H     -2.490546    -0.315515     0.602883
6
BHMC Sample 60
O     -2.972406     0.501125     0.363738
H     -2.524235    -0.185067     0.871688
H     -2.492105     0.476122    -0.471884
O      2.534015     3.863111    -3.513806
H      3.226796     4.529914    -3.594333
H      3.030465     3.079743    -3.245839
6
BHMC Sample 61
O     -4.093812     3.171968    -0.040965
H     -3.934215     2.517836     0.649229
H     -3.565105     2.826096    -0.769264
O      2.534015     3.863111    -3.513806
H      3.226796     4.529914    -3.594333
H      3.030465     3.079743    -3.245839
6
BHMC Sample 62
O     -4.093812     3.171968    -0.040965
H     -3.934215     2.517836     0.649229
H     -3.565105     2.826096    -0.769264
O      3.422267     2.786441    -0.063489
H      4.162522     3.381642    -0.233239
H      3.643420     2.422449     0.802846
6
BHMC Sample 63
O      3.437548     2.855332    -0.022380
H      3.597145     2.201199     0.667814
H      3.966255     2.509459    -0.750679
O     -4.109093     3.103077    -0.082074
H     -3.368839     3.698278    -0.251824
H     -3.887941     2.739086     0.784261
6
BHMC Sample 64
O      3.527114     2.766267    -0.054775
H      2.636530     2.456065     0.146134
H      3.505274     3.668230     0.285173
O     -4.109093     3.103077    -0.082074
H     -3.368839     3.698278    -0.251824
H     -3.887941     2.739086     0.784261
6
BHMC Sample 65
O      3.527114     2.766267    -0.054775
H      2.636530     2.456065     0.146134
H      3.505274     3.668230     0.285173
O     -4.050202     3.117681     0.024368
H     -3.577355     3.645265    -0.630711
H     -4.614158     2.560311    -0.526292
6
BHMC Sample 66
O      3.204794     3.272860    -1.802865
H      2.314210     2.962657    -1.601956
H      3.182953     4.174822    -1.462917
O     -4.050202     3.117681     0.024368
H     -3.577355     3.645265    -0.630711
H     -4.614158     2.560311    -0.526292
6
BHMC Sample 67
O      3.767835     2.270257    -3.999383
H      2.877252     1.960055    -3.798474
H      3.745995     3.172220    -3.659435
O     -4.050202     3.117681     0.024368
H     -3.577355     3.645265    -0.630711
H     -4.614158     2.560311    -0.526292
6
BHMC Sample 68
O      4.014953     2.902626    -2.342288
H      3.124369     2.592424    -2.141379
H      3.993112     3.804589    -2.002340
O     -4.050202     3.117681     0.024368
H     -3.577355     3.645265    -0.630711
H     -4.614158     2.560311    -0.526292
6
BHMC Sample 69
O      4.014953     2.902626    -2.342288
H      3.124369     2.592424    -2.141379
H      3.993112     3.804589    -2.002340
O     -4.071678     3.155761     0.009173
H     -4.640240     2.572240    -0.507834
H     -3.210395     3.028930    -0.408007
6
BHMC Sample 70
O      4.261102     3.590147    -3.718217
H      3.370518     3.279945    -3.517308
H      4.239261     4.492110    -3.378269
O     -4.071678     3.155761     0.009173
H     -4.640240     2.572240    -0.507834
H     -3.210395     3.028930    -0.408007
6
BHMC Sample 71
O      4.183912     3.560659    -3.683855
H      4.473913     4.145416    -2.974146
H      4.361026     4.094678    -4.466819
O     -4.071678     3.155761     0.009173
H     -4.640240     2.572240    -0.507834
H     -3.210395     3.028930    -0.408007
6
BHMC Sample 72
O      4.183912     3.560659    -3.683855
H      4.473913     4.145416    -2.974146
H      4.361026     4.094678    -4.466819
O     -2.738542     1.150765     1.610930
H     -3.299186     0.510405     1.156316
H     -1.992170     1.239685     1.005161
6
BHMC Sample 73
O      3.203203     2.140948    -1.374332
H      3.493204     2.725706    -0.664623
H      3.380317     2.674967    -2.157296
O     -2.738542     1.150765     1.610930
H     -3.299186     0.510405     1.156316
H     -1.992170     1.239685     1.005161
6
BHMC Sample 74
O     -2.754287     1.057311     1.555696
H     -2.464286     1.642069     2.265405
H     -2.577173     1.591330     0.772732
O      3.218948     2.234402    -1.319098
H      2.658304     1.594042    -1.773712
H      3.965320     2.323322    -1.924867
6
BHMC Sample 75
O     -2.754287     1.057311     1.555696
H     -2.464286     1.642069     2.265405
H     -2.577173     1.591330     0.772732
O      1.516172     1.006164    -2.807827
H      0.955528     0.365804    -3.262441
H      2.262544     1.095084    -3.413596
6
BHMC Sample 76
O     -2.667960     1.388158     1.619442
H     -2.292680     1.880666     2.358583
H     -2.422069     1.939301     0.867539
O      1.516172     1.006164    -2.807827
H      0.955528     0.365804    -3.262441
H      2.262544     1.095084    -3.413596
6
BHMC Sample 77
O      1.491808     0.916913    -2.866445
H      1.867087     1.409422    -2.127304
H      1.737698     1.468057    -3.618348
O     -2.643595     1.477409     1.678059
H     -3.204239     0.837048     1.223446
H     -1.897223     1.566329     1.072290
6
BHMC Sample 78
O     -2.096685    -3.098035     4.506238
H     -2.819049    -2.944582     3.886261
H     -2.189564    -4.039717     4.691133
O     -0.061909     0.183813     0.353461
H     -0.622553    -0.456547    -0.101153
H      0.684463     0.272733    -0.252308
6
BHMC Sample 79
O     -2.096685    -3.098035     4.506238
H     -2.819049    -2.944582     3.886261
H     -2.189564    -4.039717     4.691133
O      0.091881    -0.738763    -0.269583
H     -0.468763    -1.379123    -0.724196
H      0.838253    -0.649843    -0.875352
6
BHMC Sample 80
O      3.244280    -2.800560     4.102643
H      2.315611    -2.801388     4.362071
H      3.492375    -3.720901     4.247556
O      0.091881    -0.738763    -0.269583
H     -0.468763    -1.379123    -0.724196
H      0.838253    -0.649843    -0.875352
6
BHMC Sample 81
O      0.226858     0.307057    -0.134780
H     -0.701811     0.306228     0.124648
H      0.474953    -0.613285     0.010132
O     -4.783205    -0.145201    -3.403414
H     -4.617072     0.198016    -4.289788
H     -4.807189    -1.098836    -3.551533
6
BHMC Sample 82
O     -3.832313     4.325018     0.430347
H     -3.621653     4.251589    -0.507714
H     -4.670237     4.801497     0.409599
O     -4.783205    -0.145201    -3.403414
H     -4.617072     0.198016    -4.289788
H     -4.807189    -1.098836    -3.551533
6
BHMC Sample 83
O      0.209088    -0.134350     0.319603
H      0.419748    -0.207779    -0.618458
H     -0.628836     0.342130     0.298855
O      3.712479     3.245402    -3.128338
H      3.541066     2.993748    -4.043949
H      4.523553     3.763426    -3.204127
6
BHMC Sample 84
O      3.783367     3.237755    -3.130161
H      3.994028     3.164325    -4.068223
H      2.945444     3.714234    -3.150910
O      0.138199    -0.126702     0.321427
H     -0.033214    -0.378357    -0.594184
H      0.949274     0.391321     0.245638
6
BHMC Sample 85
O      3.783367     3.237755    -3.130161
H      3.994028     3.164325    -4.068223
H      2.945444     3.714234    -3.150910
O      1.121127    -0.495129     0.106524
H      0.949714    -0.746783    -0.809087
H      1.932202     0.022895     0.030736
6
BHMC Sample 86
O      3.751956     3.211963    -3.231433
H      3.007207     3.777541    -2.996488
H      4.430822     3.510378    -2.615260
O      1.121127    -0.495129     0.106524
H      0.949714    -0.746783    -0.809087
H      1.932202     0.022895     0.030736
6
BHMC Sample 87
O      1.160605    -0.528568     0.003429
H      0.415855     0.037010     0.238374
H      1.839470    -0.230153     0.619602
O      3.712479     3.245402    -3.128338
H      3.541066     2.993748    -4.043949
H      4.523553     3.763426    -3.204127
6
BHMC Sample 88
O      1.091761    -0.497525     0.059637
H      1.553867    -0.254350    -0.750950
H      1.794160    -0.431495     0.716793
O      3.712479     3.245402    -3.128338
H      3.541066     2.993748    -4.043949
H      4.523553     3.763426    -3.204127
6
BHMC Sample 89
O      3.683112     3.243005    -3.175225
H      4.145218     3.486181    -3.985813
H      4.385512     3.309036    -2.518070
O      1.121127    -0.495129     0.106524
H      0.949714    -0.746783    -0.809087
H      1.932202     0.022895     0.030736
6
BHMC Sample 90
O     -0.388169    -0.103069     0.051144
H      0.073938     0.140107    -0.759444
H      0.314231    -0.037038     0.708299
O     -3.992694    -3.073526    -3.029563
H     -3.876694    -3.536818    -2.191136
H     -3.179923    -2.556751    -3.094999
6
BHMC Sample 91
O     -3.564247     2.555659    -2.882525
H     -2.868455     2.812358    -3.498730
H     -4.339908     2.536147    -3.454842
O     -0.309590    -0.017827    -0.257664
H     -0.193590    -0.481120     0.580764
H      0.503180     0.498947    -0.323100
6
BHMC Sample 92
O     -3.217147     2.881828    -2.954957
H     -2.526159     3.553278    -2.992636
H     -3.673056     3.017936    -3.793527
O     -0.309590    -0.017827    -0.257664
H     -0.193590    -0.481120     0.580764
H      0.503180     0.498947    -0.323100
6
BHMC Sample 93
O     -3.136862     2.928023    -2.993452
H     -3.623288     2.679795    -3.788123
H     -3.850210     3.158199    -2.387043
O     -0.309590    -0.017827    -0.257664
H     -0.193590    -0.481120     0.580764
H      0.503180     0.498947    -0.323100
6
BHMC Sample 94
O     -0.190491    -0.013825    -0.203879
H     -0.676917    -0.262053    -0.998549
H     -0.903839     0.216351     0.402531
O     -3.255961     2.924021    -3.047238
H     -3.139961     2.460729    -2.208810
H     -2.443190     3.440795    -3.112674
6
BHMC Sample 95
O     -3.136862     2.928023    -2.993452
H     -3.623288     2.679795    -3.788123
H     -3.850210     3.158199    -2.387043
O     -0.309590    -0.017827    -0.257664
H     -0.193590    -0.481120     0.580764
H      0.503180     0.498947    -0.323100
6
BHMC Sample 96
O     -4.042271    -1.608678     2.580154
H     -3.998971    -1.918027     3.492381
H     -4.589682    -0.819368     2.663284
O     -0.309590    -0.017827    -0.257664
H     -0.193590    -0.481120     0.580764
H      0.503180     0.498947    -0.323100
6
BHMC Sample 97
O     -2.884064    -4.153593     0.121783
H     -2.833715    -4.812294     0.824142
H     -2.591178    -4.658147    -0.645826
O     -0.309590    -0.017827    -0.257664
H     -0.193590    -0.481120     0.580764
H      0.503180     0.498947    -0.323100
6
BHMC Sample 98
O     -4.775883    -2.816373     1.191200
H     -4.725535    -3.475074     1.893559
H     -4.482998    -3.320927     0.423591
O     -0.309590    -0.017827    -0.257664
H     -0.193590    -0.481120     0.580764
H      0.503180     0.498947    -0.323100
6
BHMC Sample 99
O     -4.775883    -2.816373     1.191200
H     -4.725535    -3.475074     1.893559
H     -4.482998    -3.320927     0.423591
O     -1.792822     1.029158     0.349821
H     -1.676821     0.565866     1.188249
H     -0.980051     1.545933     0.284385
6
BHMC Sample 100
O     -4.616865    -0.312583     0.224220
H     -4.566516    -0.971284     0.926579
H     -4.323979    -0.817137    -0.543388
O     -1.792822     1.029158     0.349821
H     -1.676821     0.565866     1.188249
H     -0.980051     1.545933     0.284385
6
BHMC Sample 101
O     -4.616865    -0.312583     0.224220
H     -4.566516    -0.971284     0.926579
H     -4.323979    -0.817137    -0.543388
O     -1.799965     0.411384     1.383927
H     -1.683964    -0.051909     2.222354
H     -0.987194     0.928158     1.318491
6
BHMC Sample 102
O     -4.616865    -0.312583     0.224220
H     -4.566516    -0.971284     0.926579
H     -4.323979    -0.817137    -0.543388
O     -1.088321     1.594732     0.426108
H     -0.972321     1.131439     1.264536
H     -0.275550     2.111506     0.360672
6
BHMC Sample 103
O     -0.114411     0.387751     0.021750
H     -0.064063    -0.270949     0.724109
H      0.178474    -0.116802    -0.745859
O     -3.714932    -0.174456    -1.772705
H     -4.017540    -0.254900    -0.860009
H     -4.533463    -0.283253    -2.272811
6
BHMC Sample 104
O      1.970273     0.515678    -3.844869
H      1.565705    -0.167904    -4.391466
H      2.694548     0.034721    -3.428115
O      0.373713     0.063080    -0.137530
H      0.071105    -0.017364     0.775166
H     -0.444818    -0.045716    -0.637636
6
BHMC Sample 105
O      0.293092     0.117651    -0.107179
H     -0.111476    -0.565931    -0.653776
H      1.017367    -0.363306     0.309575
O      2.050893     0.461107    -3.875220
H      1.748286     0.380663    -2.962524
H      1.232363     0.352310    -4.375326
6
BHMC Sample 106
O     -0.106569     0.388180     0.043281
H     -0.511137    -0.295402    -0.503316
H      0.617706    -0.092778     0.460035
O      1.582068     0.983612    -3.696655
H      1.332156     0.711189    -2.805372
H      0.793868     0.764319    -4.209085
6
BHMC Sample 107
O     -0.106569     0.388180     0.043281
H     -0.511137    -0.295402    -0.503316
H      0.617706    -0.092778     0.460035
O     -0.085610     1.135947    -4.025973
H     -0.110297     0.771815    -3.132746
H     -0.810120     1.773726    -4.009908
6
BHMC Sample 108
O     -0.062595     0.260622     0.029334
H     -0.929454     0.524432     0.359015
H      0.338071     1.111993    -0.180934
O     -0.085610     1.135947    -4.025973
H     -0.110297     0.771815    -3.132746
H     -0.810120     1.773726    -4.009908
6
BHMC Sample 109
O     -0.062595     0.260622     0.029334
H     -0.929454     0.524432     0.359015
H      0.338071     1.111993    -0.180934
O     -2.984672     3.261057     0.412559
H     -2.296851     2.636813     0.151260
H     -3.695885     2.676331     0.702742
6
BHMC Sample 110
O     -2.364469     2.558327     1.830153
H     -1.546792     2.329790     1.373094
H     -2.943736     1.829932     1.578224
O      0.007797     0.402990    -0.009628
H      0.695618    -0.221254    -0.270927
H     -0.703415    -0.181736     0.280555
6
BHMC Sample 111
O     -0.471187     3.278256     2.642569
H      0.346490     3.049719     2.185510
H     -1.050454     2.549860     2.390640
O      0.007797     0.402990    -0.009628
H      0.695618    -0.221254    -0.270927
H     -0.703415    -0.181736     0.280555
6
BHMC Sample 112
O     -2.184883     3.207673    -1.699786
H     -1.272928     2.983019    -1.917954
H     -2.427970     2.493124    -1.099863
O      0.007797     0.402990    -0.009628
H      0.695618    -0.221254    -0.270927
H     -0.703415    -0.181736     0.280555
6
BHMC Sample 113
O      0.761476     3.569866     2.151363
H      1.437773     3.008033     1.755517
H     -0.041455     3.063009     1.984101
O      0.007797     0.402990    -0.009628
H      0.695618    -0.221254    -0.270927
H     -0.703415    -0.181736     0.280555
6
BHMC Sample 114
O      1.141914     3.364940    -2.294361
H      0.852775     2.507845    -2.628301
H      1.189166     3.203194    -1.345054
O      0.007797     0.402990    -0.009628
H      0.695618    -0.221254    -0.270927
H     -0.703415    -0.181736     0.280555
6
BHMC Sample 115
O      1.165380     3.342825    -2.305009
H      1.293420     3.253378    -1.353518
H      0.376080     2.808672    -2.450840
O      0.007797     0.402990    -0.009628
H      0.695618    -0.221254    -0.270927
H     -0.703415    -0.181736     0.280555
6
BHMC Sample 116
O      0.043488     0.370237    -0.053091
H      0.171529     0.280790     0.898400
H     -0.745811    -0.163916    -0.198922
O      1.129689     3.375578    -2.261546
H      1.817510     2.751334    -2.522845
H      0.418476     2.790852    -1.971363
6
BHMC Sample 117
O      0.043488     0.370237    -0.053091
H      0.171529     0.280790     0.898400
H     -0.745811    -0.163916    -0.198922
O     -1.372998     1.758360    -3.421962
H     -1.733031     2.435963    -2.836909
H     -0.618452     1.428918    -2.917916
6
BHMC Sample 118
O     -1.313924     1.812733    -3.406103
H     -1.185883     1.723287    -2.454612
H     -2.103223     1.278581    -3.551934
O     -0.015586     0.315864    -0.068950
H     -0.375618     0.993467     0.516103
H      0.738960    -0.013579     0.435095
6
BHMC Sample 119
O     -0.366125    -0.043200    -3.321928
H     -0.238084    -0.132646    -2.370438
H     -1.155424    -0.577352    -3.467759
O     -0.015586     0.315864    -0.068950
H     -0.375618     0.993467     0.516103
H      0.738960    -0.013579     0.435095
6
BHMC Sample 120
O      0.220419     0.207866    -0.268553
H      0.348460     0.118420     0.682937
H     -0.568880    -0.326286    -0.414384
O      1.241790    -0.375502     2.805557
H      1.846020    -1.052564     3.133503
H      1.284966     0.294438     3.499279
6
BHMC Sample 121
O      0.220419     0.207866    -0.268553
H      0.348460     0.118420     0.682937
H     -0.568880    -0.326286    -0.414384
O     -2.506474     0.409538    -1.761834
H     -3.442394     0.385741    -1.528284
H     -2.532435     0.371409    -2.726098
6
BHMC Sample 122
O      0.539676     0.903662    -1.285119
H      1.054495     0.595849    -0.530174
H     -0.063908     0.165677    -1.428794
O     -2.506474     0.409538    -1.761834
H     -3.442394     0.385741    -1.528284
H     -2.532435     0.371409    -2.726098
6
BHMC Sample 123
O      0.029588     0.348600    -0.203756
H      0.544407     0.040786     0.551188
H     -0.573995    -0.389386    -0.347432
O     -1.452527    -1.284006    -2.413578
H     -2.178238    -1.352316    -3.045822
H     -0.876665    -2.011702    -2.679617
6
BHMC Sample 124
O     -1.787995     1.701697    -3.387437
H     -1.220258     2.461624    -3.214483
H     -1.608934     1.141355    -2.623544
O     -1.452527    -1.284006    -2.413578
H     -2.178238    -1.352316    -3.045822
H     -0.876665    -2.011702    -2.679617
6
BHMC Sample 125
O     -1.752244     1.699682    -3.401413
H     -1.332830     1.170798    -2.712862
H     -2.063803     2.464161    -2.903336
O     -1.452527    -1.284006    -2.413578
H     -2.178238    -1.352316    -3.045822
H     -0.876665    -2.011702    -2.679617
6
BHMC Sample 126
O     -2.481996     0.434653     2.177891
H     -1.528636     0.578962     2.180828
H     -2.799562     1.191559     2.683683
O      0.049950     0.265335     0.299428
H     -0.675761     0.197025    -0.332817
H      0.625812    -0.462360     0.033389
6
BHMC Sample 127
O      0.005990     0.170370     0.220701
H      0.959350     0.314679     0.223638
H     -0.311576     0.927275     0.726492
O     -2.438037     0.529619     2.256619
H     -3.163748     0.461309     1.624374
H     -1.862175    -0.198077     1.990579
6
BHMC Sample 128
O      0.320828    -2.833796     1.053948
H      0.740242    -3.362680     1.742499
H      0.009269    -2.069317     1.552025
O      0.049950     0.265335     0.299428
H     -0.675761     0.197025    -0.332817
H      0.625812    -0.462360     0.033389
6
BHMC Sample 129
O     -0.035952    -0.078532    -0.395543
H      0.383463    -0.607416     0.293008
H     -0.347511     0.685948     0.102535
O     -2.628217     1.776078    -0.691975
H     -2.392542     2.223178    -1.513934
H     -2.411588     0.855794    -0.887126
6
BHMC Sample 130
O     -0.035952    -0.078532    -0.395543
H      0.383463    -0.607416     0.293008
H     -0.347511     0.685948     0.102535
O      0.206435    -3.239767     0.045878
H      0.808602    -3.441164    -0.680683
H     -0.431586    -2.647768    -0.371736
6
BHMC Sample 131
O     -0.035952    -0.078532    -0.395543
H      0.383463    -0.607416     0.293008
H     -0.347511     0.685948     0.102535
O     -2.628217     1.776078    -0.691975
H     -2.392542     2.223178    -1.513934
H     -2.411588     0.855794    -0.887126
6
BHMC Sample 132
O     -0.035952    -0.078532    -0.395543
H      0.383463    -0.607416     0.293008
H     -0.347511     0.685948     0.102535
O     -0.306830     3.020599    -1.150063
H     -1.032541     2.952290    -1.782307
H      0.269032     2.292904    -1.416102
6
BHMC Sample 133
O     -0.035952    -0.078532    -0.395543
H      0.383463    -0.607416     0.293008
H     -0.347511     0.685948     0.102535
O     -2.348651     0.118773     1.876127
H     -2.143691    -0.672690     2.388604
H     -2.295276    -0.203025     0.967540
6
BHMC Sample 134
O     -2.165797    -0.887402    -2.021822
H     -2.262241    -1.540916    -1.319435
H     -2.212557    -0.058948    -1.530847
O     -0.086112     0.371087     0.132037
H      0.118848    -0.420376     0.644514
H     -0.032736     0.049289    -0.776551
6
BHMC Sample 135
O      2.226588     0.173782    -2.139633
H      2.646002    -0.355102    -1.451082
H      1.915029     0.938261    -1.641556
O     -0.086112     0.371087     0.132037
H      0.118848    -0.420376     0.644514
H     -0.032736     0.049289    -0.776551
6
BHMC Sample 136
O     -0.035952    -0.078532    -0.395543
H      0.383463    -0.607416     0.293008
H     -0.347511     0.685948     0.102535
O      1.078784     2.769662    -0.464029
H      1.505893     2.886339     0.393304
H      1.420794     1.913808    -0.751218
6
BHMC Sample 137
O      1.039233     0.017050     0.932563
H      1.701221    -0.028707     1.632140
H      0.544418     0.807312     1.177968
O      1.078784     2.769662    -0.464029
H      1.505893     2.886339     0.393304
H      1.420794     1.913808    -0.751218
6
BHMC Sample 138
O      1.039233     0.017050     0.932563
H      1.701221    -0.028707     1.632140
H      0.544418     0.807312     1.177968
O      1.117654     2.785241    -0.395783
H      1.527890     1.944929    -0.157795
H      0.781847     2.607944    -1.283327
6
BHMC Sample 139
O      2.410077    -1.522597     0.412880
H      2.576311    -1.747141     1.335743
H      2.395934    -0.558988     0.441792
O     -0.024810     0.339203     0.216519
H      0.385426    -0.501109     0.454506
H     -0.360616     0.161906    -0.671025
6
BHMC Sample 140
O      2.410077    -1.522597     0.412880
H      2.576311    -1.747141     1.335743
H      2.395934    -0.558988     0.441792
O      0.024692     0.399202     0.183803
H      0.408452    -0.456045     0.412573
H     -0.284178     0.252954    -0.719051
6
BHMC Sample 141
O     -0.050697    -0.246355    -0.317258
H      0.115537    -0.470899     0.605604
H     -0.064840     0.717254    -0.288346
O     -1.940373    -1.356671     1.853238
H     -1.778449    -0.853907     1.045732
H     -2.172878    -2.228956     1.511194
6
BHMC Sample 142
O     -0.050697    -0.246355    -0.317258
H      0.115537    -0.470899     0.605604
H     -0.064840     0.717254    -0.288346
O     -2.427181    -0.687451     1.604474
H     -2.058195    -0.402807     0.759558
H     -2.690571    -1.597593     1.419538
6
BHMC Sample 143
O     -0.099429    -0.892366    -0.428337
H      0.064955    -1.067319     0.505524
H      0.078793     0.053273    -0.488191
O     -2.427181    -0.687451     1.604474
H     -2.058195    -0.402807     0.759558
H     -2.690571    -1.597593     1.419538
6
BHMC Sample 144
O     -0.324933     0.140420    -0.542302
H     -0.160548    -0.034534     0.391560
H     -0.146711     1.086059    -0.602156
O     -2.427181    -0.687451     1.604474
H     -2.058195    -0.402807     0.759558
H     -2.690571    -1.597593     1.419538
6
BHMC Sample 145
O     -0.114202    -0.256895    -0.291336
H      0.050182    -0.431849     0.642526
H      0.064020     0.688744    -0.351190
O     -2.091458     2.159357    -0.703569
H     -1.787756     1.257172    -0.545823
H     -2.424360     2.110764    -1.608417
6
BHMC Sample 146
O     -0.114202    -0.256895    -0.291336
H      0.050182    -0.431849     0.642526
H      0.064020     0.688744    -0.351190
O      2.284211     1.275456    -1.639395
H      1.755534     0.541414    -1.303628
H      2.189801     1.178687    -2.595249
6
BHMC Sample 147
O     -0.114202    -0.256895    -0.291336
H      0.050182    -0.431849     0.642526
H      0.064020     0.688744    -0.351190
O      2.225564    -0.907943    -2.233178
H      1.439014    -1.035472    -1.688997
H      1.865320    -0.937519    -3.128323
6
BHMC Sample 148
O     -1.663281    -1.329819     2.007602
H     -1.548534    -1.161750     2.950106
H     -1.224894    -2.182074     1.902449
O      0.382264     0.052368     0.116988
H     -0.404285    -0.075161     0.661169
H      0.022021     0.022792    -0.778157
6
BHMC Sample 149
O      0.287148     0.081860     0.050498
H      0.401895     0.249930     0.993002
H      0.725535    -0.770395    -0.054655
O     -1.568164    -1.359311     2.074092
H     -2.354714    -1.486840     2.618272
H     -1.928408    -1.388887     1.178947
6
BHMC Sample 150
O      2.555357    -0.702506    -1.961936
H      2.719741    -0.877460    -1.028074
H      2.733578     0.243133    -2.021790
O      0.382264     0.052368     0.116988
H     -0.404285    -0.075161     0.661169
H      0.022021     0.022792    -0.778157
6
BHMC Sample 151
O      0.831914    -2.133002    -2.093797
H      1.377463    -2.149809    -1.298924
H      1.250204    -1.432615    -2.607674
O      0.382264     0.052368     0.116988
H     -0.404285    -0.075161     0.661169
H      0.022021     0.022792    -0.778157
6
BHMC Sample 152
O     -2.235639    -1.614885     1.421206
H     -1.618526    -2.171834     0.932629
H     -1.768945    -1.484122     2.254679
O      0.382264     0.052368     0.116988
H     -0.404285    -0.075161     0.661169
H      0.022021     0.022792    -0.778157
6
BHMC Sample 153
O     -0.361269     0.142062    -0.114965
H      0.255844    -0.414887    -0.603543
H      0.105425     0.272825     0.718508
O     -0.385043    -3.089548     0.828575
H     -0.595926    -2.149532     0.882931
H     -0.879539    -3.368089     0.047664
6
BHMC Sample 154
O     -1.704408     2.487990     0.728464
H     -2.117072     1.656654     0.989842
H     -1.106006     2.653847     1.466017
O      0.235127    -0.220492     0.242185
H      0.024243     0.719524     0.296541
H     -0.259370    -0.499033    -0.538726
6
BHMC Sample 155
O     -0.061913     0.221826    -0.332977
H     -0.474577    -0.609509    -0.071599
H      0.536489     0.387683     0.404576
O      2.753043    -1.623376    -0.406826
H      1.866165    -1.349979    -0.670945
H      3.294887    -0.879948    -0.699495
6
BHMC Sample 156
O     -0.061913     0.221826    -0.332977
H     -0.474577    -0.609509    -0.071599
H      0.536489     0.387683     0.404576
O      2.349187    -1.721314    -1.601952
H      1.513477    -1.239276    -1.585111
H      2.999717    -1.008100    -1.610333
6
BHMC Sample 157
O     -0.061913     0.221826    -0.332977
H     -0.474577    -0.609509    -0.071599
H      0.536489     0.387683     0.404576
O     -3.152536     0.791169    -1.357321
H     -2.268141     1.014251    -1.042461
H     -2.977789     0.455163    -2.245295
6
BHMC Sample 158
O     -0.061913     0.221826    -0.332977
H     -0.474577    -0.609509    -0.071599
H      0.536489     0.387683     0.404576
O     -3.334596     0.128801     0.330740
H     -2.470232     0.533082     0.187602
H     -3.556786    -0.202148    -0.548487
6
BHMC Sample 159
O     -0.185203    -0.027562    -0.790857
H     -0.536279    -0.735131    -0.237847
H      0.508557     0.338017    -0.229939
O     -3.334596     0.128801     0.330740
H     -2.470232     0.533082     0.187602
H     -3.556786    -0.202148    -0.548487
6
BHMC Sample 160
O     -0.114227     0.113997    -0.371310
H     -0.465304    -0.593572     0.181701
H      0.579532     0.479575     0.189609
O      1.107169    -1.108021    -2.972156
H      1.215979    -1.014614    -2.017959
H      1.175523    -0.195240    -3.278902
6
BHMC Sample 161
O      0.012684     2.847420     0.077819
H     -0.483535     3.269815    -0.632869
H      0.915878     3.120500    -0.120289
O     -0.059055    -0.335396    -0.215817
H      0.049755    -0.241989     0.738380
H      0.009299     0.577385    -0.522563
6
BHMC Sample 162
O      0.701681     2.760369     0.028022
H      0.240499     3.283961    -0.637479
H      1.618840     2.835944    -0.259530
O     -0.059055    -0.335396    -0.215817
H      0.049755    -0.241989     0.738380
H      0.009299     0.577385    -0.522563
6
BHMC Sample 163
O     -0.151992    -0.199722     0.317684
H     -0.613175     0.323870    -0.347817
H      0.765167    -0.124147     0.030133
O     -0.306335     1.198053     3.188980
H     -0.336107     0.264527     3.431259
H     -0.365717     1.164273     2.226033
6
BHMC Sample 164
O     -0.151992    -0.199722     0.317684
H     -0.613175     0.323870    -0.347817
H      0.765167    -0.124147     0.030133
O     -0.608467     1.296229     3.106175
H     -1.214123     0.549834     3.190621
H     -0.138810     1.090540     2.288221
6
BHMC Sample 165
O      0.140759    -0.254640     0.413798
H     -0.447698     0.085332    -0.270210
H      1.005280     0.020709     0.087660
O     -0.608467     1.296229     3.106175
H     -1.214123     0.549834     3.190621
H     -0.138810     1.090540     2.288221
6
BHMC Sample 166
O     -0.092021    -0.205107     0.336715
H     -0.680478     0.134865    -0.347292
H      0.772499     0.070242     0.010577
O     -0.548887     1.332781     3.101062
H     -0.116067     0.540277     3.441151
H     -0.601424     1.150278     2.154560
6
BHMC Sample 167
O      0.129991    -1.309422    -2.532488
H      0.056147    -0.721198    -3.292927
H     -0.672385    -1.838194    -2.611053
O     -0.126761     0.325003     0.202138
H      0.306059    -0.467501     0.542227
H     -0.179298     0.142499    -0.744365
6
BHMC Sample 168
O      0.129991    -1.309422    -2.532488
H      0.056147    -0.721198    -3.292927
H     -0.672385    -1.838194    -2.611053
O      1.643822     0.751743    -0.639448
H      1.552896     0.020912    -0.016011
H      1.254033     0.387544    -1.444034
6
BHMC Sample 169
O      0.419680     3.149750    -2.157706
H      0.960520     3.823806    -1.730072
H     -0.402973     3.626425    -2.317710
O      1.643822     0.751743    -0.639448
H      1.552896     0.020912    -0.016011
H      1.254033     0.387544    -1.444034
6
BHMC Sample 170
O      0.419680     3.149750    -2.157706
H      0.960520     3.823806    -1.730072
H     -0.402973     3.626425    -2.317710
O      1.155392     2.123795     0.704558
H      0.928159     1.611187     1.489832
H      1.443836     1.440116     0.087049
6
BHMC Sample 171
O      2.415690     1.620519    -2.152585
H      1.523122     1.960465    -2.284827
H      2.370990     0.765663    -2.596208
O      1.155392     2.123795     0.704558
H      0.928159     1.611187     1.489832
H      1.443836     1.440116     0.087049
6
BHMC Sample 172
O      0.312423     0.171637     0.191955
H     -0.580145     0.511583     0.059713
H      0.267723    -0.683219    -0.251668
O      1.727904     2.497718    -1.194454
H      1.984963     2.806741    -2.071655
H      1.282016     1.664294    -1.390723
6
BHMC Sample 173
O      0.312423     0.171637     0.191955
H     -0.580145     0.511583     0.059713
H      0.267723    -0.683219    -0.251668
O      2.595263     1.275121    -1.513158
H      2.760203     1.713991    -2.356511
H      1.636227     1.165012    -1.520875
6
BHMC Sample 174
O     -0.722100    -0.407618    -1.235223
H     -1.614668    -0.067672    -1.367465
H     -0.766800    -1.262474    -1.678846
O      2.595263     1.275121    -1.513158
H      2.760203     1.713991    -2.356511
H      1.636227     1.165012    -1.520875
6
BHMC Sample 175
O     -0.722100    -0.407618    -1.235223
H     -1.614668    -0.067672    -1.367465
H     -0.766800    -1.262474    -1.678846
O      2.988341     1.288351    -2.668833
H      3.153280     1.727221    -3.512186
H      2.029304     1.178242    -2.676550
6
BHMC Sample 176
O      1.241157    -2.216647    -0.911172
H      1.065115    -3.060563    -1.343080
H      1.892055    -2.465820    -0.244971
O      2.988341     1.288351    -2.668833
H      3.153280     1.727221    -3.512186
H      2.029304     1.178242    -2.676550
6
BHMC Sample 177
O     -0.261728    -2.397687    -1.090503
H     -0.437770    -3.241603    -1.522411
H      0.389169    -2.646860    -0.424302
O      2.988341     1.288351    -2.668833
H      3.153280     1.727221    -3.512186
H      2.029304     1.178242    -2.676550
6
BHMC Sample 178
O     -0.261728    -2.397687    -1.090503
H     -0.437770    -3.241603    -1.522411
H      0.389169    -2.646860    -0.424302
O      2.968744     1.250648    -2.745026
H      2.115051     1.676110    -2.890785
H      3.378577     1.827787    -2.088611
6
BHMC Sample 179
O     -1.590286    -1.730001    -0.269187
H     -1.766328    -2.573917    -0.701094
H     -0.939389    -1.979174     0.397015
O      2.968744     1.250648    -2.745026
H      2.115051     1.676110    -2.890785
H      3.378577     1.827787    -2.088611
6
BHMC Sample 180
O     -2.570882    -1.771248     0.940157
H     -2.746924    -2.615164     0.508249
H     -1.919984    -2.020421     1.606358
O      2.968744     1.250648    -2.745026
H      2.115051     1.676110    -2.890785
H      3.378577     1.827787    -2.088611
6
BHMC Sample 181
O     -2.570882    -1.771248     0.940157
H     -2.746924    -2.615164     0.508249
H     -1.919984    -2.020421     1.606358
O      3.986778     1.735766    -3.092688
H      3.133085     2.161229    -3.238447
H      4.396611     2.312906    -2.436273
6
BHMC Sample 182
O     -1.964119    -0.472323    -1.009734
H     -2.140161    -1.316239    -1.441642
H     -1.313221    -0.721496    -0.343533
O      3.986778     1.735766    -3.092688
H      3.133085     2.161229    -3.238447
H      4.396611     2.312906    -2.436273
6
BHMC Sample 183
O     -0.882876    -0.242992    -1.296679
H     -1.058918    -1.086908    -1.728586
H     -0.231978    -0.492165    -0.630477
O      3.986778     1.735766    -3.092688
H      3.133085     2.161229    -3.238447
H      4.396611     2.312906    -2.436273
6
BHMC Sample 184
O      3.935373     1.853027    -3.077225
H      3.759331     1.009111    -3.509132
H      4.586270     1.603854    -2.411024
O     -0.831471    -0.360253    -1.312142
H     -1.685164     0.065209    -1.457901
H     -0.421637     0.216886    -0.655727
6
BHMC Sample 185
O      3.946280     1.780342    -3.129234
H      3.948829     1.164794    -2.387059
H      4.223659     2.601844    -2.707602
O     -0.831471    -0.360253    -1.312142
H     -1.685164     0.065209    -1.457901
H     -0.421637     0.216886    -0.655727
6
BHMC Sample 186
O     -4.205612     0.680485    -4.343097
H     -4.687915    -0.034214    -3.911451
H     -4.878739     1.368304    -4.401267
O      2.763648    -0.834607    -2.211580
H      2.915002    -0.525216    -3.112927
H      2.842501    -0.021431    -1.697323
6
BHMC Sample 187
O     -4.205612     0.680485    -4.343097
H     -4.687915    -0.034214    -3.911451
H     -4.878739     1.368304    -4.401267
O     -0.541903     3.056583     1.733203
H     -0.197509     3.663786     1.067055
H     -1.302815     3.539067     2.079840
6
BHMC Sample 188
O     -4.205612     0.680485    -4.343097
H     -4.687915    -0.034214    -3.911451
H     -4.878739     1.368304    -4.401267
O      1.119365     1.280427     0.855805
H      1.524297     1.764448     0.125867
H      0.656308     1.978402     1.335746
6
BHMC Sample 189
O     -4.205612     0.680485    -4.343097
H     -4.687915    -0.034214    -3.911451
H     -4.878739     1.368304    -4.401267
O      1.120107     1.321090     0.904391
H      0.551206     1.046227     0.175105
H      1.617614     2.051210     0.515358
6
BHMC Sample 190
O     -4.205735     1.211289    -4.383829
H     -4.752534     0.537442    -3.963507
H     -4.814903     1.956625    -4.438289
O      1.120107     1.321090     0.904391
H      0.551206     1.046227     0.175105
H      1.617614     2.051210     0.515358
6
BHMC Sample 191
O     -4.205735     1.211289    -4.383829
H     -4.752534     0.537442    -3.963507
H     -4.814903     1.956625    -4.438289
O      0.019513     1.968084     1.788708
H     -0.310844     1.691888     0.925206
H      0.233529     2.897781     1.641076
6
BHMC Sample 192
O     -3.395427    -0.250268    -4.518003
H     -3.942226    -0.924115    -4.097681
H     -4.004595     0.495069    -4.572463
O      0.019513     1.968084     1.788708
H     -0.310844     1.691888     0.925206
H      0.233529     2.897781     1.641076
6
BHMC Sample 193
O     -3.892356     1.565656    -2.709709
H     -4.439155     0.891809    -2.289387
H     -4.501524     2.310993    -2.764169
O      0.019513     1.968084     1.788708
H     -0.310844     1.691888     0.925206
H      0.233529     2.897781     1.641076
6
BHMC Sample 194
O      0.077683     2.000650     1.711661
H     -0.469115     1.326803     2.131983
H     -0.531485     2.745986     1.657201
O     -3.950526     1.533090    -2.632661
H     -4.280883     1.256894    -3.496164
H     -3.736510     2.462787    -2.780294
6
BHMC Sample 195
O      0.155853    -1.219360     0.648150
H     -0.535112    -1.201904     1.320453
H      0.325330    -0.279999     0.512294
O     -3.950526     1.533090    -2.632661
H     -4.280883     1.256894    -3.496164
H     -3.736510     2.462787    -2.780294
6
BHMC Sample 196
O      0.173830    -0.318939    -0.178816
H     -0.517135    -0.301483     0.493487
H      0.343306     0.620422    -0.314672
O      3.418756     2.200787     4.101779
H      4.263539     1.887389     4.447002
H      3.600977     3.131491     3.921442
6
BHMC Sample 197
O     -2.841844    -4.122189    -3.745037
H     -3.458437    -4.244083    -3.013817
H     -2.011364    -4.421354    -3.357246
O     -0.342335    -0.205768    -0.054962
H      0.502449    -0.519166     0.290261
H     -0.160114     0.724935    -0.235298
6
BHMC Sample 198
O     -0.296838    -0.147668    -0.108349
H     -0.913432    -0.269563     0.622872
H      0.533642    -0.446834     0.279442
O     -2.887340    -4.180289    -3.691650
H     -2.042557    -4.493687    -3.346428
H     -2.705119    -3.249586    -3.871987
6
BHMC Sample 199
O     -0.071295     0.140353    -0.373004
H     -0.687889     0.018459     0.358217
H      0.759184    -0.158812     0.014787
O     -0.334814    -4.177441    -4.508231
H     -0.986022    -4.307504    -3.808182
H     -0.359703    -3.221356    -4.639444
6
BHMC Sample 200
O     -0.384612    -4.107662    -4.539016
H     -1.001206    -4.229557    -3.807795
H      0.445868    -4.406828    -4.151225
O     -0.021498     0.070575    -0.342220
H     -0.672705    -0.059488     0.357830
H     -0.046387     1.026660    -0.473433
6
BHMC Sample 201
O     -0.071295     0.140353    -0.373004
H     -0.687889     0.018459     0.358217
H      0.759184    -0.158812     0.014787
O     -0.334814    -4.177441    -4.508231
H     -0.986022    -4.307504    -3.808182
H     -0.359703    -3.221356    -4.639444
6
BHMC Sample 202
O     -2.014127     0.394078     1.102169
H     -2.630721     0.272184     1.833390
H     -1.183647     0.094913     1.489960
O     -0.334814    -4.177441    -4.508231
H     -0.986022    -4.307504    -3.808182
H     -0.359703    -3.221356    -4.639444
6
BHMC Sample 203
O     -2.014127     0.394078     1.102169
H     -2.630721     0.272184     1.833390
H     -1.183647     0.094913     1.489960
O      0.628927    -3.998461    -3.156229
H     -0.022281    -4.128524    -2.456179
H      0.604038    -3.042376    -3.287442
6
BHMC Sample 204
O      0.579129    -3.928683    -3.187013
H     -0.037465    -4.050577    -2.455793
H      1.409609    -4.227848    -2.799222
O     -1.964329     0.324300     1.132954
H     -2.615537     0.194237     1.833003
H     -1.989218     1.280384     1.001741
6
BHMC Sample 205
O      0.579129    -3.928683    -3.187013
H     -0.037465    -4.050577    -2.455793
H      1.409609    -4.227848    -2.799222
O     -1.803064    -1.145745     1.774888
H     -2.454271    -1.275808     2.474938
H     -1.827953    -0.189660     1.643676
6
BHMC Sample 206
O      0.579129    -3.928683    -3.187013
H     -0.037465    -4.050577    -2.455793
H      1.409609    -4.227848    -2.799222
O     -1.787984    -1.135474     1.784612
H     -2.052457    -0.239142     1.544407
H     -2.469114    -1.389339     2.419868
6
BHMC Sample 207
O     -1.852862    -1.075966     1.744104
H     -2.469455    -1.197861     2.475325
H     -1.022382    -1.375132     2.131895
O      0.644006    -3.988191    -3.146505
H      0.379534    -3.091858    -3.386711
H     -0.037124    -4.242056    -2.511250
6
BHMC Sample 208
O      0.579129    -3.928683    -3.187013
H     -0.037465    -4.050577    -2.455793
H      1.409609    -4.227848    -2.799222
O     -1.787984    -1.135474     1.784612
H     -2.052457    -0.239142     1.544407
H     -2.469114    -1.389339     2.419868
6
BHMC Sample 209
O     -1.852862    -1.075966     1.744104
H     -2.469455    -1.197861     2.475325
H     -1.022382    -1.375132     2.131895
O      0.644006    -3.988191    -3.146505
H      0.379534    -3.091858    -3.386711
H     -0.037124    -4.242056    -2.511250
6
BHMC Sample 210
O     -1.855825    -1.734038     2.075636
H     -2.523041    -1.917814     2.747036
H     -1.081148    -2.179583     2.437500
O      0.644006    -3.988191    -3.146505
H      0.379534    -3.091858    -3.386711
H     -0.037124    -4.242056    -2.511250
6
BHMC Sample 211
O     -0.035820     0.209774    -0.344421
H     -0.703036     0.025997     0.326979
H      0.738856    -0.235771     0.017442
O     -4.048728     4.477057     2.191166
H     -4.425540     3.684130     2.591586
H     -3.103353     4.281637     2.194349
6
BHMC Sample 212
O     -0.265748     0.025925    -0.382318
H     -0.966188    -0.132843     0.261036
H      0.462656    -0.487619    -0.014516
O     -4.048728     4.477057     2.191166
H     -4.425540     3.684130     2.591586
H     -3.103353     4.281637     2.194349
6
BHMC Sample 213
O     -0.265748     0.025925    -0.382318
H     -0.966188    -0.132843     0.261036
H      0.462656    -0.487619    -0.014516
O     -3.011006     4.696498     1.908041
H     -3.387817     3.903571     2.308461
H     -2.065630     4.501077     1.911225
6
BHMC Sample 214
O     -0.265748     0.025925    -0.382318
H     -0.966188    -0.132843     0.261036
H      0.462656    -0.487619    -0.014516
O     -2.873885    -1.524989     4.734029
H     -1.919610    -1.505458     4.875570
H     -3.020675    -0.733325     4.201435
6
BHMC Sample 215
O     -0.265748     0.025925    -0.382318
H     -0.966188    -0.132843     0.261036
H      0.462656    -0.487619    -0.014516
O     -2.875182    -2.232173     4.465296
H     -1.936702    -2.113155     4.655417
H     -3.094533    -1.421768     3.988785
6
BHMC Sample 216
O     -4.040350    -0.935782     3.846330
H     -3.143972    -0.835238     3.505557
H     -4.573078    -0.696662     3.079127
O     -0.239710    -0.309808     0.095463
H      0.698770    -0.190790     0.285585
H     -0.459061     0.500598    -0.381048
6
BHMC Sample 217
O     -0.219819    -0.276809     0.141434
H      0.676559    -0.176264    -0.199340
H     -0.752548    -0.037689    -0.625770
O     -4.060240    -0.968781     3.800360
H     -3.121760    -0.849764     3.990481
H     -4.279591    -0.158376     3.323849
6
BHMC Sample 218
O     -0.121216    -0.113221     0.369326
H      0.775161    -0.012677     0.028552
H     -0.653945     0.125898    -0.397878
O      1.029643    -3.488654     4.397595
H      0.148033    -3.179648     4.156069
H      1.503017    -2.662194     4.555130
6
BHMC Sample 219
O     -1.377581    -0.870810     0.537617
H     -0.481203    -0.770265     0.196844
H     -1.910309    -0.631690    -0.229586
O      1.029643    -3.488654     4.397595
H      0.148033    -3.179648     4.156069
H      1.503017    -2.662194     4.555130
6
BHMC Sample 220
O     -1.377581    -0.870810     0.537617
H     -0.481203    -0.770265     0.196844
H     -1.910309    -0.631690    -0.229586
O      2.113954    -4.830754     0.864010
H      1.219468    -4.611304     1.151746
H      2.652033    -4.204112     1.363735
6
BHMC Sample 221
O     -0.744827    -0.497157     1.940866
H      0.196750    -0.527828     2.146346
H     -0.806889     0.305597     1.410477
O      2.113954    -4.830754     0.864010
H      1.219468    -4.611304     1.151746
H      2.652033    -4.204112     1.363735
6
BHMC Sample 222
O     -0.744827    -0.497157     1.940866
H      0.196750    -0.527828     2.146346
H     -0.806889     0.305597     1.410477
O      1.121466    -4.403489     3.174252
H      0.226980    -4.184039     3.461988
H      1.659545    -3.776847     3.673977
6
BHMC Sample 223
O      1.052312    -4.399348     3.236493
H      1.993889    -4.430018     3.441973
H      0.990250    -3.596594     2.706104
O     -0.675673    -0.501298     1.878625
H     -1.570159    -0.281849     2.166361
H     -0.137594     0.125344     2.378350
6
BHMC Sample 224
O      2.097612    -3.652700     3.443662
H      3.026104    -3.421782     3.563279
H      1.795185    -2.958912     2.846357
O     -0.675673    -0.501298     1.878625
H     -1.570159    -0.281849     2.166361
H     -0.137594     0.125344     2.378350
6
BHMC Sample 225
O     -0.730646    -0.505697     1.949415
H      0.197847    -0.274779     2.069032
H     -1.033073     0.188091     1.352109
O      2.152585    -3.648302     3.372873
H      1.258098    -3.428852     3.660609
H      2.690664    -3.021660     3.872598
6
BHMC Sample 226
O     -0.588521    -0.670425     3.140059
H      0.339972    -0.439507     3.259676
H     -0.890948     0.023363     2.542753
O      2.152585    -3.648302     3.372873
H      1.258098    -3.428852     3.660609
H      2.690664    -3.021660     3.872598
6
BHMC Sample 227
O     -0.763856    -0.874452     3.912792
H      0.157233    -0.589855     3.930932
H     -1.191041    -0.137835     3.460589
O      2.152585    -3.648302     3.372873
H      1.258098    -3.428852     3.660609
H      2.690664    -3.021660     3.872598
6
BHMC Sample 228
O      0.922835     3.546759     0.825705
H      0.021142     3.314506     0.575228
H      1.012759     4.430002     0.449706
O      0.118803    -0.282030    -0.262487
H     -0.775684    -0.062581     0.025249
H      0.656881     0.344612     0.237238
6
BHMC Sample 229
O      0.922835     3.546759     0.825705
H      0.021142     3.314506     0.575228
H      1.012759     4.430002     0.449706
O      0.452695     0.684173    -2.044807
H     -0.389071     0.533402    -1.597868
H      0.989332     1.081442    -1.347575
6
BHMC Sample 230
O     -3.060433     1.487287    -0.141231
H     -2.992618     0.664952    -0.640126
H     -3.662627     2.003632    -0.689253
O      0.452695     0.684173    -2.044807
H     -0.389071     0.533402    -1.597868
H      0.989332     1.081442    -1.347575
6
BHMC Sample 231
O      0.178127     0.101996     0.348972
H      0.245942    -0.720338    -0.149923
H     -0.424068     0.618342    -0.199049
O      2.390344     2.542007    -2.087624
H      2.071860     1.736330    -1.662761
H      1.925154     2.528125    -2.933402
6
BHMC Sample 232
O      0.134499     0.077458     0.285305
H      0.236298    -0.746783    -0.204586
H     -0.456718     0.578396    -0.288369
O      2.390344     2.542007    -2.087624
H      2.071860     1.736330    -1.662761
H      1.925154     2.528125    -2.933402
6
BHMC Sample 233
O     -1.872829     3.034675    -1.542786
H     -2.661795     2.541593    -1.796027
H     -1.938381     3.035005    -0.580870
O      0.261225     0.273187     0.140305
H     -0.057259    -0.532491     0.565168
H     -0.203965     0.259304    -0.705473
6
BHMC Sample 234
O      0.284839     0.164251    -0.236225
H     -0.504127    -0.328832    -0.489466
H      0.219287     0.164581     0.725691
O      2.694691    -2.438199     1.218168
H      3.500273    -2.595685     0.710928
H      2.003632    -2.582329     0.559686
6
BHMC Sample 235
O      0.284839     0.164251    -0.236225
H     -0.504127    -0.328832    -0.489466
H      0.219287     0.164581     0.725691
O      3.244153     2.480680     0.170116
H      3.194487     3.146990     0.866263
H      2.430889     2.637904    -0.325684
6
BHMC Sample 236
O      3.243682     2.554331     0.141673
H      2.454716     2.061248    -0.111568
H      3.178130     2.554661     1.103589
O      0.285310     0.090600    -0.207782
H      0.235644     0.756910     0.488365
H     -0.527953     0.247824    -0.703583
6
BHMC Sample 237
O      0.284839     0.164251    -0.236225
H     -0.504127    -0.328832    -0.489466
H      0.219287     0.164581     0.725691
O      3.209597     1.450202     0.611398
H      3.105359     0.670222     0.052989
H      3.873961     1.161106     1.249347
6
BHMC Sample 238
O     -2.604576    -2.125511     0.088674
H     -3.481994    -2.525306     0.083092
H     -2.472198    -1.948790     1.027196
O     -0.186709     0.356359    -0.026513
H     -0.290947    -0.423621    -0.584923
H      0.477655     0.067263     0.611435
6
BHMC Sample 239
O      0.248347     0.074358    -0.310980
H     -0.629071    -0.325437    -0.316562
H      0.380724     0.251079     0.627542
O     -0.721110     0.622207    -3.594089
H      0.148743     0.398392    -3.241501
H     -1.052753    -0.235568    -3.887635
6
BHMC Sample 240
O      0.603236     1.121950    -1.224430
H     -0.274182     0.722156    -1.230011
H      0.735613     1.298672    -0.285907
O     -0.721110     0.622207    -3.594089
H      0.148743     0.398392    -3.241501
H     -1.052753    -0.235568    -3.887635
6
BHMC Sample 241
O      2.379017     1.324243    -0.400029
H      1.834093     1.049455    -1.146540
H      3.131191     1.733987    -0.842660
O     -0.179403     0.360530    -0.019681
H      0.690450     0.136715     0.332907
H     -0.511047    -0.497245    -0.313227
6
BHMC Sample 242
O     -0.069084    -0.044985     0.396381
H     -0.614007    -0.319773    -0.350130
H      0.683091     0.364758    -0.046250
O      1.839534     1.348756     1.822505
H      1.457956     0.464505     1.882121
H      2.787479     1.166276     1.828523
6
BHMC Sample 243
O     -0.069084    -0.044985     0.396381
H     -0.614007    -0.319773    -0.350130
H      0.683091     0.364758    -0.046250
O     -0.379322    -2.563754    -0.793712
H     -0.575869    -2.187623     0.072862
H     -1.223221    -2.960265    -1.043806
6
BHMC Sample 244
O      0.228592    -0.874214    -2.638771
H      0.759370    -0.259285    -2.119286
H      0.837013    -1.612962    -2.755619
O      0.346816     0.006793    -0.205493
H      0.150269     0.382924     0.661081
H     -0.497084    -0.389717    -0.455588
6
BHMC Sample 245
O      2.213971     1.499333     0.793697
H      1.945946     1.159282    -0.067847
H      2.998381     0.970982     0.981111
O      0.346816     0.006793    -0.205493
H      0.150269     0.382924     0.661081
H     -0.497084    -0.389717    -0.455588
6
BHMC Sample 246
O      1.171087     2.520766     0.843191
H      0.903062     2.180716    -0.018353
H      1.955497     1.992415     1.030605
O      0.346816     0.006793    -0.205493
H      0.150269     0.382924     0.661081
H     -0.497084    -0.389717    -0.455588
6
BHMC Sample 247
O      1.171087     2.520766     0.843191
H      0.903062     2.180716    -0.018353
H      1.955497     1.992415     1.030605
O     -0.399252     0.412814    -0.209190
H     -0.316133     0.688832     0.711659
H     -1.345671     0.240111    -0.289186
6
BHMC Sample 248
O      1.171279     2.521720     0.840883
H      0.902972     2.180941    -0.020285
H      1.955799     1.993586     1.028450
O     -0.399252     0.412814    -0.209190
H     -0.316133     0.688832     0.711659
H     -1.345671     0.240111    -0.289186
6
BHMC Sample 249
O      1.361477     2.560046    -0.599640
H      1.003691     1.818811    -1.101923
H      2.129182     2.160572    -0.174637
O     -0.399252     0.412814    -0.209190
H     -0.316133     0.688832     0.711659
H     -1.345671     0.240111    -0.289186
6
BHMC Sample 250
O      0.683925     2.675435     1.132558
H      0.736180     2.252741     0.267498
H      1.365610     2.204661     1.625768
O     -0.399252     0.412814    -0.209190
H     -0.316133     0.688832     0.711659
H     -1.345671     0.240111    -0.289186
6
BHMC Sample 251
O      0.683925     2.675435     1.132558
H      0.736180     2.252741     0.267498
H      1.365610     2.204661     1.625768
O     -0.495179     1.114380    -0.921081
H     -0.569950     1.152582     0.040172
H     -1.413121     1.209705    -1.204332
6
BHMC Sample 252
O      1.145119    -1.701502     1.927146
H      1.284616    -1.354785     1.038294
H      1.918231    -1.365955     2.395423
O      0.330904    -0.044509    -0.226000
H      0.256133    -0.006307     0.735252
H     -0.587037     0.050816    -0.509251
6
BHMC Sample 253
O     -1.430795    -1.527199    -1.881697
H     -0.540265    -1.231302    -1.660044
H     -1.562003    -1.130459    -2.750582
O      0.330904    -0.044509    -0.226000
H      0.256133    -0.006307     0.735252
H     -0.587037     0.050816    -0.509251
6
BHMC Sample 254
O     -0.253107    -0.230879     0.215744
H      0.637423     0.065018     0.437397
H     -0.384315     0.165861    -0.653141
O      2.464033    -0.810279     0.785594
H      2.748896    -1.548260     1.338128
H      1.776826    -1.212940     0.240116
6
BHMC Sample 255
O      2.399034    -0.912858     0.822204
H      3.289564    -0.616960     1.043857
H      2.267826    -0.516118    -0.046681
O     -0.188108    -0.128301     0.179134
H      0.096755    -0.866282     0.731668
H     -0.875315    -0.530961    -0.366344
6
BHMC Sample 256
O     -1.239791     2.094424    -1.433721
H     -1.898569     2.787576    -1.557339
H     -0.779587     2.395953    -0.641969
O      0.134115     0.380214    -0.002352
H      0.418978    -0.357767     0.550182
H     -0.553092    -0.022446    -0.547830
6
BHMC Sample 257
O     -1.313706     2.175611    -1.401073
H     -0.763287     1.785115    -2.089754
H     -0.741692     2.109813    -0.627737
O      0.134115     0.380214    -0.002352
H      0.418978    -0.357767     0.550182
H     -0.553092    -0.022446    -0.547830
6
BHMC Sample 258
O      0.048798     0.341922    -0.006694
H      0.599217    -0.048574    -0.695375
H      0.620812     0.276124     0.766643
O     -1.228390     2.213902    -1.396731
H     -0.943527     1.475921    -0.844198
H     -1.915596     1.811242    -1.942210
6
BHMC Sample 259
O     -1.313706     2.175611    -1.401073
H     -0.763287     1.785115    -2.089754
H     -0.741692     2.109813    -0.627737
O      0.134115     0.380214    -0.002352
H      0.418978    -0.357767     0.550182
H     -0.553092    -0.022446    -0.547830
6
BHMC Sample 260
O      1.732201     1.120720     2.040975
H      2.359875     0.703468     1.439596
H      1.078740     1.479342     1.429455
O      0.134115     0.380214    -0.002352
H      0.418978    -0.357767     0.550182
H     -0.553092    -0.022446    -0.547830
6
BHMC Sample 261
O      2.252002     1.335439     0.974643
H      2.879675     0.918187     0.373265
H      1.598540     1.694060     0.363123
O      0.134115     0.380214    -0.002352
H      0.418978    -0.357767     0.550182
H     -0.553092    -0.022446    -0.547830
6
BHMC Sample 262
O      2.832989    -0.476541    -0.856742
H      3.460662    -0.893793    -1.458120
H      2.179527    -0.117920    -1.468262
O      0.134115     0.380214    -0.002352
H      0.418978    -0.357767     0.550182
H     -0.553092    -0.022446    -0.547830
6
BHMC Sample 263
O      0.414327    -1.984906    -1.839819
H      0.798856    -2.436675    -2.599931
H      1.167259    -1.485696    -1.502977
O      0.134115     0.380214    -0.002352
H      0.418978    -0.357767     0.550182
H     -0.553092    -0.022446    -0.547830
6
BHMC Sample 264
O      2.887717    -0.636404     0.386260
H      3.782114    -0.832978     0.084364
H      2.675755     0.155503    -0.121217
O      0.134115     0.380214    -0.002352
H      0.418978    -0.357767     0.550182
H     -0.553092    -0.022446    -0.547830
6
BHMC Sample 265
O      0.308855     0.289120     2.951971
H      0.008798     0.521222     3.838439
H      0.088660     1.083982     2.452685
O      0.134115     0.380214    -0.002352
H      0.418978    -0.357767     0.550182
H     -0.553092    -0.022446    -0.547830
6
BHMC Sample 266
O      0.308855     0.289120     2.951971
H      0.008798     0.521222     3.838439
H      0.088660     1.083982     2.452685
O      0.076942     0.373876    -0.010587
H      1.025278     0.220504    -0.101097
H     -0.251943    -0.500121     0.234155
6
BHMC Sample 267
O      0.140712     0.258929    -0.023621
H     -0.159344     0.491031     0.862846
H     -0.079483     1.053791    -0.522908
O      0.245085     0.404067     2.965006
H      1.193421     0.250695     2.874495
H     -0.083800    -0.469930     3.209747
6
BHMC Sample 268
O      0.140712     0.258929    -0.023621
H     -0.159344     0.491031     0.862846
H     -0.079483     1.053791    -0.522908
O     -1.143620     2.695572     1.259903
H     -0.370509     2.732542     1.836087
H     -1.809800     2.295033     1.832359
6
BHMC Sample 269
O      0.260243    -2.615632    -1.669788
H      0.374996    -2.257558    -0.781901
H      0.004367    -1.831606    -2.169197
O     -0.035643     0.121189    -0.382880
H      0.737468     0.158160     0.193304
H     -0.701824    -0.279349     0.189576
6
BHMC Sample 270
O     -0.337836     2.877074     1.142701
H     -0.404918     2.361171     0.330867
H     -0.114811     2.199541     1.791382
O     -0.035643     0.121189    -0.382880
H      0.737468     0.158160     0.193304
H     -0.701824    -0.279349     0.189576
6
BHMC Sample 271
O     -0.786358     3.055513     0.139453
H     -0.853440     2.539610    -0.672380
H     -0.563334     2.377980     0.788135
O     -0.035643     0.121189    -0.382880
H      0.737468     0.158160     0.193304
H     -0.701824    -0.279349     0.189576
6
BHMC Sample 272
O      0.897354    -2.461610    -1.763291
H      0.441228    -1.697311    -2.134134
H      0.856313    -2.278504    -0.817582
O     -0.035643     0.121189    -0.382880
H      0.737468     0.158160     0.193304
H     -0.701824    -0.279349     0.189576
6
BHMC Sample 273
O      0.897354    -2.461610    -1.763291
H      0.441228    -1.697311    -2.134134
H      0.856313    -2.278504    -0.817582
O     -0.382031     0.196372    -0.903690
H      0.413611     0.706148    -1.098981
H     -0.314748     0.064481     0.050256
6
BHMC Sample 274
O     -2.847458    -1.145912     0.291733
H     -1.891424    -1.267186     0.259791
H     -2.971135    -0.384882    -0.287160
O     -0.382031     0.196372    -0.903690
H      0.413611     0.706148    -1.098981
H     -0.314748     0.064481     0.050256
6
BHMC Sample 275
O     -2.847458    -1.145912     0.291733
H     -1.891424    -1.267186     0.259791
H     -2.971135    -0.384882    -0.287160
O     -0.366344     0.158475    -0.866887
H     -0.214225     0.691799    -0.077278
H      0.064111     0.680337    -1.555584
6
BHMC Sample 276
O     -0.380320     0.181720    -0.827062
H      0.575714     0.060445    -0.859004
H     -0.503997     0.942749    -1.405955
O     -2.833482    -1.169157     0.251908
H     -2.681363    -0.635833     1.041517
H     -2.403027    -0.647295    -0.436789
6
BHMC Sample 277
O     -2.847458    -1.145912     0.291733
H     -1.891424    -1.267186     0.259791
H     -2.971135    -0.384882    -0.287160
O     -0.366344     0.158475    -0.866887
H     -0.214225     0.691799    -0.077278
H      0.064111     0.680337    -1.555584
6
BHMC Sample 278
O     -0.277452    -0.213252     0.203612
H      0.678582    -0.334526     0.171669
H     -0.401129     0.547778    -0.375281
O      1.343512     1.794205    -1.390879
H      1.374777     2.426312    -0.662512
H      2.132526     2.022987    -1.897880
6
BHMC Sample 279
O     -0.277452    -0.213252     0.203612
H      0.678582    -0.334526     0.171669
H     -0.401129     0.547778    -0.375281
O     -1.225603     2.435852    -0.821463
H     -1.090786     2.870626     0.029332
H     -1.168355     3.172916    -1.442264
6
BHMC Sample 280
O     -0.277452    -0.213252     0.203612
H      0.678582    -0.334526     0.171669
H     -0.401129     0.547778    -0.375281
O      2.457070    -0.353872     1.412225
H      2.271796     0.353866     2.041380
H      3.136350    -0.865148     1.869510
6
BHMC Sample 281
O      2.438138    -0.378676     1.507193
H      3.394172    -0.499950     1.475251
H      2.314461     0.382354     0.928300
O     -0.258521    -0.188448     0.108643
H     -0.443795     0.519290     0.737799
H      0.420759    -0.699724     0.565928
6
BHMC Sample 282
O     -0.277452    -0.213252     0.203612
H      0.678582    -0.334526     0.171669
H     -0.401129     0.547778    -0.375281
O      2.457070    -0.353872     1.412225
H      2.271796     0.353866     2.041380
H      3.136350    -0.865148     1.869510
6
BHMC Sample 283
O     -0.277452    -0.213252     0.203612
H      0.678582    -0.334526     0.171669
H     -0.401129     0.547778    -0.375281
O      2.219170    -1.756879    -0.381386
H      1.845344    -2.161120    -1.173787
H      2.874446    -2.409722    -0.105079
6
BHMC Sample 284
O     -0.277452    -0.213252     0.203612
H      0.678582    -0.334526     0.171669
H     -0.401129     0.547778    -0.375281
O      2.457070    -0.353872     1.412225
H      2.271796     0.353866     2.041380
H      3.136350    -0.865148     1.869510
6
BHMC Sample 285
O     -0.277452    -0.213252     0.203612
H      0.678582    -0.334526     0.171669
H     -0.401129     0.547778    -0.375281
O     -1.139953     2.586266    -0.410526
H     -0.862919     2.916121     0.452899
H     -1.841435     3.203598    -0.652927
6
BHMC Sample 286
O     -0.277452    -0.213252     0.203612
H      0.678582    -0.334526     0.171669
H     -0.401129     0.547778    -0.375281
O      2.401494     0.084506     1.512160
H      2.334095     1.044986     1.575344
H      3.356401    -0.057099     1.517998
6
BHMC Sample 287
O     -3.014545    -0.736625     1.148038
H     -2.059761    -0.863114     1.194044
H     -3.158263    -0.059215     1.818888
O     -0.295836    -0.272958    -0.023008
H     -0.363235     0.687522     0.040177
H      0.659071    -0.414563    -0.017170
6
BHMC Sample 288
O     -3.014545    -0.736625     1.148038
H     -2.059761    -0.863114     1.194044
H     -3.158263    -0.059215     1.818888
O     -0.394035    -0.470262     1.826861
H     -0.461433     0.490218     1.890045
H      0.560873    -0.611867     1.832699
6
BHMC Sample 289
O     -0.800861    -2.823737    -0.820757
H     -0.849917    -1.866226    -0.718318
H     -0.102871    -3.055248    -0.197224
O     -0.295836    -0.272958    -0.023008
H     -0.363235     0.687522     0.040177
H      0.659071    -0.414563    -0.017170
6
BHMC Sample 290
O     -0.800861    -2.823737    -0.820757
H     -0.849917    -1.866226    -0.718318
H     -0.102871    -3.055248    -0.197224
O     -0.144794    -0.533235     0.503517
H      0.253480     0.323156     0.701073
H     -0.083287    -0.990937     1.351255
6
BHMC Sample 291
O     -0.155378    -0.551549     0.521384
H     -0.204434     0.405963     0.623823
H      0.542612    -0.783060     1.144916
O     -0.790277    -2.805423    -0.838624
H     -0.392003    -1.949032    -0.641068
H     -0.728770    -3.263125     0.009115
6
BHMC Sample 292
O     -0.155378    -0.551549     0.521384
H     -0.204434     0.405963     0.623823
H      0.542612    -0.783060     1.144916
O     -1.143816    -3.076789     0.769936
H     -1.064502    -2.151986     0.506300
H     -0.225653    -3.374783     0.759455
6
BHMC Sample 293
O     -0.216311    -0.242000    -0.241990
H     -0.265367     0.715511    -0.139552
H      0.481678    -0.473511     0.381542
O     -2.798883    -0.230623    -1.105511
H     -1.935140    -0.554019    -0.821927
H     -2.570021     0.568215    -1.596850
6
BHMC Sample 294
O     -0.216311    -0.242000    -0.241990
H     -0.265367     0.715511    -0.139552
H      0.481678    -0.473511     0.381542
O     -1.246319     0.024711    -2.748666
H     -0.858022    -0.376876    -1.961895
H     -1.837379     0.688705    -2.372242
6
BHMC Sample 295
O     -1.293974    -0.001228    -2.724201
H     -1.343031     0.956283    -2.621763
H     -0.595985    -0.232739    -2.100669
O     -0.168656    -0.216061    -0.266454
H      0.219642    -0.617648     0.520317
H     -0.759716     0.447933     0.109970
6
BHMC Sample 296
O     -0.216311    -0.242000    -0.241990
H     -0.265367     0.715511    -0.139552
H      0.481678    -0.473511     0.381542
O      2.316611    -0.225338     0.726020
H      3.180354    -0.548734     1.009604
H      2.545473     0.573500     0.234681
6
BHMC Sample 297
O      2.341436    -0.239358     0.673775
H      2.292379     0.718154     0.776214
H      3.039425    -0.470868     1.297307
O     -0.241136    -0.227981    -0.189745
H      0.622607    -0.551376     0.093839
H     -0.012274     0.570857    -0.681085
6
BHMC Sample 298
O      0.911979     2.134194    -0.658477
H      1.439599     2.074635     0.146382
H      0.942923     3.079136    -0.847439
O     -0.364202    -0.158481     0.069252
H      0.499541    -0.481876     0.352836
H     -0.135340     0.640357    -0.422088
6
BHMC Sample 299
O      2.218370    -0.169858     0.932772
H      2.169314     0.787654     1.035211
H      2.916360    -0.401368     1.556304
O     -0.364202    -0.158481     0.069252
H      0.499541    -0.481876     0.352836
H     -0.135340     0.640357    -0.422088
6
BHMC Sample 300
O     -0.216311    -0.242000    -0.241990
H     -0.265367     0.715511    -0.139552
H      0.481678    -0.473511     0.381542
O     -1.246319     0.024711    -2.748666
H     -0.858022    -0.376876    -1.961895
H     -1.837379     0.688705    -2.372242
6
BHMC Sample 301
O     -0.216311    -0.242000    -0.241990
H     -0.265367     0.715511    -0.139552
H      0.481678    -0.473511     0.381542
O      0.803916    -2.292762    -1.790544
H      0.308266    -1.503774    -1.539774
H      0.798548    -2.808908    -0.974763
6
BHMC Sample 302
O     -0.122180    -0.189549    -0.235066
H     -0.986832     0.221565    -0.349484
H     -0.290902    -0.812080     0.481569
O      0.803916    -2.292762    -1.790544
H      0.308266    -1.503774    -1.539774
H      0.798548    -2.808908    -0.974763
6
BHMC Sample 303
O     -0.122180    -0.189549    -0.235066
H     -0.986832     0.221565    -0.349484
H     -0.290902    -0.812080     0.481569
O      1.982954    -2.430905    -0.481692
H      1.487304    -1.641917    -0.230922
H      1.977586    -2.947051     0.334089
6
BHMC Sample 304
O     -0.125538    -0.230913    -0.173441
H     -0.209761     0.650675    -0.554804
H     -1.014682    -0.584648    -0.291227
O      1.982954    -2.430905    -0.481692
H      1.487304    -1.641917    -0.230922
H      1.977586    -2.947051     0.334089
6
BHMC Sample 305
O     -0.322351    -2.197454     1.812996
H      0.203835    -2.939403     2.132947
H     -1.193692    -2.598541     1.715665
O      0.167006    -0.090947    -0.355517
H     -0.328644     0.698041    -0.104747
H      0.161638    -0.607094     0.460264
6
BHMC Sample 306
O     -0.322351    -2.197454     1.812996
H      0.203835    -2.939403     2.132947
H     -1.193692    -2.598541     1.715665
O     -0.437072     0.069353    -0.244505
H      0.170985     0.754788     0.057988
H     -0.174616    -0.690890     0.289426
6
BHMC Sample 307
O     -0.369051     0.129124    -0.210160
H      0.157134    -0.612826     0.109790
H     -1.240392    -0.271964    -0.307492
O     -0.390372    -2.257225     1.778652
H      0.217685    -1.571789     2.081145
H     -0.127916    -3.017468     2.312583
6
BHMC Sample 308
O     -1.283433     2.828850    -1.174342
H     -1.174988     2.258828    -0.404249
H     -1.638679     2.215357    -1.827798
O     -0.290171     0.024936    -0.278808
H      0.317886     0.710371     0.023685
H     -0.027715    -0.735307     0.255123
6
BHMC Sample 309
O     -1.283433     2.828850    -1.174342
H     -1.174988     2.258828    -0.404249
H     -1.638679     2.215357    -1.827798
O     -3.189126     0.705429    -2.387733
H     -3.304212     1.556218    -2.828154
H     -3.624455     0.096101    -2.996947
6
BHMC Sample 310
O      0.082267     0.394505    -0.038879
H      0.190712    -0.175517     0.731214
H     -0.272979    -0.218988    -0.692335
O     -0.080600    -2.147039    -1.807190
H      0.113163    -1.370347    -2.345949
H     -0.351696    -2.795770    -2.468697
6
BHMC Sample 311
O     -1.978401     0.983386    -0.872872
H     -1.869956     0.413363    -0.102779
H     -2.333647     0.369892    -1.526328
O     -0.080600    -2.147039    -1.807190
H      0.113163    -1.370347    -2.345949
H     -0.351696    -2.795770    -2.468697
6
BHMC Sample 312
O     -1.978401     0.983386    -0.872872
H     -1.869956     0.413363    -0.102779
H     -2.333647     0.369892    -1.526328
O     -0.508500    -1.011944    -2.147313
H     -0.314736    -0.235252    -2.686072
H     -0.779595    -1.660674    -2.808819
6
BHMC Sample 313
O      0.082267     0.394505    -0.038879
H      0.190712    -0.175517     0.731214
H     -0.272979    -0.218988    -0.692335
O     -2.510843    -0.626062    -0.019646
H     -2.625929     0.224726    -0.460066
H     -2.946171    -1.235391    -0.628860
6
BHMC Sample 314
O      2.122299    -2.048944    -0.012592
H      2.419645    -1.755990     0.856599
H      2.083210    -1.218103    -0.500192
O      0.183471    -0.080487     0.349878
H      0.068385     0.770302    -0.090542
H     -0.251857    -0.689815    -0.259336
6
BHMC Sample 315
O     -0.086086    -0.374599    -0.127197
H      0.211260    -0.081644     0.741994
H     -0.125174     0.456243    -0.614797
O     -1.659166     1.008815     1.710402
H     -1.446157     1.334787     2.593253
H     -1.901031     0.090026     1.881461
6
BHMC Sample 316
O      4.288848    -3.737105     4.417380
H      3.433418    -3.666570     4.856691
H      4.680910    -4.495471     4.865427
O      2.763648    -0.834607    -2.211580
H      2.915002    -0.525216    -3.112927
H      2.842501    -0.021431    -1.697323
6
BHMC Sample 317
O     -1.932558    -4.135425     2.438099
H     -2.354840    -3.378744     2.860994
H     -2.617462    -4.810422     2.507841
O      2.763648    -0.834607    -2.211580
H      2.915002    -0.525216    -3.112927
H      2.842501    -0.021431    -1.697323
6
BHMC Sample 318
O     -2.059349    -4.128061     2.445499
H     -1.531605    -4.897464     2.688881
H     -1.428275    -3.408592     2.562497
O      2.763648    -0.834607    -2.211580
H      2.915002    -0.525216    -3.112927
H      2.842501    -0.021431    -1.697323
6
BHMC Sample 319
O      2.711689    -0.769002    -2.253404
H      3.239433    -1.538405    -2.010022
H      3.342762    -0.049532    -2.136405
O     -2.007390    -4.193666     2.487322
H     -1.856036    -3.884275     1.585976
H     -1.928537    -3.380490     3.001579
6
BHMC Sample 320
O     -2.059349    -4.128061     2.445499
H     -1.531605    -4.897464     2.688881
H     -1.428275    -3.408592     2.562497
O      2.763648    -0.834607    -2.211580
H      2.915002    -0.525216    -3.112927
H      2.842501    -0.021431    -1.697323
6
BHMC Sample 321
O     -2.059349    -4.128061     2.445499
H     -1.531605    -4.897464     2.688881
H     -1.428275    -3.408592     2.562497
O     -3.608643     2.196119    -1.104475
H     -3.730890     2.622823    -1.961234
H     -4.472619     2.312469    -0.689814
6
BHMC Sample 322
O     -2.427745    -1.911726     2.712805
H     -1.900001    -2.681128     2.956187
H     -1.796671    -1.192256     2.829804
O     -3.608643     2.196119    -1.104475
H     -3.730890     2.622823    -1.961234
H     -4.472619     2.312469    -0.689814
6
BHMC Sample 323
O     -2.331259    -1.974327     2.739310
H     -3.066814    -1.734381     2.163885
H     -2.161276    -1.145389     3.201420
O     -3.608643     2.196119    -1.104475
H     -3.730890     2.622823    -1.961234
H     -4.472619     2.312469    -0.689814
6
BHMC Sample 324
O     -3.632180     2.166697    -1.122871
H     -4.367734     2.406643    -1.698297
H     -3.462197     2.995635    -0.660761
O     -2.307723    -1.944905     2.757707
H     -2.429969    -1.518202     1.900948
H     -3.171698    -1.828555     3.172367
6
BHMC Sample 325
O     -3.632180     2.166697    -1.122871
H     -4.367734     2.406643    -1.698297
H     -3.462197     2.995635    -0.660761
O     -2.095297    -2.235114     2.332217
H     -2.207530    -1.718121     1.525261
H     -2.993681    -2.267874     2.684022
6
BHMC Sample 326
O     -3.632180     2.166697    -1.122871
H     -4.367734     2.406643    -1.698297
H     -3.462197     2.995635    -0.660761
O     -2.891751    -1.767485     1.694946
H     -3.003984    -1.250493     0.887990
H     -3.790136    -1.800246     2.046751
6
BHMC Sample 327
O     -3.632180     2.166697    -1.122871
H     -4.367734     2.406643    -1.698297
H     -3.462197     2.995635    -0.660761
O      0.716061     1.463873     1.052280
H     -0.159445     1.253361     0.705540
H      0.507883     1.972912     1.845675
6
BHMC Sample 328
O     -3.400800    -0.560843     2.830723
H     -4.296617    -0.796831     3.098215
H     -3.171361     0.115785     3.478111
O      0.716061     1.463873     1.052280
H     -0.159445     1.253361     0.705540
H      0.507883     1.972912     1.845675
6
BHMC Sample 329
O     -3.400800    -0.560843     2.830723
H     -4.296617    -0.796831     3.098215
H     -3.171361     0.115785     3.478111
O      1.229013     0.329251     0.063590
H      0.353506     0.118739    -0.283151
H      1.020834     0.838290     0.856985
6
BHMC Sample 330
O     -3.138138     0.578129     4.095121
H     -4.033954     0.342141     4.362612
H     -2.908699     1.254757     4.742508
O      1.229013     0.329251     0.063590
H      0.353506     0.118739    -0.283151
H      1.020834     0.838290     0.856985
6
BHMC Sample 331
O     -3.216389     0.573281     4.100814
H     -2.493719     0.186171     4.608379
H     -3.206931     1.487676     4.406380
O      1.229013     0.329251     0.063590
H      0.353506     0.118739    -0.283151
H      1.020834     0.838290     0.856985
6
BHMC Sample 332
O     -3.216389     0.573281     4.100814
H     -2.493719     0.186171     4.608379
H     -3.206931     1.487676     4.406380
O      0.092027    -0.976291    -0.646682
H     -0.754059    -0.565256    -0.861728
H      0.248582    -0.668893     0.254945
6
BHMC Sample 333
O     -3.198133     0.326130     4.185427
H     -2.457360    -0.053962     4.671754
H     -3.212453     1.230543     4.519207
O      0.092027    -0.976291    -0.646682
H     -0.754059    -0.565256    -0.861728
H      0.248582    -0.668893     0.254945
6
BHMC Sample 334
O     -3.198133     0.326130     4.185427
H     -2.457360    -0.053962     4.671754
H     -3.212453     1.230543     4.519207
O     -0.905778    -0.373711    -2.910329
H     -1.751864     0.037323    -3.125374
H     -0.749222    -0.066313    -2.008702
6
BHMC Sample 335
O     -3.198133     0.326130     4.185427
H     -2.457360    -0.053962     4.671754
H     -3.212453     1.230543     4.519207
O      0.197643     0.794323    -3.837665
H     -0.648444     1.205358    -4.052711
H      0.354198     1.101721    -2.936038
6
BHMC Sample 336
O     -3.131787     0.386166     4.286231
H     -3.516949    -0.494233     4.206999
H     -3.205914     0.717922     3.383999
O      0.197643     0.794323    -3.837665
H     -0.648444     1.205358    -4.052711
H      0.354198     1.101721    -2.936038
6
BHMC Sample 337
O     -2.695439     2.714311     4.245868
H     -3.500833     2.185319     4.210693
H     -2.592154     2.981310     3.325204
O      0.197643     0.794323    -3.837665
H     -0.648444     1.205358    -4.052711
H      0.354198     1.101721    -2.936038
6
BHMC Sample 338
O     -2.695439     2.714311     4.245868
H     -3.500833     2.185319     4.210693
H     -2.592154     2.981310     3.325204
O      0.151493     0.873317    -3.854185
H      0.327962     1.141773    -2.944324
H      0.110274    -0.088482    -3.782223
6
BHMC Sample 339
O     -2.695439     2.714311     4.245868
H     -3.500833     2.185319     4.210693
H     -2.592154     2.981310     3.325204
O      3.969690     0.173324    -0.815761
H      3.567149     0.818857    -0.222210
H      4.345811    -0.468071    -0.200066
6
BHMC Sample 340
O     -2.795180     2.669131     4.198063
H     -2.272572     2.838952     3.405743
H     -2.237330     3.044780     4.888910
O      3.969690     0.173324    -0.815761
H      3.567149     0.818857    -0.222210
H      4.345811    -0.468071    -0.200066
6
BHMC Sample 341
O     -2.795180     2.669131     4.198063
H     -2.272572     2.838952     3.405743
H     -2.237330     3.044780     4.888910
O      2.933567     1.260253    -0.406072
H      2.531026     1.905786     0.187480
H      3.309688     0.618858     0.209624
6
BHMC Sample 342
O     -2.679573     2.738402     4.201064
H     -3.411074     2.578282     4.808515
H     -2.933743     2.205977     3.438503
O      2.933567     1.260253    -0.406072
H      2.531026     1.905786     0.187480
H      3.309688     0.618858     0.209624
6
BHMC Sample 343
O     -2.679573     2.738402     4.201064
H     -3.411074     2.578282     4.808515
H     -2.933743     2.205977     3.438503
O      3.417616     1.098742     0.328062
H      2.983754     1.732763     0.911875
H      3.648365     0.383393     0.933838
6
BHMC Sample 344
O     -2.679573     2.738402     4.201064
H     -3.411074     2.578282     4.808515
H     -2.933743     2.205977     3.438503
O      3.139793     1.154526     2.225054
H      2.705931     1.788547     2.808866
H      3.370542     0.439177     2.830830
6
BHMC Sample 345
O     -2.679573     2.738402     4.201064
H     -3.411074     2.578282     4.808515
H     -2.933743     2.205977     3.438503
O      2.709219     3.052003     0.874690
H      2.245592     3.528227     1.574203
H      3.284913     2.459271     1.373869
6
BHMC Sample 346
O      0.328557     0.230848     0.051703
H     -0.402944     0.070728     0.659155
H      0.074387    -0.301577    -0.710858
O      4.621721     2.295912    -4.132367
H      4.483074     2.252625    -3.178449
H      4.279059     3.171257    -4.352110
6
BHMC Sample 347
O      0.328557     0.230848     0.051703
H     -0.402944     0.070728     0.659155
H      0.074387    -0.301577    -0.710858
O      3.079203     1.085198    -4.454251
H      2.940557     1.041912    -3.500333
H      2.736541     1.960544    -4.673994
6
BHMC Sample 348
O      0.281765     0.203330     0.109527
H     -0.459030     0.444272    -0.458714
H      0.873154    -0.238345    -0.510764
O      3.079203     1.085198    -4.454251
H      2.940557     1.041912    -3.500333
H      2.736541     1.960544    -4.673994
6
BHMC Sample 349
O      0.049802     0.066910     0.396178
H     -0.690993     0.307853    -0.172064
H      0.641191    -0.374764    -0.224114
O     -1.146852     2.995514    -4.010919
H     -1.042035     2.827467    -3.066552
H     -0.251347     3.236373    -4.279234
6
BHMC Sample 350
O     -4.668209     1.615392     1.596851
H     -3.745707     1.714514     1.859327
H     -4.799702     0.664466     1.686455
O     -0.333441    -0.024271    -0.225351
H     -0.228624    -0.192318     0.719017
H      0.562064     0.216588    -0.493666
6
BHMC Sample 351
O     -0.263670     0.283934    -0.117360
H      0.658833     0.383057     0.145116
H     -0.395163    -0.666991    -0.027756
O      0.411618     3.367267    -3.265858
H     -0.197925     3.727833    -2.610490
H      0.878836     4.155364    -3.570070
6
BHMC Sample 352
O      0.044969    -0.828566    -1.797582
H      0.967471    -0.729444    -1.535107
H     -0.086524    -1.779492    -1.707978
O      0.411618     3.367267    -3.265858
H     -0.197925     3.727833    -2.610490
H      0.878836     4.155364    -3.570070
6
BHMC Sample 353
O      0.044969    -0.828566    -1.797582
H      0.967471    -0.729444    -1.535107
H     -0.086524    -1.779492    -1.707978
O      0.451176     3.420711    -3.199255
H      0.230384     2.884643    -3.970577
H     -0.177342     4.150297    -3.267108
6
BHMC Sample 354
O     -0.257836    -0.842759    -1.954514
H      0.666845    -0.816407    -1.682486
H     -0.454667    -1.785032    -1.900126
O      0.451176     3.420711    -3.199255
H      0.230384     2.884643    -3.970577
H     -0.177342     4.150297    -3.267108
6
BHMC Sample 355
O     -0.257836    -0.842759    -1.954514
H      0.666845    -0.816407    -1.682486
H     -0.454667    -1.785032    -1.900126
O     -1.276285     2.204812    -1.489776
H     -1.497077     1.668745    -2.261099
H     -1.904803     2.934398    -1.557629
6
BHMC Sample 356
O     -1.364533     2.266889    -1.554995
H     -0.439851     2.293242    -1.282967
H     -1.561363     1.324616    -1.500607
O     -0.169589    -0.904836    -1.889295
H     -0.390381    -1.440904    -2.660618
H     -0.798107    -0.175250    -1.957148
6
BHMC Sample 357
O     -2.324707     3.687531    -3.389567
H     -1.400026     3.713883    -3.117539
H     -2.521537     2.745258    -3.335179
O     -0.169589    -0.904836    -1.889295
H     -0.390381    -1.440904    -2.660618
H     -0.798107    -0.175250    -1.957148
6
BHMC Sample 358
O     -0.242617     0.305307    -0.108805
H      0.682064     0.331659     0.163222
H     -0.439447    -0.636966    -0.054417
O     -3.784263     2.880795    -1.163224
H     -4.082497     2.442168    -1.969276
H     -3.280028     2.185115    -0.723099
6
BHMC Sample 359
O     -0.242617     0.305307    -0.108805
H      0.682064     0.331659     0.163222
H     -0.439447    -0.636966    -0.054417
O     -4.394708     4.136890     1.234971
H     -4.692942     3.698263     0.428919
H     -3.890473     3.441210     1.675096
6
BHMC Sample 360
O     -0.242617     0.305307    -0.108805
H      0.682064     0.331659     0.163222
H     -0.439447    -0.636966    -0.054417
O     -2.754815     3.476276    -4.275391
H     -3.468517     3.205016    -3.685388
H     -2.139054     2.735669    -4.210013
6
BHMC Sample 361
O     -0.242617     0.305307    -0.108805
H      0.682064     0.331659     0.163222
H     -0.439447    -0.636966    -0.054417
O     -1.986308     4.257273    -3.399716
H     -2.700010     3.986013    -2.809713
H     -1.370547     3.516666    -3.334338
6
BHMC Sample 362
O     -0.242617     0.305307    -0.108805
H      0.682064     0.331659     0.163222
H     -0.439447    -0.636966    -0.054417
O      4.886528    -1.770588    -0.502016
H      4.803307    -1.275562     0.322047
H      4.130378    -1.453503    -1.011554
6
BHMC Sample 363
O      0.023308     0.716376    -1.451388
H      0.654513     0.350094    -0.821193
H     -0.003297     0.030277    -2.128248
O      4.886528    -1.770588    -0.502016
H      4.803307    -1.275562     0.322047
H      4.130378    -1.453503    -1.011554
6
BHMC Sample 364
O      0.023308     0.716376    -1.451388
H      0.654513     0.350094    -0.821193
H     -0.003297     0.030277    -2.128248
O      1.082787    -3.978461    -4.207332
H      0.847791    -4.360975    -3.353215
H      1.089298    -3.032276    -4.015952
6
BHMC Sample 365
O      1.036173    -3.888037    -4.146222
H      1.667379    -4.254319    -3.516026
H      1.009568    -4.574136    -4.823081
O      0.069922     0.625953    -1.512498
H     -0.165074     0.243438    -0.658381
H      0.076433     1.572138    -1.321118
6
BHMC Sample 366
O      0.023308     0.716376    -1.451388
H      0.654513     0.350094    -0.821193
H     -0.003297     0.030277    -2.128248
O      1.082787    -3.978461    -4.207332
H      0.847791    -4.360975    -3.353215
H      1.089298    -3.032276    -4.015952
6
BHMC Sample 367
O     -0.416696    -0.452337    -0.187049
H     -0.242628    -1.212529     0.379993
H     -0.215350    -0.805678    -1.061228
O      1.082787    -3.978461    -4.207332
H      0.847791    -4.360975    -3.353215
H      1.089298    -3.032276    -4.015952
6
BHMC Sample 368
O     -0.125138     0.371178     0.102379
H      0.048929    -0.389015     0.669421
H      0.076208     0.017837    -0.771800
O     -1.288613     4.743969    -1.739744
H     -1.562015     4.475373    -0.854214
H     -0.717188     4.014494    -2.010435
6
BHMC Sample 369
O     -0.125138     0.371178     0.102379
H      0.048929    -0.389015     0.669421
H      0.076208     0.017837    -0.771800
O     -1.267048     4.750610    -1.737462
H     -1.066010     4.628112    -0.801708
H     -1.270899     3.843985    -2.069050
6
BHMC Sample 370
O      0.210933    -4.097765     1.816308
H      0.378150    -4.858443     2.384758
H     -0.267526    -4.499326     1.081866
O     -0.065729     0.343041    -0.201388
H      0.135309     0.220543     0.734365
H     -0.069580    -0.563584    -0.532976
6
BHMC Sample 371
O      1.076181    -4.036391     1.638452
H      1.250249    -4.796583     2.205494
H      1.277527    -4.389732     0.764273
O     -0.065729     0.343041    -0.201388
H      0.135309     0.220543     0.734365
H     -0.069580    -0.563584    -0.532976
6
BHMC Sample 372
O      0.210933    -4.097765     1.816308
H      0.378150    -4.858443     2.384758
H     -0.267526    -4.499326     1.081866
O     -0.065729     0.343041    -0.201388
H      0.135309     0.220543     0.734365
H     -0.069580    -0.563584    -0.532976
6
BHMC Sample 373
O      0.103747     0.387413     0.055330
H      0.270965    -0.373265     0.623781
H     -0.374712    -0.014148    -0.679111
O      2.360845     3.419890     3.150118
H      1.759971     3.743115     2.467818
H      2.419811     2.478350     2.945279
6
BHMC Sample 374
O      0.103747     0.387413     0.055330
H      0.270965    -0.373265     0.623781
H     -0.374712    -0.014148    -0.679111
O      3.067008     3.462934     2.424224
H      2.335616     3.778639     1.879750
H      3.057764     2.512899     2.253103
6
BHMC Sample 375
O      0.103747     0.387413     0.055330
H      0.270965    -0.373265     0.623781
H     -0.374712    -0.014148    -0.679111
O      3.243841     4.375212     3.574748
H      2.512449     4.690917     3.030274
H      3.234597     3.425177     3.403626
6
BHMC Sample 376
O      1.824729     0.166969     1.834677
H      1.991946    -0.593710     2.403128
H      1.346270    -0.234592     1.100236
O      3.243841     4.375212     3.574748
H      2.512449     4.690917     3.030274
H      3.234597     3.425177     3.403626
6
BHMC Sample 377
O      1.121979     1.918938     0.068933
H      1.348120     0.983085     0.016321
H      0.456554     2.002291    -0.623773
O      3.243841     4.375212     3.574748
H      2.512449     4.690917     3.030274
H      3.234597     3.425177     3.403626
6
BHMC Sample 378
O      1.458748     2.999743     0.122953
H      1.684889     2.063890     0.070341
H      0.793323     3.083096    -0.569752
O      3.243841     4.375212     3.574748
H      2.512449     4.690917     3.030274
H      3.234597     3.425177     3.403626
6
BHMC Sample 379
O     -1.000570    -2.104879    -2.935040
H     -1.622725    -1.556254    -3.426632
H     -1.125708    -2.967000    -3.348157
O      0.246879     0.211443     0.238532
H     -0.484513     0.527149    -0.305942
H      0.237635    -0.738592     0.067410
6
BHMC Sample 380
O     -1.000570    -2.104879    -2.935040
H     -1.622725    -1.556254    -3.426632
H     -1.125708    -2.967000    -3.348157
O      1.825774     0.569721    -4.410649
H      1.709945     0.468693    -3.458057
H      1.461917    -0.256535    -4.752474
6
BHMC Sample 381
O     -0.279525    -3.487472     1.443262
H      0.591362    -3.640646     1.058783
H     -0.813216    -4.157554     1.000834
O      0.159895     0.309095    -0.203589
H      0.044066     0.208066     0.749003
H     -0.203961    -0.517161    -0.545414
6
BHMC Sample 382
O     -0.112398     0.274419     0.275635
H      0.758488     0.121245    -0.108843
H     -0.646090    -0.395664    -0.166792
O     -2.783995     2.925712    -1.499894
H     -2.700006     2.898243    -0.539036
H     -1.948154     2.541106    -1.792097
6
BHMC Sample 383
O     -0.116588     1.194173     1.189254
H      0.811409     1.073976     0.956654
H     -0.506562     0.365809     0.887078
O     -2.783995     2.925712    -1.499894
H     -2.700006     2.898243    -0.539036
H     -1.948154     2.541106    -1.792097
6
BHMC Sample 384
O      1.015274     3.985807    -2.717277
H      1.694789     4.234345    -2.079926
H      0.598589     4.834676    -2.905357
O     -2.783995     2.925712    -1.499894
H     -2.700006     2.898243    -0.539036
H     -1.948154     2.541106    -1.792097
6
BHMC Sample 385
O      1.529216     3.367921    -2.021375
H      2.208731     3.616458    -1.384023
H      1.112531     4.216790    -2.209455
O     -2.783995     2.925712    -1.499894
H     -2.700006     2.898243    -0.539036
H     -1.948154     2.541106    -1.792097
6
BHMC Sample 386
O      1.561389     3.364841    -1.983770
H      0.951233     3.933251    -1.499674
H      1.859364     3.948878    -2.690659
O     -2.783995     2.925712    -1.499894
H     -2.700006     2.898243    -0.539036
H     -1.948154     2.541106    -1.792097
6
BHMC Sample 387
O      1.561389     3.364841    -1.983770
H      0.951233     3.933251    -1.499674
H      1.859364     3.948878    -2.690659
O     -2.745631     2.908711    -1.528601
H     -2.047583     2.403326    -1.094584
H     -3.209488     3.305863    -0.780911
6
BHMC Sample 388
O     -2.715060     2.838172    -1.450014
H     -3.325216     3.406581    -0.965919
H     -2.417085     3.422208    -2.156903
O      1.530818     3.435381    -2.062357
H      2.228866     2.929995    -1.628340
H      1.066961     3.832533    -1.314666
6
BHMC Sample 389
O     -4.102568    -0.663341     1.337148
H     -4.830386    -0.040606     1.226642
H     -3.539636    -0.201638     1.969221
O     -0.078064     0.036078    -0.393903
H      0.619984    -0.469308     0.040115
H     -0.541921     0.433230     0.353788
6
BHMC Sample 390
O      3.368732     1.151225    -2.526931
H      4.036664     0.547124    -2.871399
H      2.580277     0.870189    -3.005404
O     -0.078064     0.036078    -0.393903
H      0.619984    -0.469308     0.040115
H     -0.541921     0.433230     0.353788
6
BHMC Sample 391
O     -0.346697    -3.732380    -2.237898
H      0.393889    -4.240984    -2.588018
H     -0.315298    -2.935790    -2.780150
O     -0.078064     0.036078    -0.393903
H      0.619984    -0.469308     0.040115
H     -0.541921     0.433230     0.353788
6
BHMC Sample 392
O     -0.346697    -3.732380    -2.237898
H      0.393889    -4.240984    -2.588018
H     -0.315298    -2.935790    -2.780150
O     -3.680295    -1.464082    -3.402640
H     -3.554447    -1.224152    -2.476545
H     -4.625617    -1.656112    -3.440388
6
BHMC Sample 393
O     -0.346697    -3.732380    -2.237898
H      0.393889    -4.240984    -2.588018
H     -0.315298    -2.935790    -2.780150
O     -3.188281    -0.652562    -2.385971
H     -2.923474    -0.672821    -1.458327
H     -4.151761    -0.643365    -2.326332
6
BHMC Sample 394
O     -0.346697    -3.732380    -2.237898
H      0.393889    -4.240984    -2.588018
H     -0.315298    -2.935790    -2.780150
O     -1.825338    -1.220985    -2.253038
H     -1.560531    -1.241244    -1.325394
H     -2.788818    -1.211788    -2.193399
6
BHMC Sample 395
O     -0.247749    -3.584338    -1.555183
H      0.511406    -4.142605    -1.759514
H     -0.249984    -2.971082    -2.299153
O     -1.825338    -1.220985    -2.253038
H     -1.560531    -1.241244    -1.325394
H     -2.788818    -1.211788    -2.193399
6
BHMC Sample 396
O     -0.247749    -3.584338    -1.555183
H      0.511406    -4.142605    -1.759514
H     -0.249984    -2.971082    -2.299153
O     -1.264157    -0.853543    -3.377199
H     -0.999350    -0.873801    -2.449555
H     -2.227637    -0.844345    -3.317560
6
BHMC Sample 397
O     -0.247749    -3.584338    -1.555183
H      0.511406    -4.142605    -1.759514
H     -0.249984    -2.971082    -2.299153
O     -1.601364    -1.210618    -3.638502
H     -1.359324    -1.106871    -2.710219
H     -2.557333    -1.336189    -3.590659
6
BHMC Sample 398
O     -0.252307    -0.018330     0.316100
H      0.506848    -0.576597     0.111769
H     -0.254542     0.594926    -0.427869
O      1.743901    -2.799803     0.608129
H      1.603307    -2.107203     1.265087
H      1.164457    -3.504827     0.922964
6
BHMC Sample 399
O     -0.252307    -0.018330     0.316100
H      0.506848    -0.576597     0.111769
H     -0.254542     0.594926    -0.427869
O      1.679913    -2.764231     0.610510
H      2.219699    -2.472024     1.355025
H      1.563686    -3.704607     0.795225
6
BHMC Sample 400
O     -0.295540    -0.080335     0.123820
H      0.338779    -0.757128    -0.139468
H     -0.596957     0.252786    -0.729267
O      1.679913    -2.764231     0.610510
H      2.219699    -2.472024     1.355025
H      1.563686    -3.704607     0.795225
6
BHMC Sample 401
O      1.088622     2.108349    -2.809618
H      0.394405     1.759665    -2.238469
H      0.578169     2.493097    -3.531411
O     -0.141186     0.216056    -0.309743
H      0.398600     0.508263     0.434771
H     -0.257414    -0.724319    -0.125028
6
BHMC Sample 402
O      1.088622     2.108349    -2.809618
H      0.394405     1.759665    -2.238469
H      0.578169     2.493097    -3.531411
O     -0.292322    -0.276721    -0.866737
H      0.146101    -0.115399    -0.022452
H     -0.372741    -1.238666    -0.878059
6
BHMC Sample 403
O      0.401557    -0.012021     0.050215
H     -0.292660    -0.360705     0.621364
H     -0.108897     0.372726    -0.671579
O     -1.055153    -0.516293     3.049225
H     -0.578937    -1.293135     3.366700
H     -1.194612    -0.012624     3.860892
6
BHMC Sample 404
O      0.401557    -0.012021     0.050215
H     -0.292660    -0.360705     0.621364
H     -0.108897     0.372726    -0.671579
O     -2.688151    -0.402614     1.435605
H     -2.692772    -1.342631     1.653323
H     -3.188579    -0.018186     2.166167
6
BHMC Sample 405
O     -2.668134     2.172613    -0.785861
H     -2.526772     1.681332     0.031690
H     -2.770160     1.462408    -1.429894
O     -2.688151    -0.402614     1.435605
H     -2.692772    -1.342631     1.653323
H     -3.188579    -0.018186     2.166167
6
BHMC Sample 406
O     -1.542998     2.525226     0.643499
H     -1.401636     2.033945     1.461050
H     -1.645024     1.815021    -0.000533
O     -2.688151    -0.402614     1.435605
H     -2.692772    -1.342631     1.653323
H     -3.188579    -0.018186     2.166167
6
BHMC Sample 407
O     -0.013112     0.400495    -0.057839
H      0.128250    -0.090786     0.759711
H     -0.115138    -0.309709    -0.701872
O     -1.209784    -2.573731     0.424883
H     -1.238510    -3.535452     0.497849
H     -1.933742    -2.390563    -0.186892
6
BHMC Sample 408
O      0.311971     3.372779     1.082342
H      1.089191     2.803647     1.124126
H     -0.405736     2.737955     1.189457
O      0.250895     0.259518     0.179603
H      0.222169    -0.702203     0.252569
H     -0.473063     0.442685    -0.432172
6
BHMC Sample 409
O      0.311971     3.372779     1.082342
H      1.089191     2.803647     1.124126
H     -0.405736     2.737955     1.189457
O      1.408109     0.059902     2.486865
H      1.379384    -0.901819     2.559831
H      0.684151     0.243069     1.875090
6
BHMC Sample 410
O      0.311971     3.372779     1.082342
H      1.089191     2.803647     1.124126
H     -0.405736     2.737955     1.189457
O     -0.717345     0.290310    -0.785419
H     -1.113855    -0.163619    -1.538934
H     -0.886141     1.218460    -0.990306
6
BHMC Sample 411
O      0.311971     3.372779     1.082342
H      1.089191     2.803647     1.124126
H     -0.405736     2.737955     1.189457
O     -0.800213     0.273135    -0.832367
H     -0.331802     0.764639    -0.146750
H     -0.352908     0.562794    -1.637321
6
BHMC Sample 412
O     -1.487536     0.722731     2.827815
H     -0.537121     0.876416     2.774691
H     -1.607311    -0.002006     2.203324
O     -0.800213     0.273135    -0.832367
H     -0.331802     0.764639    -0.146750
H     -0.352908     0.562794    -1.637321
6
BHMC Sample 413
O     -1.391519     0.682192     2.835624
H     -1.972630     1.440448     2.704905
H     -1.695781     0.077402     2.149161
O     -0.800213     0.273135    -0.832367
H     -0.331802     0.764639    -0.146750
H     -0.352908     0.562794    -1.637321
6
BHMC Sample 414
O      1.647092    -1.627140    -2.967263
H      2.326911    -1.625306    -2.283471
H      0.856082    -1.845524    -2.461112
O     -0.800213     0.273135    -0.832367
H     -0.331802     0.764639    -0.146750
H     -0.352908     0.562794    -1.637321
6
BHMC Sample 415
O     -0.968259    -2.339771     2.689680
H     -0.834252    -3.087005     2.095195
H     -1.515149    -1.754195     2.153404
O     -0.305239    -0.260387     0.039779
H      0.163173     0.231116     0.725396
H      0.142066     0.029271    -0.765175
6
BHMC Sample 416
O      0.600619    -0.097007     3.399167
H      1.147734    -0.878998     3.261749
H     -0.210637    -0.337830     2.937163
O     -0.305239    -0.260387     0.039779
H      0.163173     0.231116     0.725396
H      0.142066     0.029271    -0.765175
6
BHMC Sample 417
O     -0.417932     1.074948     3.254890
H     -1.088766     1.694341     2.944950
H     -0.717572     0.245455     2.865356
O     -0.305239    -0.260387     0.039779
H      0.163173     0.231116     0.725396
H      0.142066     0.029271    -0.765175
6
BHMC Sample 418
O      0.299853     1.508470     2.998266
H     -0.412021     2.110121     2.751323
H     -0.089759     0.648334     2.803464
O     -0.305239    -0.260387     0.039779
H      0.163173     0.231116     0.725396
H      0.142066     0.029271    -0.765175
6
BHMC Sample 419
O      0.299853     1.508470     2.998266
H     -0.412021     2.110121     2.751323
H     -0.089759     0.648334     2.803464
O     -0.265060     0.777665    -0.432165
H      0.203352     1.269168     0.253452
H      0.182245     1.067323    -1.237119
6
BHMC Sample 420
O      0.133547    -0.567483    -3.462832
H     -0.210562     0.331344    -3.404282
H     -0.579610    -1.080080    -3.065052
O     -0.305239    -0.260387     0.039779
H      0.163173     0.231116     0.725396
H      0.142066     0.029271    -0.765175
6
BHMC Sample 421
O      1.075194    -0.914138     3.233352
H      0.780293    -1.790717     2.960637
H      0.251214    -0.413682     3.219947
O     -0.305239    -0.260387     0.039779
H      0.163173     0.231116     0.725396
H      0.142066     0.029271    -0.765175
6
BHMC Sample 422
O      1.075194    -0.914138     3.233352
H      0.780293    -1.790717     2.960637
H      0.251214    -0.413682     3.219947
O      1.496349     0.591745     0.099106
H      1.095600     0.830061     0.943892
H      1.991414     1.388878    -0.127664
6
BHMC Sample 423
O      1.075194    -0.914138     3.233352
H      0.780293    -1.790717     2.960637
H      0.251214    -0.413682     3.219947
O      1.307600    -0.895088    -1.555563
H      0.906851    -0.656771    -0.710778
H      1.802665    -0.097955    -1.782333
6
BHMC Sample 424
O      1.075194    -0.914138     3.233352
H      0.780293    -1.790717     2.960637
H      0.251214    -0.413682     3.219947
O      2.431745     3.629800     3.090141
H      1.855008     2.895266     2.847468
H      1.913781     4.085730     3.765253
6
BHMC Sample 425
O      0.372960     0.125374     0.095373
H      0.078059    -0.751204    -0.177342
H     -0.451020     0.625830     0.081968
O     -4.181921     0.668822     2.619197
H     -3.282182     0.852587     2.322959
H     -4.034601     0.179022     3.437932
6
BHMC Sample 426
O      0.372960     0.125374     0.095373
H      0.078059    -0.751204    -0.177342
H     -0.451020     0.625830     0.081968
O     -4.128700     0.712498     2.619193
H     -4.823630     0.072005     2.813869
H     -3.337875     0.266375     2.947072
6
BHMC Sample 427
O      0.354769     0.052893     0.078766
H     -0.334299     0.267795    -0.560554
H      0.250065     0.757250     0.728764
O     -4.128700     0.712498     2.619193
H     -4.823630     0.072005     2.813869
H     -3.337875     0.266375     2.947072
6
BHMC Sample 428
O      0.354769     0.052893     0.078766
H     -0.334299     0.267795    -0.560554
H      0.250065     0.757250     0.728764
O     -3.240229     3.473164    -1.523794
H     -3.288309     3.978959    -2.344109
H     -3.122046     2.570062    -1.843753
6
BHMC Sample 429
O      0.264591    -0.306420    -0.003559
H     -0.424478    -0.091517    -0.642880
H      0.159887     0.397937     0.646439
O      2.576709    -3.726696    -1.685115
H      3.060692    -3.837041    -2.512545
H      1.696875    -3.474077    -1.991727
6
BHMC Sample 430
O      2.598974    -3.770171    -1.749166
H      1.909905    -3.555269    -2.388486
H      2.494270    -3.065815    -1.099168
O      0.242326    -0.262945     0.060492
H      0.726309    -0.373289    -0.766938
H     -0.637508    -0.010325    -0.246121
6
BHMC Sample 431
O      0.264591    -0.306420    -0.003559
H     -0.424478    -0.091517    -0.642880
H      0.159887     0.397937     0.646439
O     -3.484565     2.033804    -1.267010
H     -2.564067     2.289284    -1.131102
H     -3.955195     2.629359    -0.670558
6
BHMC Sample 432
O     -3.078980    -0.996169     3.225781
H     -2.860583    -1.002452     2.286636
H     -2.343101    -0.496696     3.598053
O     -0.149956    -0.283679    -0.244120
H      0.770542    -0.028198    -0.108212
H     -0.620586     0.311877     0.352332
6
BHMC Sample 433
O     -3.078980    -0.996169     3.225781
H     -2.860583    -1.002452     2.286636
H     -2.343101    -0.496696     3.598053
O      0.375361    -2.729156     0.766443
H      1.204019    -3.018537     1.167243
H      0.234999    -1.867955     1.179439
6
BHMC Sample 434
O     -0.318092    -0.164397     0.188957
H     -0.099695    -0.170680    -0.750187
H      0.417787     0.335077     0.561230
O     -3.173280     0.291426     2.904499
H     -4.105722     0.291451     2.656288
H     -2.807550    -0.397988     2.336271
6
BHMC Sample 435
O     -0.776150    -1.561550    -0.711841
H     -0.557753    -1.567833    -1.650985
H     -0.040271    -1.062077    -0.339569
O     -3.173280     0.291426     2.904499
H     -4.105722     0.291451     2.656288
H     -2.807550    -0.397988     2.336271
6
BHMC Sample 436
O     -0.776150    -1.561550    -0.711841
H     -0.557753    -1.567833    -1.650985
H     -0.040271    -1.062077    -0.339569
O     -3.164262    -0.504840     3.209337
H     -3.944403    -1.072478     3.224256
H     -2.559188    -0.999001     2.642218
6
BHMC Sample 437
O     -0.776150    -1.561550    -0.711841
H     -0.557753    -1.567833    -1.650985
H     -0.040271    -1.062077    -0.339569
O     -3.353275     0.104950     2.336015
H     -4.133416    -0.462689     2.350934
H     -2.748201    -0.389211     1.768895
6
BHMC Sample 438
O     -4.377349    -1.242563    -1.655812
H     -4.322977    -1.038470    -2.596620
H     -3.751319    -1.971193    -1.573572
O     -3.353275     0.104950     2.336015
H     -4.133416    -0.462689     2.350934
H     -2.748201    -0.389211     1.768895
6
BHMC Sample 439
O     -4.377349    -1.242563    -1.655812
H     -4.322977    -1.038470    -2.596620
H     -3.751319    -1.971193    -1.573572
O     -3.523954    -1.027919     1.398136
H     -4.304095    -1.595557     1.413055
H     -2.918880    -1.522080     0.831016
6
BHMC Sample 440
O     -0.226801     0.174846     0.286189
H     -0.172429     0.378938    -0.654618
H      0.399230    -0.553784     0.368429
O     -1.988489     0.941775    -2.619123
H     -1.296591     1.613585    -2.650831
H     -2.299396     1.007302    -1.707544
6
BHMC Sample 441
O      2.908166    -0.242110     1.415771
H      2.018264    -0.609411     1.361976
H      3.438248    -1.028799     1.588141
O     -0.126997    -0.245779    -0.293291
H      0.564901     0.426031    -0.324999
H     -0.437904    -0.180252     0.618289
6
BHMC Sample 442
O      2.908166    -0.242110     1.415771
H      2.018264    -0.609411     1.361976
H      3.438248    -1.028799     1.588141
O     -0.047434    -0.185133    -0.215566
H     -0.946265     0.095361    -0.004659
H     -0.189568    -0.812148    -0.935695
6
BHMC Sample 443
O      2.875927     0.125293     1.441454
H      1.979338    -0.228942     1.460795
H      3.385468    -0.601724     1.817477
O     -0.047434    -0.185133    -0.215566
H     -0.946265     0.095361    -0.004659
H     -0.189568    -0.812148    -0.935695
6
BHMC Sample 444
O      3.269024     0.751193     0.528117
H      2.372434     0.396958     0.547458
H      3.778564     0.024176     0.904140
O     -0.047434    -0.185133    -0.215566
H     -0.946265     0.095361    -0.004659
H     -0.189568    -0.812148    -0.935695
6
BHMC Sample 445
O      3.406456     0.522817    -0.059264
H      2.501916     0.240402     0.119000
H      3.917631    -0.222668     0.276191
O     -0.047434    -0.185133    -0.215566
H     -0.946265     0.095361    -0.004659
H     -0.189568    -0.812148    -0.935695
6
BHMC Sample 446
O     -0.083669    -0.147008    -0.272803
H     -0.988209    -0.429423    -0.094538
H      0.427505    -0.892494     0.062652
O      3.442692     0.484692    -0.002027
H      2.543860     0.765186     0.208879
H      3.300557    -0.142322    -0.722156
6
BHMC Sample 447
O     -0.083669    -0.147008    -0.272803
H     -0.988209    -0.429423    -0.094538
H      0.427505    -0.892494     0.062652
O      3.342288     0.630200    -0.978423
H      2.482555     0.932380    -0.661242
H      3.115544    -0.180157    -1.451543
6
BHMC Sample 448
O      3.303506     0.659281    -1.015893
H      2.398966     0.376865    -0.837628
H      3.814681    -0.086205    -0.680437
O     -0.044887    -0.176088    -0.235333
H     -0.904620     0.126092     0.081847
H     -0.271631    -0.986445    -0.708453
6
BHMC Sample 449
O      3.303506     0.659281    -1.015893
H      2.398966     0.376865    -0.837628
H      3.814681    -0.086205    -0.680437
O      0.721611     0.809820    -0.039616
H     -0.138121     1.112000     0.277565
H      0.494868    -0.000537    -0.512736
6
BHMC Sample 450
O      3.303506     0.659281    -1.015893
H      2.398966     0.376865    -0.837628
H      3.814681    -0.086205    -0.680437
O     -0.324507     1.162234    -1.378432
H     -1.184240     1.464414    -1.061251
H     -0.551251     0.351877    -1.851552
6
BHMC Sample 451
O      2.487408     1.876310    -0.543755
H      1.582868     1.593894    -0.365490
H      2.998582     1.130824    -0.208300
O     -0.324507     1.162234    -1.378432
H     -1.184240     1.464414    -1.061251
H     -0.551251     0.351877    -1.851552
6
BHMC Sample 452
O      0.131122     0.342634    -0.171240
H     -0.773418     0.060218     0.007025
H      0.642296    -0.402852     0.164215
O     -2.581884     0.651339     1.116299
H     -3.473539     0.623429     0.748562
H     -2.742614     0.523603     2.059582
6
BHMC Sample 453
O     -1.328271     3.406096     0.753916
H     -2.000545     2.738199     0.575898
H     -0.932342     3.527182    -0.116806
O     -2.581884     0.651339     1.116299
H     -3.473539     0.623429     0.748562
H     -2.742614     0.523603     2.059582
6
BHMC Sample 454
O      0.092115     0.182271     0.349580
H     -0.580159    -0.485627     0.171562
H      0.488044     0.303356    -0.521142
O     -2.789896    -0.801697     0.217759
H     -2.826110    -1.759849     0.109641
H     -3.183150    -0.676577     1.090474
6
BHMC Sample 455
O      0.092115     0.182271     0.349580
H     -0.580159    -0.485627     0.171562
H      0.488044     0.303356    -0.521142
O      0.273389     1.593287    -2.357575
H     -0.534091     1.470676    -2.871384
H      0.273736     2.545035    -2.195989
6
BHMC Sample 456
O     -0.530092    -0.470376    -0.243984
H     -1.273775    -0.910342    -0.671879
H     -0.001990    -0.190692    -1.000596
O      0.273389     1.593287    -2.357575
H     -0.534091     1.470676    -2.871384
H      0.273736     2.545035    -2.195989
6
BHMC Sample 457
O      2.039386    -1.625285    -1.984472
H      1.383503    -2.040869    -2.556167
H      1.586014    -1.618159    -1.133601
O      0.269044    -0.276379     0.117408
H     -0.538435    -0.398990    -0.396401
H      0.269391     0.675369     0.278994
6
BHMC Sample 458
O      2.444486     0.670902    -1.318917
H      1.788602     0.255317    -1.890612
H      1.991114     0.678028    -0.468046
O      0.269044    -0.276379     0.117408
H     -0.538435    -0.398990    -0.396401
H      0.269391     0.675369     0.278994
6
BHMC Sample 459
O      2.336964     0.625310    -1.348412
H      2.345847     0.520973    -0.389890
H      3.140462     1.135997    -1.500620
O      0.269044    -0.276379     0.117408
H     -0.538435    -0.398990    -0.396401
H      0.269391     0.675369     0.278994
6
BHMC Sample 460
O     -0.173458    -0.071840     2.763219
H      0.681253     0.058711     2.336423
H     -0.005459     0.262367     3.651847
O      0.269044    -0.276379     0.117408
H     -0.538435    -0.398990    -0.396401
H      0.269391     0.675369     0.278994
6
BHMC Sample 461
O     -0.205168    -0.756316     3.901614
H      0.649543    -0.625764     3.474818
H     -0.037169    -0.422109     4.790242
O      0.269044    -0.276379     0.117408
H     -0.538435    -0.398990    -0.396401
H      0.269391     0.675369     0.278994
6
BHMC Sample 462
O      3.415099     0.249042    -2.027750
H      3.423983     0.144705    -1.069228
H      4.218598     0.759729    -2.179959
O      0.269044    -0.276379     0.117408
H     -0.538435    -0.398990    -0.396401
H      0.269391     0.675369     0.278994
6
BHMC Sample 463
O      2.809060    -2.588706    -1.540643
H      3.035877    -1.930780    -0.873248
H      3.636504    -2.670797    -2.028676
O      0.269044    -0.276379     0.117408
H     -0.538435    -0.398990    -0.396401
H      0.269391     0.675369     0.278994
6
BHMC Sample 464
O     -1.823315    -3.147623    -1.394696
H     -1.662066    -3.038111    -0.450379
H     -1.940358    -4.101873    -1.467411
O      0.269044    -0.276379     0.117408
H     -0.538435    -0.398990    -0.396401
H      0.269391     0.675369     0.278994
6
BHMC Sample 465
O     -1.872047    -3.150709    -1.339240
H     -1.102516    -3.105415    -1.918463
H     -1.726432    -3.985593    -0.879518
O      0.269044    -0.276379     0.117408
H     -0.538435    -0.398990    -0.396401
H      0.269391     0.675369     0.278994
6
BHMC Sample 466
O     -0.305049     0.263196     0.039834
H      0.464482     0.308491    -0.539389
H     -0.159434    -0.571687     0.499556
O      0.527842     1.291242     3.675413
H     -0.236376     1.229688     3.089547
H      0.155513     1.717027     4.457725
6
BHMC Sample 467
O     -0.305049     0.263196     0.039834
H      0.464482     0.308491    -0.539389
H     -0.159434    -0.571687     0.499556
O      1.657277     0.526943     2.177771
H      0.893060     0.465388     1.591905
H      1.284948     0.952727     2.960083
6
BHMC Sample 468
O     -0.254969     1.260656     2.420029
H      0.677081     1.507286     2.406400
H     -0.206476     0.305454     2.541749
O      0.378849    -0.121410    -0.065482
H     -0.385369    -0.182964    -0.651348
H      0.006520     0.304375     0.716830
6
BHMC Sample 469
O     -0.326848     0.236191    -0.036031
H      0.605202     0.482820    -0.049659
H     -0.278354    -0.719011     0.085690
O      0.179804     0.191691    -2.774231
H     -0.185041     0.967134    -3.217663
H     -0.012963     0.373872    -1.846015
6
BHMC Sample 470
O     -0.756966     0.579503    -0.169452
H      0.168375     0.829147    -0.063856
H     -0.741590    -0.351911     0.079163
O      0.179804     0.191691    -2.774231
H     -0.185041     0.967134    -3.217663
H     -0.012963     0.373872    -1.846015
6
BHMC Sample 471
O     -0.756966     0.579503    -0.169452
H      0.168375     0.829147    -0.063856
H     -0.741590    -0.351911     0.079163
O      0.070967     0.404481    -2.827814
H     -0.548656     1.011098    -3.251062
H     -0.108247     0.546153    -1.889867
6
BHMC Sample 472
O     -0.024094     1.106045    -0.132922
H      0.921472     1.203727    -0.294456
H     -0.067219     0.234071     0.276198
O      0.070967     0.404481    -2.827814
H     -0.548656     1.011098    -3.251062
H     -0.108247     0.546153    -1.889867
6
BHMC Sample 473
O     -0.616854    -0.185169     2.487191
H     -0.661980    -1.134462     2.324294
H      0.222195    -0.103027     2.954983
O      0.266279    -0.249430    -0.171567
H     -0.353344     0.357188    -0.594815
H      0.087065    -0.107758     0.766381
6
BHMC Sample 474
O     -0.616854    -0.185169     2.487191
H     -0.661980    -1.134462     2.324294
H      0.222195    -0.103027     2.954983
O      1.448425     0.856743     0.894661
H      0.960093     1.188238     0.131313
H      0.741349     0.643102     1.516219
6
BHMC Sample 475
O     -0.616854    -0.185169     2.487191
H     -0.661980    -1.134462     2.324294
H      0.222195    -0.103027     2.954983
O     -1.531496     1.360560     0.406098
H     -0.767996     1.907711     0.185306
H     -1.150013     0.702645     1.000700
6
BHMC Sample 476
O     -0.616854    -0.185169     2.487191
H     -0.661980    -1.134462     2.324294
H      0.222195    -0.103027     2.954983
O     -1.918337     1.383605     0.650450
H     -1.244526     2.025695     0.395978
H     -1.407318     0.733056     1.148023
6
BHMC Sample 477
O     -0.616854    -0.185169     2.487191
H     -0.661980    -1.134462     2.324294
H      0.222195    -0.103027     2.954983
O      0.295278     1.811685     0.793342
H      1.256263     1.751402     0.856030
H      0.007471     1.005582     1.239772
6
BHMC Sample 478
O     -0.616854    -0.185169     2.487191
H     -0.661980    -1.134462     2.324294
H      0.222195    -0.103027     2.954983
O      0.799308     1.933241     1.370042
H      0.922234     1.654602     0.454452
H      0.182532     1.271473     1.707066
6
BHMC Sample 479
O     -0.264641     0.289051    -0.101632
H     -0.309767    -0.660242    -0.264529
H      0.574408     0.371192     0.366160
O     -0.660433     1.921252     2.116580
H     -1.314812     1.434036     2.631814
H     -0.642855     1.429703     1.285914
6
BHMC Sample 480
O     -0.264641     0.289051    -0.101632
H     -0.309767    -0.660242    -0.264529
H      0.574408     0.371192     0.366160
O      1.151521     2.407460    -1.218780
H      1.274446     2.128822    -2.134371
H      0.534745     1.745693    -0.881757
6
BHMC Sample 481
O     -1.928546    -1.298714     1.065054
H     -2.690539    -1.711971     0.642781
H     -2.210043    -0.378687     1.127413
O      0.164617     0.313469     0.192856
H      0.287542     0.034830    -0.722735
H     -0.452159    -0.348299     0.529879
6
BHMC Sample 482
O     -1.251545    -1.804941     1.310004
H     -1.296671    -2.754234     1.147107
H     -0.412496    -1.722800     1.777796
O      0.164617     0.313469     0.192856
H      0.287542     0.034830    -0.722735
H     -0.452159    -0.348299     0.529879
6
BHMC Sample 483
O     -0.163603    -2.397040     0.762293
H      0.121779    -3.215773     0.340439
H      0.650476    -2.094447     1.180973
O      0.164617     0.313469     0.192856
H      0.287542     0.034830    -0.722735
H     -0.452159    -0.348299     0.529879
6
BHMC Sample 484
O      1.137916    -1.724176    -1.444306
H      1.144510    -2.687039    -1.393502
H      1.826112    -1.486663    -0.812203
O      0.164617     0.313469     0.192856
H      0.287542     0.034830    -0.722735
H     -0.452159    -0.348299     0.529879
6
BHMC Sample 485
O      1.179176    -1.595532    -1.567297
H      1.171982    -2.559205    -1.599089
H      1.843511    -1.423553    -0.890052
O      0.164617     0.313469     0.192856
H      0.287542     0.034830    -0.722735
H     -0.452159    -0.348299     0.529879
6
BHMC Sample 486
O      1.170074    -1.653025    -1.509052
H      1.142255    -2.616769    -1.521410
H      1.825294    -1.481472    -0.822877
O      0.164617     0.313469     0.192856
H      0.287542     0.034830    -0.722735
H     -0.452159    -0.348299     0.529879
6
BHMC Sample 487
O      1.679004    -0.788577    -1.631539
H      1.651185    -1.752321    -1.643897
H      2.334224    -0.617023    -0.945364
O      0.164617     0.313469     0.192856
H      0.287542     0.034830    -0.722735
H     -0.452159    -0.348299     0.529879
6
BHMC Sample 488
O      1.108349    -1.122566    -1.797340
H      0.914898    -2.065017    -1.733360
H      1.901557    -1.044784    -1.254800
O      0.164617     0.313469     0.192856
H      0.287542     0.034830    -0.722735
H     -0.452159    -0.348299     0.529879
6
BHMC Sample 489
O      1.078909    -1.158843    -1.785722
H      0.687498    -2.038207    -1.842694
H      1.782278    -1.295329    -1.140569
O      0.164617     0.313469     0.192856
H      0.287542     0.034830    -0.722735
H     -0.452159    -0.348299     0.529879
6
BHMC Sample 490
O     -0.103986     0.338617    -0.196060
H     -0.495397    -0.540747    -0.253032
H      0.599383     0.202131     0.449093
O     -2.464656     0.829752     0.854809
H     -1.643545     1.024740     0.387036
H     -2.173610     0.783822     1.774111
6
BHMC Sample 491
O      1.643297     1.416899    -0.993819
H      0.974681     2.103047    -0.884814
H      2.281234     1.649937    -0.309489
O     -0.370719    -0.049686    -0.150510
H      0.450392     0.145302    -0.618283
H     -0.079673    -0.095616     0.768793
6
BHMC Sample 492
O      1.056144     1.323013     1.597158
H      1.258117     1.831111     0.802946
H      0.521438     1.946612     2.101928
O     -0.370719    -0.049686    -0.150510
H      0.450392     0.145302    -0.618283
H     -0.079673    -0.095616     0.768793
6
BHMC Sample 493
O      1.046778     1.320778     1.596302
H      0.363030     1.726216     1.050556
H      1.565186     2.086978     1.867908
O     -0.370719    -0.049686    -0.150510
H      0.450392     0.145302    -0.618283
H     -0.079673    -0.095616     0.768793
6
BHMC Sample 494
O      0.055113    -0.390546     0.091380
H     -0.628634     0.014892    -0.454366
H      0.573521     0.375654     0.362986
O      2.524063    -0.594014     0.986892
H      2.621611    -0.616292     0.027181
H      1.652690    -0.988987     1.115886
6
BHMC Sample 495
O      0.346688     0.170847    -0.276360
H     -0.119670     0.691237    -0.940765
H      1.018749     0.791868     0.027361
O      2.524063    -0.594014     0.986892
H      2.621611    -0.616292     0.027181
H      1.652690    -0.988987     1.115886
6
BHMC Sample 496
O     -1.536951     1.051017    -1.416814
H     -2.402150     1.418045    -1.632340
H     -1.336231     1.490798    -0.582619
O      0.257942     0.139084     0.276905
H      0.355490     0.116805    -0.682805
H     -0.613431    -0.255889     0.405900
6
BHMC Sample 497
O     -1.536951     1.051017    -1.416814
H     -2.402150     1.418045    -1.632340
H     -1.336231     1.490798    -0.582619
O      0.265418     0.115811     0.254898
H      0.352652     0.095274    -0.705844
H     -0.608530    -0.270658     0.391978
6
BHMC Sample 498
O     -1.536951     1.051017    -1.416814
H     -2.402150     1.418045    -1.632340
H     -1.336231     1.490798    -0.582619
O     -0.900605    -1.192010     0.756419
H     -0.813371    -1.212547    -0.204323
H     -1.774553    -1.578479     0.893498
6
BHMC Sample 499
O     -2.554209    -0.011846     2.896733
H     -3.344233    -0.214403     2.382378
H     -2.825814    -0.264348     3.786706
O      2.763648    -0.834607    -2.211580
H      2.915002    -0.525216    -3.112927
H      2.842501    -0.021431    -1.697323
6
BHMC Sample 500
O     -2.554209    -0.011846     2.896733
H     -3.344233    -0.214403     2.382378
H     -2.825814    -0.264348     3.786706
O      2.779988    -0.706280    -2.216624
H      3.495103    -1.350037    -2.289037
H      2.003041    -1.233418    -2.441153
6
BHMC Sample 501
O     -1.225962     1.182543     1.831262
H     -2.015986     0.979986     1.316907
H     -1.497567     0.930042     2.721235
O      2.779988    -0.706280    -2.216624
H      3.495103    -1.350037    -2.289037
H      2.003041    -1.233418    -2.441153
6
BHMC Sample 502
O     -1.225962     1.182543     1.831262
H     -2.015986     0.979986     1.316907
H     -1.497567     0.930042     2.721235
O      2.800712    -0.739428    -2.287533
H      3.136690    -1.536295    -1.859541
H      2.032526    -0.521044    -1.745192
6
BHMC Sample 503
O      2.812629    -4.047479     3.107847
H      2.615576    -4.795806     2.532602
H      2.681619    -4.429384     3.983383
O      0.144069     0.192828    -0.323444
H      0.480047    -0.604040     0.104548
H     -0.624117     0.411211     0.218896
6
BHMC Sample 504
O      0.138242     0.223700    -0.285953
H     -0.058811    -0.524626    -0.861198
H      0.007232    -0.158205     0.589583
O      2.818456    -4.078351     3.070356
H      3.154434    -4.875219     3.498347
H      2.050270    -3.859968     3.612696
6
BHMC Sample 505
O      0.206689     2.104096    -2.590251
H      0.009636     1.355769    -3.165496
H      0.075679     1.722190    -1.714715
O      2.818456    -4.078351     3.070356
H      3.154434    -4.875219     3.498347
H      2.050270    -3.859968     3.612696
6
BHMC Sample 506
O      0.873157    -0.099530    -3.350563
H      0.676104    -0.847857    -3.925808
H      0.742148    -0.481435    -2.475027
O      2.818456    -4.078351     3.070356
H      3.154434    -4.875219     3.498347
H      2.050270    -3.859968     3.612696
6
BHMC Sample 507
O      2.812629    -4.047479     3.107847
H      2.615576    -4.795806     2.532602
H      2.681619    -4.429384     3.983383
O      0.878985    -0.130402    -3.388054
H      1.214963    -0.927270    -2.960063
H      0.110798     0.087981    -2.845714
6
BHMC Sample 508
O     -4.268332    -3.335497     1.575992
H     -4.785702    -2.575156     1.286270
H     -4.666450    -3.532937     2.431619
O      0.878985    -0.130402    -3.388054
H      1.214963    -0.927270    -2.960063
H      0.110798     0.087981    -2.845714
6
BHMC Sample 509
O     -4.268332    -3.335497     1.575992
H     -4.785702    -2.575156     1.286270
H     -4.666450    -3.532937     2.431619
O      2.994363     0.207273    -2.685513
H      3.330341    -0.589594    -2.257521
H      2.226177     0.425657    -2.143173
6
BHMC Sample 510
O     -4.268332    -3.335497     1.575992
H     -4.785702    -2.575156     1.286270
H     -4.666450    -3.532937     2.431619
O      3.211603     1.500499    -3.265037
H      3.547581     0.703632    -2.837045
H      2.443417     1.718883    -2.722697
6
BHMC Sample 511
O     -3.928599    -3.069454     0.605930
H     -4.445969    -2.309113     0.316208
H     -4.326718    -3.266894     1.461557
O      3.211603     1.500499    -3.265037
H      3.547581     0.703632    -2.837045
H      2.443417     1.718883    -2.722697
6
BHMC Sample 512
O     -3.928599    -3.069454     0.605930
H     -4.445969    -2.309113     0.316208
H     -4.326718    -3.266894     1.461557
O      3.334279     0.371309    -3.549023
H      3.670257    -0.425559    -3.121031
H      2.566092     0.589692    -3.006682
6
BHMC Sample 513
O      3.361320     0.307444    -3.526393
H      2.843950     1.067785    -3.816116
H      2.963201     0.110004    -2.670767
O     -3.955640    -3.005589     0.583301
H     -3.619662    -3.802457     1.011293
H     -4.723826    -2.787206     1.125642
6
BHMC Sample 514
O     -3.928599    -3.069454     0.605930
H     -4.445969    -2.309113     0.316208
H     -4.326718    -3.266894     1.461557
O      3.334279     0.371309    -3.549023
H      3.670257    -0.425559    -3.121031
H      2.566092     0.589692    -3.006682
6
BHMC Sample 515
O     -3.928599    -3.069454     0.605930
H     -4.445969    -2.309113     0.316208
H     -4.326718    -3.266894     1.461557
O      3.929659     1.669518    -4.108354
H      4.265637     0.872650    -3.680363
H      3.161472     1.887901    -3.566014
6
BHMC Sample 516
O     -3.928599    -3.069454     0.605930
H     -4.445969    -2.309113     0.316208
H     -4.326718    -3.266894     1.461557
O      3.947269     1.601449    -4.014576
H      2.996882     1.493764    -4.141954
H      4.150719     2.347184    -4.592868
6
BHMC Sample 517
O     -4.319476    -3.852745     1.877114
H     -4.836846    -3.092404     1.587391
H     -4.717595    -4.050185     2.732741
O      3.947269     1.601449    -4.014576
H      2.996882     1.493764    -4.141954
H      4.150719     2.347184    -4.592868
6
BHMC Sample 518
O     -4.319476    -3.852745     1.877114
H     -4.836846    -3.092404     1.587391
H     -4.717595    -4.050185     2.732741
O      3.973382     2.177778    -3.122520
H      3.022995     2.070093    -3.249898
H      4.176832     2.923513    -3.700812
6
BHMC Sample 519
O     -4.405179    -3.809672     1.966188
H     -4.602470    -3.515447     1.069395
H     -3.591694    -4.310791     1.836956
O      3.973382     2.177778    -3.122520
H      3.022995     2.070093    -3.249898
H      4.176832     2.923513    -3.700812
6
BHMC Sample 520
O     -4.405179    -3.809672     1.966188
H     -4.602470    -3.515447     1.069395
H     -3.591694    -4.310791     1.836956
O      3.670777     0.957096    -2.795630
H      2.720391     0.849411    -2.923008
H      3.874227     1.702831    -3.373922
6
BHMC Sample 521
O     -3.329333    -4.320545     2.645119
H     -3.526624    -4.026319     1.748326
H     -2.515848    -4.821663     2.515887
O      3.670777     0.957096    -2.795630
H      2.720391     0.849411    -2.923008
H      3.874227     1.702831    -3.373922
6
BHMC Sample 522
O      3.594506     1.004374    -2.777705
H      3.397215     1.298599    -3.674498
H      4.407991     0.503255    -2.906936
O     -3.253062    -4.367822     2.627194
H     -4.203448    -4.475507     2.499816
H     -3.049612    -3.622087     2.048902
6
BHMC Sample 523
O     -3.329333    -4.320545     2.645119
H     -3.526624    -4.026319     1.748326
H     -2.515848    -4.821663     2.515887
O      3.670777     0.957096    -2.795630
H      2.720391     0.849411    -2.923008
H      3.874227     1.702831    -3.373922
6
BHMC Sample 524
O     -3.329333    -4.320545     2.645119
H     -3.526624    -4.026319     1.748326
H     -2.515848    -4.821663     2.515887
O      3.561958     1.000641    -2.829986
H      4.151742     1.288077    -3.537510
H      4.170064     0.573028    -2.214122
6
BHMC Sample 525
O      3.594506     1.004374    -2.777705
H      3.397215     1.298599    -3.674498
H      4.407991     0.503255    -2.906936
O     -3.361881    -4.324278     2.592838
H     -2.772097    -4.036841     1.885313
H     -2.753775    -4.751890     3.208702
6
BHMC Sample 526
O     -3.329333    -4.320545     2.645119
H     -3.526624    -4.026319     1.748326
H     -2.515848    -4.821663     2.515887
O      3.561958     1.000641    -2.829986
H      4.151742     1.288077    -3.537510
H      4.170064     0.573028    -2.214122
6
BHMC Sample 527
O     -3.677576    -1.502888     4.025532
H     -2.836832    -1.974552     4.005225
H     -3.390267    -0.587847     4.124183
O      3.561958     1.000641    -2.829986
H      4.151742     1.288077    -3.537510
H      4.170064     0.573028    -2.214122
6
BHMC Sample 528
O     -3.677576    -1.502888     4.025532
H     -2.836832    -1.974552     4.005225
H     -3.390267    -0.587847     4.124183
O      3.049450    -0.501719    -2.197569
H      3.639234    -0.214282    -2.905094
H      3.657556    -0.929331    -1.581705
6
BHMC Sample 529
O      3.053357    -0.534371    -2.207081
H      3.894101    -1.006034    -2.227388
H      3.340666     0.380670    -2.108430
O     -3.681484    -1.470237     4.035044
H     -3.091700    -1.182800     3.327519
H     -3.073377    -1.897849     4.650908
6
BHMC Sample 530
O      3.701159    -4.335876    -0.720370
H      4.565703    -4.568283    -0.362207
H      3.916516    -3.590466    -1.292702
O     -3.681484    -1.470237     4.035044
H     -3.091700    -1.182800     3.327519
H     -3.073377    -1.897849     4.650908
6
BHMC Sample 531
O     -3.674882    -1.506784     4.041899
H     -2.810338    -1.739191     4.400062
H     -3.459526    -0.761374     3.469567
O      3.694557    -4.299329    -0.727225
H      4.284342    -4.011892    -1.434750
H      4.302664    -4.726941    -0.111361
6
BHMC Sample 532
O      3.701159    -4.335876    -0.720370
H      4.565703    -4.568283    -0.362207
H      3.916516    -3.590466    -1.292702
O     -3.681484    -1.470237     4.035044
H     -3.091700    -1.182800     3.327519
H     -3.073377    -1.897849     4.650908
6
BHMC Sample 533
O     -3.674882    -1.506784     4.041899
H     -2.810338    -1.739191     4.400062
H     -3.459526    -0.761374     3.469567
O      3.694557    -4.299329    -0.727225
H      4.284342    -4.011892    -1.434750
H      4.302664    -4.726941    -0.111361
6
BHMC Sample 534
O     -3.674882    -1.506784     4.041899
H     -2.810338    -1.739191     4.400062
H     -3.459526    -0.761374     3.469567
O      3.655701    -4.353597    -0.754197
H      4.252567    -4.065433    -1.455459
H      4.254249    -4.802106    -0.143858
6
BHMC Sample 535
O     -3.674882    -1.506784     4.041899
H     -2.810338    -1.739191     4.400062
H     -3.459526    -0.761374     3.469567
O      3.487349    -1.804244    -0.406684
H      4.084215    -1.516080    -1.107947
H      4.085898    -2.252753     0.203655
6
BHMC Sample 536
O     -3.674882    -1.506784     4.041899
H     -2.810338    -1.739191     4.400062
H     -3.459526    -0.761374     3.469567
O      3.501103    -1.786435    -0.385871
H      4.102939    -1.491191    -1.079903
H      4.093666    -2.250274     0.218825
6
BHMC Sample 537
O     -3.674882    -1.506784     4.041899
H     -2.810338    -1.739191     4.400062
H     -3.459526    -0.761374     3.469567
O      0.126291     3.611738    -1.476991
H      0.230615     4.443324    -1.955151
H      1.005415     3.219471    -1.549122
6
BHMC Sample 538
O     -3.674882    -1.506784     4.041899
H     -2.810338    -1.739191     4.400062
H     -3.459526    -0.761374     3.469567
O     -0.473186     1.485997    -2.083017
H     -0.368861     2.317583    -2.561177
H      0.405938     1.093731    -2.155147
6
BHMC Sample 539
O     -0.478583     1.481874    -2.101824
H      0.385961     1.249468    -1.743661
H     -0.263227     2.227285    -2.674156
O     -3.669485    -1.502661     4.060706
H     -3.565160    -0.671075     3.582546
H     -2.790361    -1.894928     3.988575
6
BHMC Sample 540
O      3.043055    -3.000538     0.939136
H      3.381760    -2.182936     1.321934
H      3.622439    -3.118911     0.177637
O     -3.669485    -1.502661     4.060706
H     -3.565160    -0.671075     3.582546
H     -2.790361    -1.894928     3.988575
6
BHMC Sample 541
O      3.043055    -3.000538     0.939136
H      3.381760    -2.182936     1.321934
H      3.622439    -3.118911     0.177637
O     -2.076961    -2.711092     3.941930
H     -1.972637    -1.879506     3.463770
H     -1.197837    -3.103358     3.869799
6
BHMC Sample 542
O      3.092140    -3.011573     0.963743
H      2.510535    -2.848380     0.212190
H      3.714574    -2.278311     0.896807
O     -2.076961    -2.711092     3.941930
H     -1.972637    -1.879506     3.463770
H     -1.197837    -3.103358     3.869799
6
BHMC Sample 543
O     -2.024218    -2.736670     3.956937
H     -2.605824    -2.573477     3.205384
H     -1.401785    -2.003408     3.890001
O      3.039398    -2.985995     0.948737
H      3.143722    -2.154409     0.470577
H      3.918521    -3.378261     0.876606
6
BHMC Sample 544
O      0.238502    -3.750391     2.326827
H     -0.343104    -3.587198     1.575274
H      0.860935    -3.017129     2.259891
O      3.039398    -2.985995     0.948737
H      3.143722    -2.154409     0.470577
H      3.918521    -3.378261     0.876606
6
BHMC Sample 545
O     -0.100305    -1.674261    -3.200562
H      0.837369    -1.886518    -3.274345
H     -0.266764    -1.830479    -2.263830
O     -0.327816    -0.146440     0.183430
H     -0.223492     0.685146    -0.294730
H      0.551308    -0.538706     0.111300
6
BHMC Sample 546
O      0.064152    -1.956457    -3.041791
H      1.000693    -2.185850    -3.042495
H     -0.158256    -2.030182    -2.106548
O     -0.327816    -0.146440     0.183430
H     -0.223492     0.685146    -0.294730
H      0.551308    -0.538706     0.111300
6
BHMC Sample 547
O      0.064152    -1.956457    -3.041791
H      1.000693    -2.185850    -3.042495
H     -0.158256    -2.030182    -2.106548
O     -1.216167    -0.499939     0.121387
H     -1.350722     0.334204    -0.344614
H     -0.253851    -0.574557     0.139140
6
BHMC Sample 548
O      0.064152    -1.956457    -3.041791
H      1.000693    -2.185850    -3.042495
H     -0.158256    -2.030182    -2.106548
O     -0.325093    -0.300383     0.536512
H     -0.459647     0.533759     0.070511
H      0.637223    -0.375001     0.554266
6
BHMC Sample 549
O     -2.783191    -2.506716     1.177098
H     -3.445497    -2.304442     0.506155
H     -2.385892    -1.641970     1.331842
O     -0.275920    -0.253175     0.149416
H     -0.410475     0.580968    -0.316586
H      0.686395    -0.327793     0.167169
6
BHMC Sample 550
O     -2.783191    -2.506716     1.177098
H     -3.445497    -2.304442     0.506155
H     -2.385892    -1.641970     1.331842
O     -0.056039    -1.868324    -0.929805
H      0.104485    -1.061882    -1.434721
H      0.660910    -2.443638    -1.224650
6
BHMC Sample 551
O     -2.655314    -0.782737     2.756842
H     -2.997641    -1.560710     2.301541
H     -1.768535    -1.070154     3.002999
O     -0.292491    -0.077043     0.266587
H     -0.131967     0.729400    -0.238329
H      0.424458    -0.652357    -0.028258
6
BHMC Sample 552
O      2.854480     0.619874     1.863599
H      2.644996     0.070821     2.628050
H      2.947600    -0.038268     1.165203
O     -0.292491    -0.077043     0.266587
H     -0.131967     0.729400    -0.238329
H      0.424458    -0.652357    -0.028258
6
BHMC Sample 553
O      1.465274     0.254648     3.129445
H      2.361821    -0.003626     2.886079
H      0.972451    -0.557540     2.964961
O     -0.292491    -0.077043     0.266587
H     -0.131967     0.729400    -0.238329
H      0.424458    -0.652357    -0.028258
6
BHMC Sample 554
O     -0.901213    -0.060823    -3.345058
H     -1.833955     0.161310    -3.243185
H     -0.470005     0.747390    -3.044341
O     -0.292491    -0.077043     0.266587
H     -0.131967     0.729400    -0.238329
H      0.424458    -0.652357    -0.028258
6
BHMC Sample 555
O     -0.215331    -0.121762     0.199311
H     -1.148073     0.100371     0.301184
H      0.215878     0.686451     0.500028
O     -0.978373    -0.016104    -3.277783
H     -0.817850     0.790339    -3.782698
H     -0.261425    -0.591418    -3.572627
6
BHMC Sample 556
O     -2.055043     1.155079    -2.951700
H     -1.286554     1.649018    -3.260211
H     -2.104632     0.440409    -3.596964
O     -0.292491    -0.077043     0.266587
H     -0.131967     0.729400    -0.238329
H      0.424458    -0.652357    -0.028258
6
BHMC Sample 557
O     -1.641006     3.513893    -0.068693
H     -1.415714     3.728829     0.843872
H     -1.025258     4.068288    -0.561725
O     -0.292491    -0.077043     0.266587
H     -0.131967     0.729400    -0.238329
H      0.424458    -0.652357    -0.028258
6
BHMC Sample 558
O     -0.112549    -3.237141    -1.958665
H      0.463364    -2.823809    -2.612278
H      0.475665    -3.887440    -1.557798
O     -0.292491    -0.077043     0.266587
H     -0.131967     0.729400    -0.238329
H      0.424458    -0.652357    -0.028258
6
BHMC Sample 559
O     -0.388042     0.078989     0.084248
H      0.187871     0.492321    -0.569364
H      0.200171    -0.571310     0.485116
O     -1.309820    -1.122888    -3.629267
H     -0.574434    -1.175277    -4.251777
H     -0.933693    -1.513848    -2.830759
6
BHMC Sample 560
O     -0.995613    -3.105106     2.202380
H     -0.646238    -3.344166     1.336057
H     -0.228897    -3.241350     2.770855
O     -0.370504     0.147783    -0.058666
H      0.364882     0.095394    -0.681176
H      0.005622    -0.243176     0.739842
6
BHMC Sample 561
O      0.551273     1.349660     3.654850
H      1.127186     1.762992     3.001237
H      1.139487     0.699361     4.055717
O     -0.370504     0.147783    -0.058666
H      0.364882     0.095394    -0.681176
H      0.005622    -0.243176     0.739842
6
BHMC Sample 562
O      0.551273     1.349660     3.654850
H      1.127186     1.762992     3.001237
H      1.139487     0.699361     4.055717
O     -0.242160     0.115568    -0.036591
H     -0.681666     0.741245    -0.625165
H     -0.984903    -0.377720     0.333456
6
BHMC Sample 563
O     -0.383247    -2.788663    -2.783327
H     -1.272821    -2.510540    -2.536278
H     -0.303384    -3.632264    -2.323395
O     -0.242160     0.115568    -0.036591
H     -0.681666     0.741245    -0.625165
H     -0.984903    -0.377720     0.333456
6
BHMC Sample 564
O     -0.263005     0.154616    -0.088376
H     -1.152580     0.432739     0.158674
H     -0.183143    -0.688985     0.371556
O     -0.362402    -2.827711    -2.731542
H     -0.801908    -2.202034    -3.320116
H     -1.105144    -3.320999    -2.361495
6
BHMC Sample 565
O      0.269904     0.188493    -0.235661
H     -0.619671     0.466615     0.011389
H      0.349766    -0.655108     0.224272
O      2.741506     0.485882     2.893145
H      2.604273     1.438090     2.818828
H      2.118814     0.240396     3.588793
6
BHMC Sample 566
O      0.269904     0.188493    -0.235661
H     -0.619671     0.466615     0.011389
H      0.349766    -0.655108     0.224272
O      2.741330     0.500007     2.881638
H      2.236394     0.034381     3.559347
H      2.489484     1.419912     3.030915
6
BHMC Sample 567
O      0.269904     0.188493    -0.235661
H     -0.619671     0.466615     0.011389
H      0.349766    -0.655108     0.224272
O      1.470579     3.906426     0.362838
H      2.366655     3.835713     0.011977
H      1.605485     3.758498     1.307217
6
BHMC Sample 568
O      0.269904     0.188493    -0.235661
H     -0.619671     0.466615     0.011389
H      0.349766    -0.655108     0.224272
O      1.590500     3.898610     0.369823
H      1.007237     3.131336     0.416216
H      1.061514     4.586928     0.792110
6
BHMC Sample 569
O     -3.191850     1.139122     1.888723
H     -2.672924     1.924595     2.097233
H     -4.041657     1.521661     1.641598
O      0.370750     0.026319    -0.156226
H     -0.212513    -0.740955    -0.109834
H     -0.158237     0.714636     0.266060
6
BHMC Sample 570
O      0.327029    -0.043454    -0.127842
H      0.845956     0.742019     0.080669
H     -0.522777     0.339086    -0.374967
O     -3.148130     1.208894     1.860338
H     -3.731393     0.441620     1.906731
H     -3.677117     1.897212     2.282625
6
BHMC Sample 571
O      0.553953     0.030842     1.610234
H      1.072879     0.816315     1.818745
H     -0.295854     0.413381     1.363109
O     -3.148130     1.208894     1.860338
H     -3.731393     0.441620     1.906731
H     -3.677117     1.897212     2.282625
6
BHMC Sample 572
O      0.553953     0.030842     1.610234
H      1.072879     0.816315     1.818745
H     -0.295854     0.413381     1.363109
O     -2.578444     1.784076    -0.300039
H     -3.161707     1.016803    -0.253646
H     -3.107431     2.472394     0.122248
6
BHMC Sample 573
O      0.110293    -0.389337     0.012871
H      0.629220     0.396136     0.221382
H     -0.739513    -0.006798    -0.234254
O     -3.606187     1.259494    -0.050484
H     -4.032232     0.520322    -0.501225
H     -3.819462     2.004244    -0.626500
6
BHMC Sample 574
O      4.242934     0.527841     0.223265
H      4.525987    -0.326590     0.569035
H      3.314473     0.363540     0.021910
O      0.213107    -0.001860     0.342252
H     -0.212938    -0.741031    -0.108488
H     -0.000169     0.742891    -0.233764
6
BHMC Sample 575
O     -1.361687     1.626570     3.719010
H     -1.407734     0.836655     4.270048
H     -1.210386     1.250592     2.844180
O      0.213107    -0.001860     0.342252
H     -0.212938    -0.741031    -0.108488
H     -0.000169     0.742891    -0.233764
6
BHMC Sample 576
O      3.877832     1.509480     1.199273
H      4.427100     0.955350     0.632728
H      3.033591     1.044478     1.174557
O      0.213107    -0.001860     0.342252
H     -0.212938    -0.741031    -0.108488
H     -0.000169     0.742891    -0.233764
6
BHMC Sample 577
O     -0.960801    -1.498223     3.947981
H     -0.202815    -1.139694     4.424050
H     -0.944882    -0.984422     3.132301
O      0.213107    -0.001860     0.342252
H     -0.212938    -0.741031    -0.108488
H     -0.000169     0.742891    -0.233764
6
BHMC Sample 578
O     -1.170702     0.858567     4.079175
H     -1.797194     0.126402     4.113396
H     -0.601812     0.599765     3.345033
O      0.213107    -0.001860     0.342252
H     -0.212938    -0.741031    -0.108488
H     -0.000169     0.742891    -0.233764
6
BHMC Sample 579
O     -1.170702     0.858567     4.079175
H     -1.797194     0.126402     4.113396
H     -0.601812     0.599765     3.345033
O      1.362817    -1.275322    -1.773886
H      0.936772    -2.014494    -2.224627
H      1.149542    -0.530572    -2.349903
6
BHMC Sample 580
O     -1.170702     0.858567     4.079175
H     -1.797194     0.126402     4.113396
H     -0.601812     0.599765     3.345033
O      2.444729    -0.329084    -1.526649
H      2.018684    -1.068255    -1.977390
H      2.231454     0.415667    -2.102666
6
BHMC Sample 581
O      1.677782     0.415493     4.133165
H      1.051290    -0.316672     4.167386
H      2.246671     0.156690     3.399023
O      2.444729    -0.329084    -1.526649
H      2.018684    -1.068255    -1.977390
H      2.231454     0.415667    -2.102666
6
BHMC Sample 582
O      0.471027     1.617406     4.234397
H     -0.155464     0.885241     4.268618
H      1.039917     1.358603     3.500255
O      2.444729    -0.329084    -1.526649
H      2.018684    -1.068255    -1.977390
H      2.231454     0.415667    -2.102666
6
BHMC Sample 583
O      1.706735     2.741577     4.516016
H      1.080243     2.009412     4.550237
H      2.275625     2.482774     3.781874
O      2.444729    -0.329084    -1.526649
H      2.018684    -1.068255    -1.977390
H      2.231454     0.415667    -2.102666
6
BHMC Sample 584
O      0.695903     4.484905     2.781454
H      0.069411     3.752740     2.815675
H      1.264792     4.226103     2.047312
O      2.444729    -0.329084    -1.526649
H      2.018684    -1.068255    -1.977390
H      2.231454     0.415667    -2.102666
6
BHMC Sample 585
O      0.642540     2.882709     2.727002
H      0.016048     2.150544     2.761223
H      1.211430     2.623907     1.992860
O      2.444729    -0.329084    -1.526649
H      2.018684    -1.068255    -1.977390
H      2.231454     0.415667    -2.102666
6
BHMC Sample 586
O     -0.648961     1.433898     1.766743
H     -1.275453     0.701733     1.800964
H     -0.080071     1.175095     1.032601
O      2.444729    -0.329084    -1.526649
H      2.018684    -1.068255    -1.977390
H      2.231454     0.415667    -2.102666
6
BHMC Sample 587
O      1.031804     2.713769     1.956015
H      0.293584     2.206852     2.313499
H      1.270041     2.196857     1.177796
O      2.444729    -0.329084    -1.526649
H      2.018684    -1.068255    -1.977390
H      2.231454     0.415667    -2.102666
6
BHMC Sample 588
O      1.031804     2.713769     1.956015
H      0.293584     2.206852     2.313499
H      1.270041     2.196857     1.177796
O     -2.472400     4.791605    -0.579977
H     -3.088015     4.474777    -1.252059
H     -2.977341     4.675962     0.234637
6
BHMC Sample 589
O      1.052304     0.849600     2.136968
H      0.314083     0.342684     2.494453
H      1.290540     0.332689     1.358749
O     -2.472400     4.791605    -0.579977
H     -3.088015     4.474777    -1.252059
H     -2.977341     4.675962     0.234637
6
BHMC Sample 590
O     -2.507123     4.824693    -0.548460
H     -3.245344     4.317777    -0.190976
H     -2.268887     4.307782    -1.326679
O      1.087027     0.816512     2.105452
H      0.471412     0.499683     1.433370
H      0.582086     0.700869     2.920066
6
BHMC Sample 591
O     -2.909989     4.437903    -0.541324
H     -3.556452     3.736607    -0.399908
H     -2.448744     4.127703    -1.329111
O      1.087027     0.816512     2.105452
H      0.471412     0.499683     1.433370
H      0.582086     0.700869     2.920066
6
BHMC Sample 592
O     -2.909989     4.437903    -0.541324
H     -3.556452     3.736607    -0.399908
H     -2.448744     4.127703    -1.329111
O     -0.368507     0.862271     1.322909
H     -0.984122     0.545442     0.650827
H     -0.873448     0.746628     2.137523
6
BHMC Sample 593
O     -4.578071     0.163445    -0.895481
H     -3.928502    -0.308698    -1.429213
H     -4.407205     1.080550    -1.139002
O     -0.368507     0.862271     1.322909
H     -0.984122     0.545442     0.650827
H     -0.873448     0.746628     2.137523
6
BHMC Sample 594
O     -4.791337     0.141509    -0.433306
H     -4.212466    -0.408094    -0.974207
H     -4.611375     1.022610    -0.780947
O     -0.368507     0.862271     1.322909
H     -0.984122     0.545442     0.650827
H     -0.873448     0.746628     2.137523
6
BHMC Sample 595
O     -4.791337     0.141509    -0.433306
H     -4.212466    -0.408094    -0.974207
H     -4.611375     1.022610    -0.780947
O     -0.184519    -0.429609     0.844028
H     -0.972267    -0.660156     0.336724
H     -0.559523    -0.089072     1.665819
6
BHMC Sample 596
O     -0.252944    -0.110499     0.296181
H      0.325927    -0.660102    -0.244720
H     -0.072982     0.770601    -0.051460
O      3.497942     2.389362     1.987993
H      2.669778     2.303824     1.500260
H      3.405735     1.715259     2.672842
6
BHMC Sample 597
O      3.403985     2.328309     2.048739
H      3.982856     1.778706     1.507838
H      3.583947     3.209409     1.701098
O     -0.158987    -0.049446     0.235434
H     -0.987152    -0.134984    -0.252298
H     -0.251195    -0.723549     0.920284
6
BHMC Sample 598
O      3.403985     2.328309     2.048739
H      3.982856     1.778706     1.507838
H      3.583947     3.209409     1.701098
O     -0.342824     1.735515    -1.793435
H     -1.170989     1.649978    -2.281167
H     -0.435032     1.061413    -1.108586
6
BHMC Sample 599
O     -0.436781     1.674463    -1.732689
H      0.142090     1.124860    -2.273590
H     -0.256819     2.555563    -2.080330
O      3.497942     2.389362     1.987993
H      2.669778     2.303824     1.500260
H      3.405735     1.715259     2.672842
6
BHMC Sample 600
O     -0.436781     1.674463    -1.732689
H      0.142090     1.124860    -2.273590
H     -0.256819     2.555563    -2.080330
O     -3.101558     4.009096     2.359714
H     -2.727679     3.409053     1.703042
H     -2.820782     3.607238     3.191344
6
BHMC Sample 601
O     -0.436781     1.674463    -1.732689
H      0.142090     1.124860    -2.273590
H     -0.256819     2.555563    -2.080330
O     -1.215927     2.628624     3.366791
H     -0.842048     2.028580     2.710119
H     -0.935151     2.226765     4.198422
6
BHMC Sample 602
O      1.507020    -2.904773    -4.073494
H      1.852241    -3.801414    -4.154661
H      0.748202    -2.928954    -4.667792
O     -0.218218     0.333967    -0.058319
H      0.155661    -0.266076    -0.714991
H      0.062557    -0.067891     0.773311
6
BHMC Sample 603
O      3.872923    -3.263445    -0.496812
H      3.965832    -4.222869    -0.472266
H      4.259535    -3.047755    -1.353309
O     -0.218218     0.333967    -0.058319
H      0.155661    -0.266076    -0.714991
H      0.062557    -0.067891     0.773311
6
BHMC Sample 604
O      3.872923    -3.263445    -0.496812
H      3.965832    -4.222869    -0.472266
H      4.259535    -3.047755    -1.353309
O     -0.172553     0.318857    -0.101651
H     -0.997123    -0.024051     0.263801
H      0.490539    -0.070077     0.482279
6
BHMC Sample 605
O      3.872923    -3.263445    -0.496812
H      3.965832    -4.222869    -0.472266
H      4.259535    -3.047755    -1.353309
O     -0.149006     0.221234    -0.031013
H      0.024807     0.813764    -0.772467
H     -0.905132     0.641571     0.397384
6
BHMC Sample 606
O      3.872923    -3.263445    -0.496812
H      3.965832    -4.222869    -0.472266
H      4.259535    -3.047755    -1.353309
O     -0.083366    -1.510652    -3.706361
H      0.413792    -1.190880    -4.469012
H     -0.989663    -1.267209    -3.932845
6
BHMC Sample 607
O     -0.133089    -1.437524    -3.715156
H     -0.040180    -2.396948    -3.690611
H      0.253523    -1.221834    -4.571654
O      3.922646    -3.336573    -0.488017
H      4.419804    -3.016801    -1.250667
H      3.016349    -3.093130    -0.714500
6
BHMC Sample 608
O     -1.400355    -3.227950    -3.329919
H     -1.307446    -4.187374    -3.305374
H     -1.013742    -3.012260    -4.186417
O      3.922646    -3.336573    -0.488017
H      4.419804    -3.016801    -1.250667
H      3.016349    -3.093130    -0.714500
6
BHMC Sample 609
O      3.872923    -3.263445    -0.496812
H      3.965832    -4.222869    -0.472266
H      4.259535    -3.047755    -1.353309
O     -1.350631    -3.301078    -3.321124
H     -0.853473    -2.981306    -4.083775
H     -2.256929    -3.057635    -3.547608
6
BHMC Sample 610
O     -1.400355    -3.227950    -3.329919
H     -1.307446    -4.187374    -3.305374
H     -1.013742    -3.012260    -4.186417
O      3.922646    -3.336573    -0.488017
H      4.419804    -3.016801    -1.250667
H      3.016349    -3.093130    -0.714500
6
BHMC Sample 611
O     -1.361896    -3.332266    -3.352977
H     -1.952653    -3.048527    -4.060244
H     -0.978956    -2.495403    -3.065579
O      3.922646    -3.336573    -0.488017
H      4.419804    -3.016801    -1.250667
H      3.016349    -3.093130    -0.714500
6
BHMC Sample 612
O     -0.822521    -4.174936    -3.297806
H     -1.413278    -3.891197    -4.005073
H     -0.439581    -3.338073    -3.010408
O      3.922646    -3.336573    -0.488017
H      4.419804    -3.016801    -1.250667
H      3.016349    -3.093130    -0.714500
6
BHMC Sample 613
O      3.911382    -3.367761    -0.519869
H      3.320624    -3.084023    -1.227137
H      4.294321    -2.530898    -0.232472
O     -0.811256    -4.143748    -3.265953
H     -0.314098    -3.823976    -4.028604
H     -1.717554    -3.900305    -3.492437
6
BHMC Sample 614
O      2.643895    -2.380183    -1.661878
H      2.053137    -2.096445    -2.369146
H      3.026834    -1.543320    -1.374481
O     -0.811256    -4.143748    -3.265953
H     -0.314098    -3.823976    -4.028604
H     -1.717554    -3.900305    -3.492437
6
BHMC Sample 615
O      2.146932    -3.740825     0.720251
H      1.980880    -3.168854    -0.038040
H      2.328781    -4.587008     0.295417
O      0.136380    -0.187738     0.329711
H      0.633538     0.132034    -0.432939
H     -0.769918     0.055704     0.103228
6
BHMC Sample 616
O     -0.005266     0.091404     0.394375
H     -0.171317     0.663375    -0.363916
H      0.176583    -0.754779    -0.030459
O      1.909294    -2.759827     2.466536
H      1.296033    -2.593242     3.192633
H      2.765469    -2.752123     2.912450
6
BHMC Sample 617
O     -0.109939    -0.059410     0.298362
H     -0.342959     0.425960    -0.501542
H     -0.033851    -0.962171    -0.031504
O      1.909294    -2.759827     2.466536
H      1.296033    -2.593242     3.192633
H      2.765469    -2.752123     2.912450
6
BHMC Sample 618
O      0.052311     0.139130     0.376590
H     -0.180710     0.624500    -0.423314
H      0.128399    -0.763631     0.046724
O      1.618051    -3.767125    -0.719715
H      0.835927    -4.049546    -1.209182
H      2.337755    -4.122298    -1.256197
6
BHMC Sample 619
O      0.052311     0.139130     0.376590
H     -0.180710     0.624500    -0.423314
H      0.128399    -0.763631     0.046724
O     -1.098889    -3.964863     1.129820
H     -2.044638    -3.814686     1.011234
H     -0.974362    -4.832249     0.724766
6
BHMC Sample 620
O      0.052311     0.139130     0.376590
H     -0.180710     0.624500    -0.423314
H      0.128399    -0.763631     0.046724
O     -0.981725    -3.653323     1.973229
H     -1.880718    -3.378824     2.191213
H     -0.686962    -4.068052     2.793625
6
BHMC Sample 621
O      0.052311     0.139130     0.376590
H     -0.180710     0.624500    -0.423314
H      0.128399    -0.763631     0.046724
O     -1.098889    -3.964863     1.129820
H     -2.044638    -3.814686     1.011234
H     -0.974362    -4.832249     0.724766
6
BHMC Sample 622
O      0.052311     0.139130     0.376590
H     -0.180710     0.624500    -0.423314
H      0.128399    -0.763631     0.046724
O     -0.747430     4.098101    -0.922550
H      0.186705     4.338652    -0.946679
H     -1.137739     4.831663    -0.431143
6
BHMC Sample 623
O      0.052311     0.139130     0.376590
H     -0.180710     0.624500    -0.423314
H      0.128399    -0.763631     0.046724
O      0.611294    -4.220529     0.132813
H     -0.330545    -4.430060     0.142388
H      0.960346    -4.863773    -0.496738
6
BHMC Sample 624
O      0.052311     0.139130     0.376590
H     -0.180710     0.624500    -0.423314
H      0.128399    -0.763631     0.046724
O      1.123804    -4.096180     0.814312
H      0.232161    -4.431485     0.660689
H      1.671438    -4.746401     0.356881
6
BHMC Sample 625
O      0.052311     0.139130     0.376590
H     -0.180710     0.624500    -0.423314
H      0.128399    -0.763631     0.046724
O      3.027478    -2.487703    -1.551150
H      3.781278    -2.091812    -1.097154
H      3.251471    -3.426702    -1.544770
6
BHMC Sample 626
O      0.052311     0.139130     0.376590
H     -0.180710     0.624500    -0.423314
H      0.128399    -0.763631     0.046724
O     -2.511555    -3.352424    -0.462271
H     -3.124350    -3.169878     0.260374
H     -2.430829    -4.313790    -0.427727
6
BHMC Sample 627
O      0.052311     0.139130     0.376590
H     -0.180710     0.624500    -0.423314
H      0.128399    -0.763631     0.046724
O      3.027478    -2.487703    -1.551150
H      3.781278    -2.091812    -1.097154
H      3.251471    -3.426702    -1.544770
6
BHMC Sample 628
O      0.052311     0.139130     0.376590
H     -0.180710     0.624500    -0.423314
H      0.128399    -0.763631     0.046724
O      3.021076    -2.491814    -1.512939
H      3.372536    -2.838190    -2.342128
H      3.761825    -2.615067    -0.906280
6
BHMC Sample 629
O     -0.173116     1.786199    -0.212946
H     -0.406137     2.271568    -1.012850
H     -0.097029     0.883438    -0.542813
O      3.021076    -2.491814    -1.512939
H      3.372536    -2.838190    -2.342128
H      3.761825    -2.615067    -0.906280
6
BHMC Sample 630
O      0.052311     0.139130     0.376590
H     -0.180710     0.624500    -0.423314
H      0.128399    -0.763631     0.046724
O     -2.730363    -3.718479    -2.690879
H     -3.349028    -3.630461    -3.426109
H     -3.119444    -4.437531    -2.177542
6
BHMC Sample 631
O     -2.777969    -3.730433    -2.640080
H     -3.010989    -3.245064    -3.439985
H     -2.701881    -4.633194    -2.969947
O      0.099917     0.151084     0.325791
H     -0.518748     0.239102    -0.409439
H     -0.289165    -0.567967     0.839128
6
BHMC Sample 632
O     -2.777969    -3.730433    -2.640080
H     -3.010989    -3.245064    -3.439985
H     -2.701881    -4.633194    -2.969947
O      2.576670     0.636979     0.773153
H      1.958005     0.724997     0.037923
H      2.187588    -0.082072     1.286490
6
BHMC Sample 633
O     -2.777969    -3.730433    -2.640080
H     -3.010989    -3.245064    -3.439985
H     -2.701881    -4.633194    -2.969947
O      3.023157     0.630368    -0.620831
H      2.404492     0.718386    -1.356061
H      2.634075    -0.088683    -0.107494
6
BHMC Sample 634
O      2.975551     0.618414    -0.570032
H      2.742530     1.103784    -1.369936
H      3.051638    -0.284347    -0.899899
O     -2.730363    -3.718479    -2.690879
H     -3.349028    -3.630461    -3.426109
H     -3.119444    -4.437531    -2.177542
6
BHMC Sample 635
O      2.975551     0.618414    -0.570032
H      2.742530     1.103784    -1.369936
H      3.051638    -0.284347    -0.899899
O     -3.503669    -1.395691    -3.609015
H     -4.122334    -1.307673    -4.344245
H     -3.892750    -2.114742    -3.095678
6
BHMC Sample 636
O      3.276194     0.319125    -1.086075
H      3.009617     0.806064    -1.874463
H      3.282644    -0.590254    -1.406335
O     -3.503669    -1.395691    -3.609015
H     -4.122334    -1.307673    -4.344245
H     -3.892750    -2.114742    -3.095678
6
BHMC Sample 637
O      3.276194     0.319125    -1.086075
H      3.009617     0.806064    -1.874463
H      3.282644    -0.590254    -1.406335
O     -3.593552    -1.448539    -3.565300
H     -2.974068    -1.972101    -4.087964
H     -3.614384    -0.611510    -4.045803
6
BHMC Sample 638
O      3.276194     0.319125    -1.086075
H      3.009617     0.806064    -1.874463
H      3.282644    -0.590254    -1.406335
O     -3.529736    -1.490452    -3.610190
H     -3.947531    -0.895536    -2.975699
H     -3.653812    -1.022819    -4.445569
6
BHMC Sample 639
O      1.726442     2.242594     0.223428
H      1.908430     2.159730    -0.719834
H      1.715284     1.320805     0.505846
O     -3.529736    -1.490452    -3.610190
H     -3.947531    -0.895536    -2.975699
H     -3.653812    -1.022819    -4.445569
6
BHMC Sample 640
O      1.726442     2.242594     0.223428
H      1.908430     2.159730    -0.719834
H      1.715284     1.320805     0.505846
O     -3.888068    -2.707636    -0.096425
H     -4.190061    -1.895489     0.328162
H     -4.278158    -2.638706    -0.976773
6
BHMC Sample 641
O      1.726442     2.242594     0.223428
H      1.908430     2.159730    -0.719834
H      1.715284     1.320805     0.505846
O     -3.959406    -2.706494    -0.156533
H     -4.272546    -1.831460     0.102919
H     -3.063408    -2.720872     0.202515
6
BHMC Sample 642
O      2.694430     0.697614     0.687105
H      2.876419     0.614750    -0.256156
H      2.683273    -0.224175     0.969523
O     -3.959406    -2.706494    -0.156533
H     -4.272546    -1.831460     0.102919
H     -3.063408    -2.720872     0.202515
6
BHMC Sample 643
O      2.694430     0.697614     0.687105
H      2.876419     0.614750    -0.256156
H      2.683273    -0.224175     0.969523
O     -1.865376    -1.666791    -0.200450
H     -2.178516    -0.791757     0.059002
H     -0.969378    -1.681170     0.158598
6
BHMC Sample 644
O      2.694430     0.697614     0.687105
H      2.876419     0.614750    -0.256156
H      2.683273    -0.224175     0.969523
O      3.071172     4.716362    -2.542078
H      3.018416     4.009543    -3.196815
H      3.346662     4.242594    -1.747356
6
BHMC Sample 645
O      3.074076     4.706518    -2.497269
H      3.256065     4.623654    -3.440531
H      3.062919     3.784729    -2.214852
O      2.691526     0.707458     0.642296
H      2.638769     0.000639    -0.012440
H      2.967016     0.233690     1.437018
6
BHMC Sample 646
O      3.074076     4.706518    -2.497269
H      3.256065     4.623654    -3.440531
H      3.062919     3.784729    -2.214852
O      1.878041    -0.369990    -0.377448
H      1.825284    -1.076809    -1.032184
H      2.153531    -0.843759     0.417274
6
BHMC Sample 647
O     -0.056944     0.334884     0.220281
H      0.125045     0.252020    -0.722980
H     -0.068101    -0.586905     0.502699
O      3.254863     2.568191    -3.512735
H      4.162235     2.599274    -3.185986
H      3.199959     3.369317    -4.048568
6
BHMC Sample 648
O     -0.056944     0.334884     0.220281
H      0.125045     0.252020    -0.722980
H     -0.068101    -0.586905     0.502699
O      3.348838     2.237027    -3.616427
H      4.265647     2.162172    -3.325028
H      3.363829     3.046677    -4.141951
6
BHMC Sample 649
O      3.119709    -1.254969     0.612230
H      3.545583    -0.426181     0.364297
H      2.723813    -1.029090     1.461832
O      3.348838     2.237027    -3.616427
H      4.265647     2.162172    -3.325028
H      3.363829     3.046677    -4.141951
6
BHMC Sample 650
O      3.119709    -1.254969     0.612230
H      3.545583    -0.426181     0.364297
H      2.723813    -1.029090     1.461832
O      3.841771     1.509258    -4.062327
H      4.661012     1.012347    -3.948399
H      4.097355     2.186731    -4.700795
6
BHMC Sample 651
O      3.119709    -1.254969     0.612230
H      3.545583    -0.426181     0.364297
H      2.723813    -1.029090     1.461832
O     -1.680687     1.432979     0.463432
H     -1.748085     0.770524    -0.234900
H     -2.374559     2.059430     0.222528
6
BHMC Sample 652
O     -2.802633     4.432402    -2.327560
H     -3.356013     3.796266    -2.795353
H     -1.937809     4.272502    -2.722643
O      0.253757     0.012001     0.313079
H      0.186359    -0.650454    -0.385253
H     -0.440115     0.638453     0.072175
6
BHMC Sample 653
O      4.499847    -1.661146    -3.148085
H      4.228516    -1.021279    -3.816426
H      4.736358    -1.088987    -2.408980
O      0.253757     0.012001     0.313079
H      0.186359    -0.650454    -0.385253
H     -0.440115     0.638453     0.072175
6
BHMC Sample 654
O      4.499847    -1.661146    -3.148085
H      4.228516    -1.021279    -3.816426
H      4.736358    -1.088987    -2.408980
O      1.554780    -0.768270    -0.282855
H      1.487381    -1.430725    -0.981187
H      0.860908    -0.141819    -0.523759
6
BHMC Sample 655
O      3.112704    -1.271814    -2.709895
H      2.841372    -0.631947    -3.378236
H      3.349215    -0.699655    -1.970790
O      1.554780    -0.768270    -0.282855
H      1.487381    -1.430725    -0.981187
H      0.860908    -0.141819    -0.523759
6
BHMC Sample 656
O      0.011607    -0.404008    -0.023588
H     -0.259725     0.235858    -0.691929
H      0.248117     0.168150     0.715517
O     -2.719259     0.255428    -0.847333
H     -2.346419    -0.465538    -0.325553
H     -3.080948     0.837730    -0.167598
6
BHMC Sample 657
O      0.011607    -0.404008    -0.023588
H     -0.259725     0.235858    -0.691929
H      0.248117     0.168150     0.715517
O     -1.546318     0.099535     2.403452
H     -1.613716    -0.562920     1.705120
H     -2.240189     0.725987     2.162548
6
BHMC Sample 658
O      0.011607    -0.404008    -0.023588
H     -0.259725     0.235858    -0.691929
H      0.248117     0.168150     0.715517
O     -1.148882     2.021461     1.237948
H     -1.544179     1.199415     0.923245
H     -1.345460     2.634631     0.518703
6
BHMC Sample 659
O      0.011607    -0.404008    -0.023588
H     -0.259725     0.235858    -0.691929
H      0.248117     0.168150     0.715517
O      1.490027     2.152503     0.292066
H      1.666495     1.358849    -0.227577
H      1.131329     2.757622    -0.369069
6
BHMC Sample 660
O      0.011607    -0.404008    -0.023588
H     -0.259725     0.235858    -0.691929
H      0.248117     0.168150     0.715517
O     -0.571147     0.012546     2.571456
H     -1.168468     0.086864     1.817307
H     -0.436010     0.935379     2.820560
6
BHMC Sample 661
O      0.011607    -0.404008    -0.023588
H     -0.259725     0.235858    -0.691929
H      0.248117     0.168150     0.715517
O     -1.171067     0.587276     2.199778
H     -0.725135    -0.259545     2.076915
H     -2.101887     0.331596     2.211429
6
BHMC Sample 662
O      0.038153    -0.370174     0.031868
H      0.151281     0.552795    -0.223199
H     -0.584220    -0.685813    -0.633416
O     -1.171067     0.587276     2.199778
H     -0.725135    -0.259545     2.076915
H     -2.101887     0.331596     2.211429
6
BHMC Sample 663
O     -2.303421    -1.165657     0.321305
H     -2.297404    -1.553108    -0.561630
H     -2.160188    -1.938911     0.879106
O      0.161629     0.367500     0.037071
H      0.607562    -0.479320    -0.085792
H     -0.769191     0.111820     0.048722
6
BHMC Sample 664
O     -2.335547    -1.080698    -0.380862
H     -2.254311    -1.667071     0.380254
H     -2.251524    -1.697364    -1.117232
O      0.161629     0.367500     0.037071
H      0.607562    -0.479320    -0.085792
H     -0.769191     0.111820     0.048722
6
BHMC Sample 665
O     -2.335547    -1.080698    -0.380862
H     -2.254311    -1.667071     0.380254
H     -2.251524    -1.697364    -1.117232
O     -0.077098     0.688472     0.098537
H      0.472292    -0.008247    -0.280685
H     -0.941220     0.262128     0.157345
6
BHMC Sample 666
O     -1.989003    -1.634643     0.306391
H     -2.312332    -1.631323    -0.602002
H     -1.700963    -2.548684     0.411935
O      0.104911     0.374354     0.106805
H      0.654301    -0.322365    -0.272417
H     -0.759211    -0.051990     0.165613
6
BHMC Sample 667
O     -1.827384    -1.746722    -0.575927
H     -1.684688    -2.346249     0.165649
H     -1.584386    -2.298870    -1.328033
O      0.104911     0.374354     0.106805
H      0.654301    -0.322365    -0.272417
H     -0.759211    -0.051990     0.165613
6
BHMC Sample 668
O     -1.827384    -1.746722    -0.575927
H     -1.684688    -2.346249     0.165649
H     -1.584386    -2.298870    -1.328033
O     -4.299524    -0.390554     0.234328
H     -3.790168     0.267226    -0.254486
H     -3.679917    -1.128227     0.296464
6
BHMC Sample 669
O      1.930455     0.785963    -1.503993
H      1.951592     1.741546    -1.376935
H      2.136606     0.705206    -2.442374
O     -0.376321     0.026631     0.142226
H      0.133035     0.684411    -0.346588
H      0.243286    -0.711042     0.204362
6
BHMC Sample 670
O     -0.325869    -0.026789     0.163748
H     -0.304732     0.928794     0.290805
H     -0.119719    -0.107546    -0.774633
O      1.880004     0.839383    -1.525515
H      2.389359     1.497163    -2.014328
H      2.499611     0.101711    -1.463379
6
BHMC Sample 671
O      0.673941     0.171553     0.884304
H      0.695078     1.127136     1.011361
H      0.880092     0.090795    -0.054077
O      1.880004     0.839383    -1.525515
H      2.389359     1.497163    -2.014328
H      2.499611     0.101711    -1.463379
6
BHMC Sample 672
O     -0.344665     0.680439     0.098577
H     -0.273163     1.641711     0.074650
H      0.247511     0.418830    -0.615894
O      1.880004     0.839383    -1.525515
H      2.389359     1.497163    -2.014328
H      2.499611     0.101711    -1.463379
6
BHMC Sample 673
O     -2.315302    -1.836574     1.081158
H     -2.878905    -1.201532     0.624209
H     -1.475476    -1.364711     1.121350
O     -0.376321     0.026631     0.142226
H      0.133035     0.684411    -0.346588
H      0.243286    -0.711042     0.204362
6
BHMC Sample 674
O      0.208907    -2.028904     2.095997
H     -0.245850    -2.551500     1.425312
H      0.026873    -1.128256     1.803979
O     -0.376321     0.026631     0.142226
H      0.133035     0.684411    -0.346588
H      0.243286    -0.711042     0.204362
6
BHMC Sample 675
O      0.208907    -2.028904     2.095997
H     -0.245850    -2.551500     1.425312
H      0.026873    -1.128256     1.803979
O     -0.798840    -0.965632    -0.190511
H     -0.289485    -0.307852    -0.679325
H     -0.179233    -1.703305    -0.128375
6
BHMC Sample 676
O      0.208907    -2.028904     2.095997
H     -0.245850    -2.551500     1.425312
H      0.026873    -1.128256     1.803979
O      1.321407    -1.459336    -0.624147
H      1.830762    -0.801556    -1.112960
H      1.941014    -2.197009    -0.562011
6
BHMC Sample 677
O      1.420207    -1.484960    -0.594154
H      0.965450    -2.007555    -1.264840
H      1.238173    -0.584311    -0.886173
O      0.110107    -2.003281     2.066005
H      0.619463    -1.345501     1.577191
H      0.729714    -2.740953     2.128141
6
BHMC Sample 678
O      0.212264    -0.126018     0.320901
H     -0.242493    -0.648613    -0.349784
H      0.030230     0.774631     0.028883
O      3.160843    -0.704617     0.140439
H      2.526908    -0.030655     0.414222
H      2.965841    -1.430759     0.745935
6
BHMC Sample 679
O      3.150092    -0.728690     0.243504
H      2.695335    -1.251286    -0.427181
H      2.968058     0.171959    -0.048514
O      0.223015    -0.101945     0.217836
H     -0.410920     0.572018     0.491619
H      0.028013    -0.828087     0.823332
6
BHMC Sample 680
O      0.212264    -0.126018     0.320901
H     -0.242493    -0.648613    -0.349784
H      0.030230     0.774631     0.028883
O      3.160843    -0.704617     0.140439
H      2.526908    -0.030655     0.414222
H      2.965841    -1.430759     0.745935
6
BHMC Sample 681
O      1.553300    -3.165498    -0.357488
H      1.710270    -3.800398     0.351025
H      1.906255    -3.631420    -1.124247
O      3.160843    -0.704617     0.140439
H      2.526908    -0.030655     0.414222
H      2.965841    -1.430759     0.745935
6
BHMC Sample 682
O     -0.169975     0.366941     0.019415
H     -0.013005    -0.267960     0.727928
H      0.182980    -0.098981    -0.747343
O      1.289389    -1.456801    -2.558521
H      1.864470    -2.186292    -2.297407
H      1.619250    -0.728800    -2.017095
6
BHMC Sample 683
O     -0.169975     0.366941     0.019415
H     -0.013005    -0.267960     0.727928
H      0.182980    -0.098981    -0.747343
O     -0.376663     2.139953    -2.368448
H     -0.548951     3.023918    -2.022070
H      0.412708     1.875939    -1.879446
6
BHMC Sample 684
O     -0.169975     0.366941     0.019415
H     -0.013005    -0.267960     0.727928
H      0.182980    -0.098981    -0.747343
O     -0.989691     2.195831    -2.177925
H     -1.521052     2.884506    -1.760267
H     -0.184459     2.203817    -1.645503
6
BHMC Sample 685
O     -2.332564    -0.500236     1.620037
H     -3.029465    -0.699726     2.255853
H     -2.808570    -0.543450     0.782702
O     -0.091290    -0.232220    -0.316693
H     -0.622652     0.456454     0.100965
H      0.713941    -0.224234     0.215729
6
BHMC Sample 686
O     -2.332564    -0.500236     1.620037
H     -3.029465    -0.699726     2.255853
H     -2.808570    -0.543450     0.782702
O     -0.060034    -0.245406    -0.303597
H     -0.317641    -0.254083     0.626252
H     -0.087164     0.695592    -0.517421
6
BHMC Sample 687
O      0.390969     0.080902     0.067173
H     -0.305932    -0.118589     0.702989
H     -0.085037     0.037687    -0.770162
O      2.503184     1.066105    -1.803020
H      2.293873     0.837398    -0.889270
H      2.864118     0.239131    -2.146205
6
BHMC Sample 688
O      2.577296     1.020616    -1.759819
H      1.880395     0.821126    -1.124004
H      2.101291     0.977402    -2.597154
O      0.316857     0.126390     0.023972
H      0.107546    -0.102316     0.937722
H      0.677791    -0.700583    -0.319213
6
BHMC Sample 689
O      2.577296     1.020616    -1.759819
H      1.880395     0.821126    -1.124004
H      2.101291     0.977402    -2.597154
O      0.337174     0.095130    -0.004658
H     -0.249856     0.401915     0.697008
H      0.712714    -0.708649     0.375925
6
BHMC Sample 690
O      0.390969     0.080902     0.067173
H     -0.305932    -0.118589     0.702989
H     -0.085037     0.037687    -0.770162
O     -1.214706    -0.395440    -2.412822
H     -1.582303     0.066689    -3.175951
H     -0.720456    -1.115180    -2.824677
6
BHMC Sample 691
O      0.250071     0.439510     0.057343
H     -0.474080     0.303881     0.679387
H     -0.181985     0.278648    -0.789434
O     -1.214706    -0.395440    -2.412822
H     -1.582303     0.066689    -3.175951
H     -0.720456    -1.115180    -2.824677
6
BHMC Sample 692
O      0.385402     0.098830     0.074911
H     -0.338749    -0.036798     0.696955
H     -0.046653    -0.062032    -0.771866
O     -0.964240    -0.086512    -2.550867
H     -0.978844    -0.738541    -3.261994
H     -0.796730     0.736173    -3.027380
6
BHMC Sample 693
O      0.385402     0.098830     0.074911
H     -0.338749    -0.036798     0.696955
H     -0.046653    -0.062032    -0.771866
O     -0.819511    -0.680453    -2.511882
H     -1.109840    -0.200957    -3.297279
H     -0.279441    -1.386685    -2.888040
6
BHMC Sample 694
O     -1.659428    -0.693114     2.756693
H     -1.416559    -0.022747     3.405809
H     -1.229379    -0.363272     1.959297
O     -0.083247     0.075579     0.387185
H     -0.373576     0.555074    -0.398212
H      0.456823    -0.630653     0.011027
6
BHMC Sample 695
O     -2.321770    -0.675675     2.168190
H     -2.411975     0.096049     2.739184
H     -1.678061    -0.369080     1.519178
O     -0.083247     0.075579     0.387185
H     -0.373576     0.555074    -0.398212
H      0.456823    -0.630653     0.011027
6
BHMC Sample 696
O     -0.184501    -0.359440     0.026006
H     -0.274707     0.412285     0.597000
H      0.459208    -0.052845    -0.623006
O      1.487188     0.650953    -2.194785
H      2.432553     0.565528    -2.021453
H      1.396556     0.233057    -3.060281
6
BHMC Sample 697
O      1.504043     0.562455    -2.229148
H      1.413838     1.334179    -1.658154
H      2.147752     0.869049    -2.878160
O     -0.201356    -0.270941     0.060370
H      0.744009    -0.356367     0.233701
H     -0.291988    -0.688837    -0.805127
6
BHMC Sample 698
O      1.002662    -2.500241    -0.047256
H      0.627061    -2.455223     0.839664
H      1.504545    -3.322595    -0.009499
O     -0.284911     0.167773     0.230722
H      0.660454     0.082348     0.404053
H     -0.375543    -0.250122    -0.634775
6
BHMC Sample 699
O      1.653862    -1.011619     2.105632
H      0.814294    -1.464388     2.246543
H      2.180692    -1.333957     2.845988
O     -0.284911     0.167773     0.230722
H      0.660454     0.082348     0.404053
H     -0.375543    -0.250122    -0.634775
6
BHMC Sample 700
O      1.653862    -1.011619     2.105632
H      0.814294    -1.464388     2.246543
H      2.180692    -1.333957     2.845988
O     -0.300861     0.162131     0.189578
H      0.287962     0.094892     0.951039
H      0.250113    -0.173110    -0.528735
6
BHMC Sample 701
O     -0.219587     0.182981     0.142683
H     -1.059155    -0.269788     0.283593
H      0.307243    -0.139357     0.883039
O      1.572588    -1.032469     2.152528
H      2.161412    -1.099708     2.913988
H      2.123562    -1.367711     1.434214
6
BHMC Sample 702
O     -3.015675     3.884401    -1.948433
H     -3.733348     3.282374    -1.719876
H     -3.331940     4.718927    -1.583575
O      2.763648    -0.834607    -2.211580
H      2.915002    -0.525216    -3.112927
H      2.842501    -0.021431    -1.697323
6
BHMC Sample 703
O     -0.691369     3.716474    -1.701281
H     -1.409042     3.114448    -1.472725
H     -1.007634     4.551000    -1.336424
O      2.763648    -0.834607    -2.211580
H      2.915002    -0.525216    -3.112927
H      2.842501    -0.021431    -1.697323
6
BHMC Sample 704
O     -0.691369     3.716474    -1.701281
H     -1.409042     3.114448    -1.472725
H     -1.007634     4.551000    -1.336424
O      3.014078    -1.637522    -0.649981
H      3.165432    -1.328130    -1.551327
H      3.092931    -0.824345    -0.135724
6
BHMC Sample 705
O     -0.691369     3.716474    -1.701281
H     -1.409042     3.114448    -1.472725
H     -1.007634     4.551000    -1.336424
O      3.064279    -1.238766    -3.853805
H      3.328571    -0.430792    -4.310295
H      3.033119    -0.955070    -2.931590
6
BHMC Sample 706
O      3.135176    -1.190692    -3.860949
H      2.417503    -1.792719    -3.632393
H      2.818911    -0.356166    -3.496092
O     -0.762266     3.668401    -1.694136
H     -0.497973     4.476375    -2.150627
H     -0.793426     3.952097    -0.771922
6
BHMC Sample 707
O      4.174135     1.242951    -4.649083
H      3.456461     0.640925    -4.420527
H      3.857870     2.077478    -4.284226
O     -0.762266     3.668401    -1.694136
H     -0.497973     4.476375    -2.150627
H     -0.793426     3.952097    -0.771922
6
BHMC Sample 708
O      4.174135     1.242951    -4.649083
H      3.456461     0.640925    -4.420527
H      3.857870     2.077478    -4.284226
O     -0.036819     2.833285    -0.702471
H      0.227473     3.641259    -1.158962
H     -0.067979     3.116981     0.219744
6
BHMC Sample 709
O      4.151853     1.310626    -4.634984
H      4.471758     0.460078    -4.312558
H      3.196222     1.184188    -4.615977
O     -0.036819     2.833285    -0.702471
H      0.227473     3.641259    -1.158962
H     -0.067979     3.116981     0.219744
6
BHMC Sample 710
O      4.169662     2.384702    -4.891827
H      4.818737     1.784291    -4.507201
H      3.344312     1.910476    -4.738581
O     -0.036819     2.833285    -0.702471
H      0.227473     3.641259    -1.158962
H     -0.067979     3.116981     0.219744
6
BHMC Sample 711
O      0.058759     0.358212    -0.179291
H      0.707833    -0.242199     0.205335
H     -0.766592    -0.116013    -0.026045
O      4.291294     1.928544    -3.435210
H      4.103105     0.987579    -3.536330
H      4.370891     2.223579    -4.350935
6
BHMC Sample 712
O      1.078614     0.123216    -0.468291
H      1.727689    -0.477195    -0.083665
H      0.253264    -0.351010    -0.315045
O      4.291294     1.928544    -3.435210
H      4.103105     0.987579    -3.536330
H      4.370891     2.223579    -4.350935
6
BHMC Sample 713
O      1.078614     0.123216    -0.468291
H      1.727689    -0.477195    -0.083665
H      0.253264    -0.351010    -0.315045
O      4.244889     3.582072     0.174745
H      3.521520     3.756912    -0.439441
H      4.338158     4.427571     0.631217
6
BHMC Sample 714
O      1.078614     0.123216    -0.468291
H      1.727689    -0.477195    -0.083665
H      0.253264    -0.351010    -0.315045
O      4.251273     3.576334     0.174541
H      3.527333     3.753045    -0.438435
H      4.346504     4.421140     0.631890
6
BHMC Sample 715
O      2.315461    -0.543539    -1.778053
H      2.964536    -1.143950    -1.393426
H      1.490110    -1.017765    -1.624806
O      4.251273     3.576334     0.174541
H      3.527333     3.753045    -0.438435
H      4.346504     4.421140     0.631890
6
BHMC Sample 716
O      4.225958     3.693621     0.135738
H      4.875033     3.093210     0.520364
H      3.400607     3.219395     0.288984
O      2.340776    -0.660826    -1.739249
H      1.616836    -0.484115    -2.352225
H      2.436007     0.183980    -1.281900
6
BHMC Sample 717
O      0.058759     0.358212    -0.179291
H      0.707833    -0.242199     0.205335
H     -0.766592    -0.116013    -0.026045
O      1.676156    -4.295542    -1.504857
H      2.570952    -4.257157    -1.863915
H      1.587688    -3.435038    -1.076323
6
BHMC Sample 718
O      0.058759     0.358212    -0.179291
H      0.707833    -0.242199     0.205335
H     -0.766592    -0.116013    -0.026045
O      2.763370    -3.349470     0.007448
H      3.658166    -3.311085    -0.351610
H      2.674902    -2.488966     0.435982
6
BHMC Sample 719
O     -3.692877     2.605479    -0.272114
H     -3.054986     1.992594     0.111545
H     -3.327085     3.459945    -0.015866
O     -0.268776    -0.299629    -0.023159
H      0.626020    -0.261245    -0.382217
H     -0.357244     0.560874     0.405375
6
BHMC Sample 720
O     -0.334561    -0.080526    -0.213303
H      0.303330    -0.693412     0.170357
H      0.031231     0.773939     0.042946
O      1.809443     3.837929    -0.675842
H      2.652333     4.054240    -1.092737
H      2.043174     3.090490    -0.111361
6
BHMC Sample 721
O     -0.334561    -0.080526    -0.213303
H      0.303330    -0.693412     0.170357
H      0.031231     0.773939     0.042946
O     -3.460857    -1.220780    -3.075217
H     -3.424048    -1.365602    -4.028489
H     -3.005262    -0.375457    -2.976244
6
BHMC Sample 722
O     -0.334561    -0.080526    -0.213303
H      0.303330    -0.693412     0.170357
H      0.031231     0.773939     0.042946
O      2.866031    -0.607932    -3.288114
H      2.818766    -0.987509    -4.173971
H      2.418505    -1.274967    -2.752652
6
BHMC Sample 723
O     -3.395495     0.115252     2.937143
H     -2.628019    -0.223571     3.412441
H     -3.817956    -0.697392     2.635953
O      0.164930     0.348871     0.116799
H      0.117665    -0.030706    -0.769059
H     -0.282596    -0.318164     0.652260
6
BHMC Sample 724
O      0.117940     0.354738     0.087451
H      0.885416     0.015914     0.562750
H     -0.304521    -0.457906    -0.213739
O     -3.348505     0.109385     2.966490
H     -3.395770    -0.270192     2.080633
H     -3.796031    -0.557650     3.501952
6
BHMC Sample 725
O      0.117940     0.354738     0.087451
H      0.885416     0.015914     0.562750
H     -0.304521    -0.457906    -0.213739
O     -1.440855     2.152512     3.421954
H     -1.488120     1.772934     2.536096
H     -1.888381     1.485477     3.957415
6
BHMC Sample 726
O      0.010734    -2.676039     2.874521
H      0.942828    -2.896935     2.764359
H     -0.421127    -3.495416     2.606763
O      0.164930     0.348871     0.116799
H      0.117665    -0.030706    -0.769059
H     -0.282596    -0.318164     0.652260
6
BHMC Sample 727
O      1.723725    -1.448903    -3.217704
H      2.491201    -1.787727    -2.742405
H      1.301264    -2.261547    -3.518894
O      0.164930     0.348871     0.116799
H      0.117665    -0.030706    -0.769059
H     -0.282596    -0.318164     0.652260
6
BHMC Sample 728
O      1.723725    -1.448903    -3.217704
H      2.491201    -1.787727    -2.742405
H      1.301264    -2.261547    -3.518894
O     -2.095382    -1.241678    -1.723028
H     -1.150755    -1.426937    -1.656582
H     -2.176515    -0.405338    -1.247752
6
BHMC Sample 729
O     -1.208854     2.106250     3.091722
H     -1.586275     2.989574     3.007925
H     -0.264050     2.295624     3.124314
O     -0.287832    -0.217027    -0.180574
H      0.656795    -0.402286    -0.114128
H     -0.368964     0.619313     0.294702
6
BHMC Sample 730
O     -1.208854     2.106250     3.091722
H     -1.586275     2.989574     3.007925
H     -0.264050     2.295624     3.124314
O     -0.866446    -1.963147     3.196061
H     -0.710483    -2.185115     4.122053
H     -0.523972    -1.062420     3.138306
6
BHMC Sample 731
O     -0.189127    -0.357566     0.017068
H     -0.566549     0.525758    -0.066729
H      0.755676    -0.168192     0.049660
O     -3.722903    -2.393312    -0.219742
H     -4.118640    -2.325829     0.657694
H     -3.169708    -1.603140    -0.258951
6
BHMC Sample 732
O     -2.987152    -2.501738    -0.037920
H     -2.463218    -3.226859     0.321834
H     -3.846891    -2.919939    -0.162563
O     -0.052486    -0.285885    -0.279409
H     -0.448223    -0.218402     0.598027
H      0.500709     0.504287    -0.318618
6
BHMC Sample 733
O     -2.987152    -2.501738    -0.037920
H     -2.463218    -3.226859     0.321834
H     -3.846891    -2.919939    -0.162563
O     -0.065403    -0.797267    -1.860771
H     -0.461140    -0.729783    -0.983335
H      0.487792    -0.007095    -1.899980
6
BHMC Sample 734
O      2.487601     0.993147    -2.831131
H      3.209543     1.270145    -2.255109
H      2.958501     0.742939    -3.634392
O     -0.052486    -0.285885    -0.279409
H     -0.448223    -0.218402     0.598027
H      0.500709     0.504287    -0.318618
6
BHMC Sample 735
O      2.218294     2.968016    -1.208245
H      1.679501     3.672807    -0.830487
H      2.655579     3.421147    -1.938336
O     -0.052486    -0.285885    -0.279409
H     -0.448223    -0.218402     0.598027
H      0.500709     0.504287    -0.318618
6
BHMC Sample 736
O      0.033836    -0.385974     0.117444
H     -0.504957     0.318817     0.495202
H      0.471121     0.067157    -0.612647
O     -0.124789    -4.184019    -1.351195
H      0.676258    -4.424857    -1.832210
H      0.093656    -3.307607    -1.010434
6
BHMC Sample 737
O      0.033836    -0.385974     0.117444
H     -0.504957     0.318817     0.495202
H      0.471121     0.067157    -0.612647
O     -0.249700    -4.287504    -1.013744
H      0.592545    -4.637698    -1.328456
H     -0.008116    -3.400719    -0.718475
6
BHMC Sample 738
O      0.033836    -0.385974     0.117444
H     -0.504957     0.318817     0.495202
H      0.471121     0.067157    -0.612647
O     -1.969568    -3.449355    -0.706095
H     -1.127323    -3.799550    -1.020806
H     -1.727984    -2.562570    -0.410825
6
BHMC Sample 739
O      0.033836    -0.385974     0.117444
H     -0.504957     0.318817     0.495202
H      0.471121     0.067157    -0.612647
O     -1.732221    -3.510502    -0.975504
H     -1.985351    -3.578500    -0.046872
H     -1.217126    -2.694180    -0.990692
6
BHMC Sample 740
O      0.033836    -0.385974     0.117444
H     -0.504957     0.318817     0.495202
H      0.471121     0.067157    -0.612647
O     -1.286244    -2.749352    -2.509732
H     -1.534203    -3.291922    -1.751319
H     -0.883967    -1.978455    -2.090416
6
BHMC Sample 741
O     -0.493964    -1.273407     3.157360
H     -1.289419    -1.087103     3.669485
H     -0.704632    -2.129219     2.766485
O     -0.051439    -0.076109    -0.392576
H     -0.299398    -0.618679     0.365837
H      0.350837     0.694788     0.026740
6
BHMC Sample 742
O      0.335374     0.223170    -0.040417
H     -0.460080     0.409473     0.471708
H      0.124706    -0.632643    -0.431292
O      3.362675    -0.617828     1.955555
H      2.600163    -0.666291     1.366247
H      3.272725     0.263614     2.338835
6
BHMC Sample 743
O      0.335374     0.223170    -0.040417
H     -0.460080     0.409473     0.471708
H      0.124706    -0.632643    -0.431292
O      0.507834     2.943520    -2.567350
H      0.494383     2.096742    -2.104919
H      0.210569     3.557476    -1.884250
6
BHMC Sample 744
O      0.335374     0.223170    -0.040417
H     -0.460080     0.409473     0.471708
H      0.124706    -0.632643    -0.431292
O      1.088730     1.733004    -2.589883
H      1.075279     0.886226    -2.127452
H      0.791466     2.346960    -1.906782
6
BHMC Sample 745
O      0.335374     0.223170    -0.040417
H     -0.460080     0.409473     0.471708
H      0.124706    -0.632643    -0.431292
O      3.025767    -0.486797     1.226334
H      2.409222    -0.642443     0.500591
H      2.617131     0.254787     1.690020
6
BHMC Sample 746
O      0.335374     0.223170    -0.040417
H     -0.460080     0.409473     0.471708
H      0.124706    -0.632643    -0.431292
O      1.088730     1.733004    -2.589883
H      1.075279     0.886226    -2.127452
H      0.791466     2.346960    -1.906782
6
BHMC Sample 747
O      0.335374     0.223170    -0.040417
H     -0.460080     0.409473     0.471708
H      0.124706    -0.632643    -0.431292
O      1.512774    -0.301539    -2.830892
H      1.549462     0.199577    -2.007125
H      0.682466    -0.785923    -2.742036
6
BHMC Sample 748
O      0.335374     0.223170    -0.040417
H     -0.460080     0.409473     0.471708
H      0.124706    -0.632643    -0.431292
O     -1.347128     2.511988    -1.269736
H     -0.843990     1.703875    -1.427414
H     -1.185026     2.677548    -0.332588
6
BHMC Sample 749
O      0.335374     0.223170    -0.040417
H     -0.460080     0.409473     0.471708
H      0.124706    -0.632643    -0.431292
O      2.535278     0.087690    -2.151185
H      2.185311    -0.268359    -1.325469
H      1.957741     0.844364    -2.311901
6
BHMC Sample 750
O     -1.149350     2.275675    -0.802425
H     -1.346954     3.100072    -1.261829
H     -0.810148     2.594531     0.041880
O      0.309168    -0.133541    -0.221667
H     -0.040799    -0.489591     0.604050
H     -0.268369     0.623132    -0.382383
6
BHMC Sample 751
O     -1.149350     2.275675    -0.802425
H     -1.346954     3.100072    -1.261829
H     -0.810148     2.594531     0.041880
O      0.735328     0.308627    -2.986050
H      0.385360    -0.047422    -2.160333
H      0.157790     1.065301    -3.146765
6
BHMC Sample 752
O     -2.059751     1.708973    -1.590626
H     -1.690737     1.879089    -2.465051
H     -2.956812     1.427557    -1.804321
O      0.309168    -0.133541    -0.221667
H     -0.040799    -0.489591     0.604050
H     -0.268369     0.623132    -0.382383
6
BHMC Sample 753
O      0.176016     0.037100     0.362706
H      0.545029     0.207216    -0.511718
H     -0.721045    -0.244316     0.149012
O     -0.177683    -3.472731    -0.802153
H      0.681768    -3.786214    -1.108958
H      0.061648    -2.714760    -0.254308
6
BHMC Sample 754
O      2.477309    -0.930571    -2.339684
H      2.410269    -0.008751    -2.614426
H      1.620517    -1.281405    -2.608758
O     -0.366261    -0.148163    -0.080347
H      0.493190    -0.461646    -0.387151
H     -0.126929     0.609808     0.467498
6
BHMC Sample 755
O      2.477309    -0.930571    -2.339684
H      2.410269    -0.008751    -2.614426
H      1.620517    -1.281405    -2.608758
O     -0.315300    -0.068813    -0.105611
H      0.458821    -0.643617    -0.068273
H     -0.901417    -0.467664     0.549613
6
BHMC Sample 756
O      0.307944    -0.190328     0.181272
H      0.240904     0.731491    -0.093470
H     -0.548848    -0.541163    -0.087802
O     -0.015081    -0.887056    -3.416309
H      0.458314    -1.272080    -2.668841
H     -0.061612    -1.626426    -4.035261
6
BHMC Sample 757
O      1.878409     1.625769     2.765046
H      1.264552     2.369068     2.744664
H      2.300817     1.692558     1.900934
O     -0.142288     0.374798    -0.042839
H      0.331107    -0.010226     0.704630
H     -0.188819    -0.364572    -0.661791
6
BHMC Sample 758
O      1.878409     1.625769     2.765046
H      1.264552     2.369068     2.744664
H      2.300817     1.692558     1.900934
O     -0.675996     1.324634     0.119644
H     -0.279689     0.740789     0.777764
H     -1.000649     0.701067    -0.541944
6
BHMC Sample 759
O      1.878409     1.625769     2.765046
H      1.264552     2.369068     2.744664
H      2.300817     1.692558     1.900934
O      0.010946    -1.354835     3.567255
H      0.750489    -1.141526     2.985333
H     -0.336231    -2.164688     3.172869
6
BHMC Sample 760
O      3.316565    -0.679952     2.184175
H      3.753435    -0.041268     2.759463
H      3.370760    -0.244446     1.325702
O      0.010946    -1.354835     3.567255
H      0.750489    -1.141526     2.985333
H     -0.336231    -2.164688     3.172869
6
BHMC Sample 761
O      2.132632     1.813207    -2.031188
H      2.258292     2.724877    -1.743446
H      3.040788     1.493469    -2.082154
O     -0.130789     0.198848     0.325436
H      0.608754     0.412157    -0.256486
H     -0.477965    -0.611005    -0.068950
6
BHMC Sample 762
O      1.900043     1.316855    -3.412556
H      2.025704     2.228525    -3.124814
H      2.808200     0.997117    -3.463522
O     -0.130789     0.198848     0.325436
H      0.608754     0.412157    -0.256486
H     -0.477965    -0.611005    -0.068950
6
BHMC Sample 763
O      1.928930     1.228244    -2.355792
H      2.054591     2.139914    -2.068050
H      2.837087     0.908506    -2.406758
O     -0.130789     0.198848     0.325436
H      0.608754     0.412157    -0.256486
H     -0.477965    -0.611005    -0.068950
6
BHMC Sample 764
O     -1.719307    -2.203238    -1.723030
H     -2.568438    -2.208444    -1.266217
H     -1.454831    -3.128414    -1.662355
O     -0.130789     0.198848     0.325436
H      0.608754     0.412157    -0.256486
H     -0.477965    -0.611005    -0.068950
6
BHMC Sample 765
O      3.006595    -0.211248    -1.256273
H      2.855469    -1.074294    -1.658817
H      3.782312    -0.379794    -0.709068
O     -0.130789     0.198848     0.325436
H      0.608754     0.412157    -0.256486
H     -0.477965    -0.611005    -0.068950
6
BHMC Sample 766
O      3.006595    -0.211248    -1.256273
H      2.855469    -1.074294    -1.658817
H      3.782312    -0.379794    -0.709068
O     -2.193197     1.674808     0.287364
H     -1.453655     1.888117    -0.294557
H     -2.540374     0.864955    -0.107021
6
BHMC Sample 767
O      3.006595    -0.211248    -1.256273
H      2.855469    -1.074294    -1.658817
H      3.782312    -0.379794    -0.709068
O     -2.266034     1.350385     0.408923
H     -1.550418     1.614272    -0.182104
H     -2.573950     0.528245     0.007414
6
BHMC Sample 768
O      3.006595    -0.211248    -1.256273
H      2.855469    -1.074294    -1.658817
H      3.782312    -0.379794    -0.709068
O     -2.243769     1.382936     0.375998
H     -1.496121     0.858477     0.064514
H     -2.981648     0.767395     0.283381
6
BHMC Sample 769
O      3.069334    -0.032550    -1.209737
H      2.946471    -0.886067    -1.641181
H      3.839656    -0.199165    -0.654380
O     -2.243769     1.382936     0.375998
H     -1.496121     0.858477     0.064514
H     -2.981648     0.767395     0.283381
6
BHMC Sample 770
O      3.069334    -0.032550    -1.209737
H      2.946471    -0.886067    -1.641181
H      3.839656    -0.199165    -0.654380
O     -2.434726     0.734577     2.329829
H     -1.687079     0.210117     2.018344
H     -3.172606     0.119036     2.237212
6
BHMC Sample 771
O      0.730725     1.163826    -3.427990
H      1.174184     2.017416    -3.361235
H      0.128627     1.309427    -4.166812
O     -2.434726     0.734577     2.329829
H     -1.687079     0.210117     2.018344
H     -3.172606     0.119036     2.237212
6
BHMC Sample 772
O     -2.425303     0.614882     2.344822
H     -1.981844     1.468472     2.411577
H     -3.027401     0.760483     1.606000
O      0.721302     1.283521    -3.442984
H      1.468949     0.759061    -3.754468
H     -0.016578     0.667980    -3.535600
6
BHMC Sample 773
O     -2.425303     0.614882     2.344822
H     -1.981844     1.468472     2.411577
H     -3.027401     0.760483     1.606000
O      0.873428     0.155717    -0.819206
H      1.621075    -0.368742    -1.130690
H      0.135548    -0.459823    -0.911822
6
BHMC Sample 774
O     -2.403671     0.615379     2.282369
H     -2.272329     1.051477     3.132249
H     -3.080272     1.169578     1.876593
O      0.873428     0.155717    -0.819206
H      1.621075    -0.368742    -1.130690
H      0.135548    -0.459823    -0.911822
6
BHMC Sample 775
O     -3.556221    -0.142763     2.840101
H     -3.424879     0.293335     3.689982
H     -4.232822     0.411436     2.434326
O      0.873428     0.155717    -0.819206
H      1.621075    -0.368742    -1.130690
H      0.135548    -0.459823    -0.911822
6
BHMC Sample 776
O     -3.556221    -0.142763     2.840101
H     -3.424879     0.293335     3.689982
H     -4.232822     0.411436     2.434326
O     -0.621149    -0.610378    -2.080439
H      0.189427    -0.996309    -2.434106
H     -1.019016    -1.355740    -1.613458
6
BHMC Sample 777
O      0.075029    -3.649280     2.812076
H      0.727042    -4.261771     3.171886
H      0.237630    -2.855592     3.334760
O     -0.621149    -0.610378    -2.080439
H      0.189427    -0.996309    -2.434106
H     -1.019016    -1.355740    -1.613458
6
BHMC Sample 778
O      0.589664    -2.183775     3.711397
H      1.241676    -2.796266     4.071208
H      0.752265    -1.390087     4.234082
O     -0.621149    -0.610378    -2.080439
H      0.189427    -0.996309    -2.434106
H     -1.019016    -1.355740    -1.613458
6
BHMC Sample 779
O      0.336080    -3.318555     3.424923
H      0.988093    -3.931045     3.784733
H      0.498682    -2.524867     3.947607
O     -0.621149    -0.610378    -2.080439
H      0.189427    -0.996309    -2.434106
H     -1.019016    -1.355740    -1.613458
6
BHMC Sample 780
O     -1.427320    -4.194589     3.455295
H     -0.775307    -4.807080     3.815105
H     -1.264719    -3.400901     3.977979
O     -0.621149    -0.610378    -2.080439
H      0.189427    -0.996309    -2.434106
H     -1.019016    -1.355740    -1.613458
6
BHMC Sample 781
O     -1.427320    -4.194589     3.455295
H     -0.775307    -4.807080     3.815105
H     -1.264719    -3.400901     3.977979
O     -0.897855    -0.469352    -2.018901
H     -0.114488    -0.855268    -2.429341
H     -1.278069    -1.222282    -1.549359
6
BHMC Sample 782
O     -1.529458    -3.754476     3.714737
H     -0.846870    -4.241130     4.191152
H     -1.522256    -2.904424     4.169642
O     -0.897855    -0.469352    -2.018901
H     -0.114488    -0.855268    -2.429341
H     -1.278069    -1.222282    -1.549359
6
BHMC Sample 783
O     -0.913894    -0.553408    -2.067704
H     -0.231306    -1.040062    -1.591289
H     -0.906692     0.296644    -1.612799
O     -1.513420    -3.670420     3.763540
H     -0.730052    -4.056335     3.353100
H     -1.893634    -4.423350     4.233082
6
BHMC Sample 784
O     -1.529458    -3.754476     3.714737
H     -0.846870    -4.241130     4.191152
H     -1.522256    -2.904424     4.169642
O     -0.897855    -0.469352    -2.018901
H     -0.114488    -0.855268    -2.429341
H     -1.278069    -1.222282    -1.549359
6
BHMC Sample 785
O     -0.913894    -0.553408    -2.067704
H     -0.231306    -1.040062    -1.591289
H     -0.906692     0.296644    -1.612799
O     -1.513420    -3.670420     3.763540
H     -0.730052    -4.056335     3.353100
H     -1.893634    -4.423350     4.233082
6
BHMC Sample 786
O     -0.913894    -0.553408    -2.067704
H     -0.231306    -1.040062    -1.591289
H     -0.906692     0.296644    -1.612799
O     -1.078509    -3.775106     1.575812
H     -0.295142    -4.161021     1.165372
H     -1.458723    -4.528035     2.045353
6
BHMC Sample 787
O     -0.896144    -0.594657    -2.035384
H     -1.388643     0.233887    -2.009158
H     -0.031084    -0.322600    -1.707915
O     -1.078509    -3.775106     1.575812
H     -0.295142    -4.161021     1.165372
H     -1.458723    -4.528035     2.045353
6
BHMC Sample 788
O     -1.805956    -1.127468    -1.345815
H     -2.298455    -0.298924    -1.319588
H     -0.940897    -0.855411    -1.018345
O     -1.078509    -3.775106     1.575812
H     -0.295142    -4.161021     1.165372
H     -1.458723    -4.528035     2.045353
6
BHMC Sample 789
O      1.445596     4.023999     0.525449
H      1.008375     4.876422     0.634727
H      1.454318     3.926141    -0.433679
O     -0.134385     0.379615    -0.019700
H      0.648983    -0.006300    -0.430141
H     -0.514598    -0.373314     0.449841
6
BHMC Sample 790
O      1.445596     4.023999     0.525449
H      1.008375     4.876422     0.634727
H      1.454318     3.926141    -0.433679
O      1.612019     1.232086    -1.165617
H      2.395386     0.846171    -1.576057
H      1.231805     0.479157    -0.696075
6
BHMC Sample 791
O      1.445596     4.023999     0.525449
H      1.008375     4.876422     0.634727
H      1.454318     3.926141    -0.433679
O      1.629419     1.227017    -1.195680
H      2.424221     0.774304    -0.888440
H      0.926802     0.631483    -0.906537
6
BHMC Sample 792
O      1.658553     1.126144    -1.114758
H      1.221331     1.978567    -1.005480
H      1.667274     1.028286    -2.073886
O      1.416462     4.124872     0.444528
H      2.211264     3.672159     0.751768
H      0.713845     3.529339     0.733670
6
BHMC Sample 793
O     -0.113670     0.132568     3.181805
H     -0.489341     0.458192     2.355627
H     -0.206006     0.899641     3.758565
O     -0.030729     0.349416    -0.198794
H      0.764074    -0.103298     0.108446
H     -0.733345    -0.246118     0.090348
6
BHMC Sample 794
O     -1.025072     0.632193    -3.346801
H     -1.244923     0.517829    -2.414967
H     -1.672868     0.061310    -3.775792
O     -0.030729     0.349416    -0.198794
H      0.764074    -0.103298     0.108446
H     -0.733345    -0.246118     0.090348
6
BHMC Sample 795
O      0.289216     0.228415    -0.167615
H      0.069365     0.114052     0.764220
H     -0.358580    -0.342467    -0.596605
O     -0.430480    -1.907074    -2.590554
H      0.171421    -2.561298    -2.965739
H     -1.041743    -2.455048    -2.082601
6
BHMC Sample 796
O      2.326936     2.394071     1.211119
H      3.262057     2.177359     1.302304
H      2.049796     1.790343     0.512346
O      0.003121     0.400732    -0.044256
H      0.605022    -0.253491    -0.419441
H     -0.608143    -0.147241     0.463697
6
BHMC Sample 797
O     -0.608224     3.121247    -1.786454
H     -0.065540     3.442747    -2.515742
H     -0.397973     2.180317    -1.781474
O      0.003121     0.400732    -0.044256
H      0.605022    -0.253491    -0.419441
H     -0.608143    -0.147241     0.463697
6
BHMC Sample 798
O     -0.250978     0.206476     0.241436
H      0.291705     0.527977    -0.487852
H     -0.040727    -0.734453     0.246416
O      1.696621     2.562911    -0.968513
H      2.402367     2.303233    -1.573118
H      1.460963     3.442005    -1.290372
6
BHMC Sample 799
O     -0.250978     0.206476     0.241436
H      0.291705     0.527977    -0.487852
H     -0.040727    -0.734453     0.246416
O      1.633641    -2.467816    -0.393447
H      2.586477    -2.371304    -0.275783
H      1.487939    -3.391935    -0.155312
6
BHMC Sample 800
O     -0.250978     0.206476     0.241436
H      0.291705     0.527977    -0.487852
H     -0.040727    -0.734453     0.246416
O      0.991388    -2.873661     0.214489
H      1.897719    -2.984926     0.526322
H      0.576207    -3.702430     0.484120
6
BHMC Sample 801
O     -0.250978     0.206476     0.241436
H      0.291705     0.527977    -0.487852
H     -0.040727    -0.734453     0.246416
O      0.105213     1.046659    -2.860108
H      0.718768     0.594935    -3.452182
H      0.054728     1.929231    -3.247992
6
BHMC Sample 802
O      1.742114     1.412850    -0.057371
H      1.715107     1.165944    -0.989056
H      1.614178     0.562120     0.377912
O      0.105213     1.046659    -2.860108
H      0.718768     0.594935    -3.452182
H      0.054728     1.929231    -3.247992
6
BHMC Sample 803
O      1.742114     1.412850    -0.057371
H      1.715107     1.165944    -0.989056
H      1.614178     0.562120     0.377912
O      0.061004     0.852683    -2.805188
H      0.702847     0.473159    -3.417606
H     -0.103836     1.722402    -3.190354
6
BHMC Sample 804
O      0.051647     0.365878     0.165468
H      0.024641     0.118973    -0.766218
H     -0.076288    -0.484851     0.600750
O     -1.921785    -1.943237     1.375499
H     -1.340484    -2.684980     1.582776
H     -2.179793    -1.630936     2.251761
6
BHMC Sample 805
O     -1.895026    -1.905850     1.463902
H     -1.922033    -2.152755     0.532217
H     -2.022962    -2.756579     1.899185
O      0.024889     0.328491     0.077065
H      0.606189    -0.413252     0.284341
H     -0.233119     0.640792     0.953326
6
BHMC Sample 806
O      0.051647     0.365878     0.165468
H      0.024641     0.118973    -0.766218
H     -0.076288    -0.484851     0.600750
O     -1.921785    -1.943237     1.375499
H     -1.340484    -2.684980     1.582776
H     -2.179793    -1.630936     2.251761
6
BHMC Sample 807
O      0.051647     0.365878     0.165468
H      0.024641     0.118973    -0.766218
H     -0.076288    -0.484851     0.600750
O      1.174422    -0.888371    -2.681969
H      1.858158    -0.223783    -2.829906
H      0.564169    -0.723905    -3.411679
6
BHMC Sample 808
O      0.051647     0.365878     0.165468
H      0.024641     0.118973    -0.766218
H     -0.076288    -0.484851     0.600750
O     -1.653233    -2.572694     0.097449
H     -2.217424    -2.476421    -0.679388
H     -1.122647    -3.347469    -0.126462
6
BHMC Sample 809
O      0.051647     0.365878     0.165468
H      0.024641     0.118973    -0.766218
H     -0.076288    -0.484851     0.600750
O     -1.240300    -2.122040     2.040863
H     -1.333333    -1.692295     2.899770
H     -2.151609    -2.358735     1.827729
6
BHMC Sample 810
O      0.051647     0.365878     0.165468
H      0.024641     0.118973    -0.766218
H     -0.076288    -0.484851     0.600750
O      0.545812    -2.381897     2.057954
H      0.741319    -1.994131     2.919622
H      1.355737    -2.869011     1.861290
6
BHMC Sample 811
O      1.944558    -0.538201    -0.431796
H      2.329344    -1.117529    -1.099664
H      1.371553    -1.144517     0.051553
O      0.545812    -2.381897     2.057954
H      0.741319    -1.994131     2.919622
H      1.355737    -2.869011     1.861290
6
BHMC Sample 812
O      1.944558    -0.538201    -0.431796
H      2.329344    -1.117529    -1.099664
H      1.371553    -1.144517     0.051553
O      2.343892    -2.642874    -3.090461
H      2.277926    -3.571473    -2.836671
H      3.248871    -2.422449    -2.836767
6
BHMC Sample 813
O      0.426324     1.408515     3.157853
H      0.358950     1.210531     2.216581
H     -0.368754     0.989492     3.506922
O     -0.279671     0.236058    -0.169162
H     -0.345637    -0.692541     0.084629
H      0.625308     0.456483     0.084533
6
BHMC Sample 814
O      0.426324     1.408515     3.157853
H      0.358950     1.210531     2.216581
H     -0.368754     0.989492     3.506922
O     -0.923080    -0.777494     2.043333
H     -0.989046    -1.706092     2.297124
H     -0.018102    -0.557069     2.297028
6
BHMC Sample 815
O      0.287484     0.205669     0.197401
H      0.220110     0.007685    -0.743871
H     -0.507594    -0.213354     0.546470
O     -1.881177    -0.195016    -1.521075
H     -2.760132     0.197704    -1.586392
H     -1.346831     0.544226    -1.204959
6
BHMC Sample 816
O      0.551444     0.364234    -0.262749
H      0.313051     0.167501    -1.176091
H     -0.124492    -0.117564     0.227719
O     -1.881177    -0.195016    -1.521075
H     -2.760132     0.197704    -1.586392
H     -1.346831     0.544226    -1.204959
6
BHMC Sample 817
O     -2.589800    -1.073049    -0.210460
H     -1.887305    -1.039934    -0.870108
H     -2.097599    -1.269485     0.594977
O      0.114869    -0.377321    -0.083599
H     -0.764085     0.015399    -0.148917
H      0.649216     0.361922     0.232516
6
BHMC Sample 818
O     -2.499096    -1.022372    -0.224019
H     -2.819736    -1.266526     0.651942
H     -2.604814    -1.847241    -0.711865
O      0.114869    -0.377321    -0.083599
H     -0.764085     0.015399    -0.148917
H      0.649216     0.361922     0.232516
6
BHMC Sample 819
O      0.142119     0.356341    -0.129372
H     -0.178520     0.112187     0.746589
H      0.036401    -0.468528    -0.617217
O     -1.461419     2.249246    -1.184929
H     -0.604568     2.128384    -0.758016
H     -1.621046     3.193818    -1.065607
6
BHMC Sample 820
O     -1.398551     2.355151    -1.176082
H     -1.719190     2.110997    -0.300120
H     -1.504269     1.530282    -1.663927
O      0.079251     0.250436    -0.138219
H      0.936102     0.129575     0.288694
H     -0.080376     1.195008    -0.018898
6
BHMC Sample 821
O      0.142119     0.356341    -0.129372
H     -0.178520     0.112187     0.746589
H      0.036401    -0.468528    -0.617217
O     -2.223748     1.116301     0.561361
H     -3.005860     1.531319     0.177802
H     -1.612899     1.094972    -0.185863
6
BHMC Sample 822
O      0.142119     0.356341    -0.129372
H     -0.178520     0.112187     0.746589
H      0.036401    -0.468528    -0.617217
O     -2.396621     0.744965     0.173215
H     -3.150298     1.096063    -0.316436
H     -1.667746     0.876411    -0.445976
6
BHMC Sample 823
O     -2.548033     0.207115     0.508225
H     -2.168877    -0.140955     1.323588
H     -2.768393    -0.600731     0.030307
O      0.008267    -0.160848     0.369614
H     -0.745410     0.190250    -0.120037
H      0.737143    -0.029402    -0.249577
6
BHMC Sample 824
O     -0.052932     0.385305    -0.112482
H      0.326224     0.037235     0.702882
H     -0.273292    -0.422540    -0.590400
O      1.870583    -0.468184    -1.616145
H      1.610496     0.261637    -1.041018
H      2.761576    -0.212348    -1.885614
6
BHMC Sample 825
O     -0.052932     0.385305    -0.112482
H      0.326224     0.037235     0.702882
H     -0.273292    -0.422540    -0.590400
O      2.458514    -0.533601    -0.034339
H      1.832357    -0.087036    -0.617059
H      3.237261    -0.624486    -0.597568
6
BHMC Sample 826
O     -0.052932     0.385305    -0.112482
H      0.326224     0.037235     0.702882
H     -0.273292    -0.422540    -0.590400
O      1.788721    -1.167611    -1.329423
H      1.696838    -0.322258    -0.873361
H      2.734105    -1.197241    -1.522569
6
BHMC Sample 827
O     -2.144771     1.332402     1.030288
H     -2.073249     1.833521     0.209622
H     -2.336298     0.444964     0.705712
O     -0.284500    -0.271908    -0.087638
H     -0.376383     0.573445     0.368423
H      0.660884    -0.301538    -0.280785
6
BHMC Sample 828
O     -2.460122     0.742711     0.912695
H     -2.103793     0.440515     1.756161
H     -2.449003    -0.067420     0.390064
O     -0.284500    -0.271908    -0.087638
H     -0.376383     0.573445     0.368423
H      0.660884    -0.301538    -0.280785
6
BHMC Sample 829
O     -0.122483     0.370776    -0.106945
H      0.233846     0.068580     0.736521
H     -0.111364    -0.439355    -0.629576
O      2.401182    -0.131447     0.270231
H      1.995188     0.251466    -0.516918
H      3.331983    -0.182547     0.019367
6
BHMC Sample 830
O     -0.122483     0.370776    -0.106945
H      0.233846     0.068580     0.736521
H     -0.111364    -0.439355    -0.629576
O     -1.497528    -1.037969     1.592485
H     -1.817991    -0.635169     0.776328
H     -2.284305    -1.488437     1.924141
6
BHMC Sample 831
O     -0.626085     0.232138    -0.523289
H     -0.260021     0.369126     0.358164
H     -0.257731    -0.626667    -0.760667
O     -1.497528    -1.037969     1.592485
H     -1.817991    -0.635169     0.776328
H     -2.284305    -1.488437     1.924141
6
BHMC Sample 832
O     -0.244806     0.240606    -0.214692
H      0.121258     0.377593     0.666762
H      0.123548    -0.618199    -0.452069
O      2.118217     1.171105     0.248332
H      1.466049     1.127690    -0.461491
H      2.875046     1.579510    -0.190244
6
BHMC Sample 833
O     -1.854626     3.824498     1.335710
H     -2.630912     3.794506     0.764562
H     -2.245474     4.032142     2.192273
O      2.763648    -0.834607    -2.211580
H      2.915002    -0.525216    -3.112927
H      2.842501    -0.021431    -1.697323
6
BHMC Sample 834
O     -1.894879     3.894475     1.332020
H     -1.625532     3.007576     1.066330
H     -2.611958     3.708384     1.949067
O      2.763648    -0.834607    -2.211580
H      2.915002    -0.525216    -3.112927
H      2.842501    -0.021431    -1.697323
6
BHMC Sample 835
O      2.801581    -0.711758    -2.252899
H      3.070927    -1.598658    -2.518589
H      2.084502    -0.897850    -1.635852
O     -1.932812     3.771626     1.373339
H     -1.781458     4.081018     0.471992
H     -1.853959     4.584803     1.887596
6
BHMC Sample 836
O     -1.894879     3.894475     1.332020
H     -1.625532     3.007576     1.066330
H     -2.611958     3.708384     1.949067
O      2.763648    -0.834607    -2.211580
H      2.915002    -0.525216    -3.112927
H      2.842501    -0.021431    -1.697323
6
BHMC Sample 837
O      0.462742     4.069289     3.012473
H      1.139777     3.727822     2.416861
H      0.878927     4.871666     3.347972
O      2.763648    -0.834607    -2.211580
H      2.915002    -0.525216    -3.112927
H      2.842501    -0.021431    -1.697323
6
BHMC Sample 838
O      0.551910     4.073858     3.056093
H      0.812027     4.809624     2.489775
H     -0.208607     3.717351     2.582708
O      2.763648    -0.834607    -2.211580
H      2.915002    -0.525216    -3.112927
H      2.842501    -0.021431    -1.697323
6
BHMC Sample 839
O      1.467343     2.616286     4.340440
H      1.521005     3.475814     3.906780
H      0.649503     2.259587     3.975086
O      2.763648    -0.834607    -2.211580
H      2.915002    -0.525216    -3.112927
H      2.842501    -0.021431    -1.697323
6
BHMC Sample 840
O      2.819287    -0.799931    -2.188532
H      2.872950     0.059597    -2.622191
H      2.001448    -1.156630    -2.553886
O      1.411703     2.581610     4.317391
H      1.563057     2.891001     3.416045
H      1.490556     3.394786     4.831649
6
BHMC Sample 841
O      2.235784     0.911428    -0.922785
H      2.289447     1.770956    -1.356445
H      1.417945     0.554729    -1.288139
O      1.411703     2.581610     4.317391
H      1.563057     2.891001     3.416045
H      1.490556     3.394786     4.831649
6
BHMC Sample 842
O      1.467343     2.616286     4.340440
H      1.521005     3.475814     3.906780
H      0.649503     2.259587     3.975086
O      2.180145     0.876752    -0.945834
H      2.331499     1.186143    -1.847180
H      2.258998     1.689928    -0.431577
6
BHMC Sample 843
O      2.235784     0.911428    -0.922785
H      2.289447     1.770956    -1.356445
H      1.417945     0.554729    -1.288139
O      1.411703     2.581610     4.317391
H      1.563057     2.891001     3.416045
H      1.490556     3.394786     4.831649
6
BHMC Sample 844
O      2.235784     0.911428    -0.922785
H      2.289447     1.770956    -1.356445
H      1.417945     0.554729    -1.288139
O      1.452696     2.632990     4.356225
H      0.882825     2.054101     3.835466
H      1.520148     3.416173     3.795859
6
BHMC Sample 845
O      1.850893     1.619613     1.249978
H      1.904556     2.479141     0.816318
H      1.033054     1.262914     0.884624
O      1.452696     2.632990     4.356225
H      0.882825     2.054101     3.835466
H      1.520148     3.416173     3.795859
6
BHMC Sample 846
O      1.753466     1.687704     1.199494
H      2.681310     1.902372     1.048657
H      1.802673     0.758937     1.453560
O      1.452696     2.632990     4.356225
H      0.882825     2.054101     3.835466
H      1.520148     3.416173     3.795859
6
BHMC Sample 847
O     -2.789049     0.563407    -0.984674
H     -3.037381     1.347439    -0.481331
H     -3.203013    -0.141147    -0.472995
O      0.167473    -0.068098     0.360375
H     -0.402398    -0.646987    -0.160384
H      0.234925     0.715085    -0.199991
6
BHMC Sample 848
O     -2.789049     0.563407    -0.984674
H     -3.037381     1.347439    -0.481331
H     -3.203013    -0.141147    -0.472995
O      0.139527    -0.916423    -2.040465
H     -0.430344    -1.495313    -2.561224
H      0.206978    -0.133241    -2.600831
6
BHMC Sample 849
O     -2.885028     0.601719    -0.927741
H     -2.032909     0.863951    -0.560510
H     -2.684102    -0.265753    -1.297468
O      0.139527    -0.916423    -2.040465
H     -0.430344    -1.495313    -2.561224
H      0.206978    -0.133241    -2.600831
6
BHMC Sample 850
O     -2.885028     0.601719    -0.927741
H     -2.032909     0.863951    -0.560510
H     -2.684102    -0.265753    -1.297468
O     -3.053866    -2.904062    -0.567567
H     -3.669405    -2.716647     0.151491
H     -3.622015    -2.849962    -1.346164
6
BHMC Sample 851
O     -0.351015     0.201747     0.000832
H      0.501104     0.463979     0.368063
H     -0.150089    -0.665726    -0.368895
O      1.688672     0.528811     2.861112
H      0.875260     0.372821     3.356173
H      1.632731     1.471836     2.662348
6
BHMC Sample 852
O     -0.351015     0.201747     0.000832
H      0.501104     0.463979     0.368063
H     -0.150089    -0.665726    -0.368895
O      1.854171    -0.100486    -2.748349
H      2.336453     0.635401    -2.352205
H      1.143988     0.348882    -3.223367
6
BHMC Sample 853
O     -0.351015     0.201747     0.000832
H      0.501104     0.463979     0.368063
H     -0.150089    -0.665726    -0.368895
O      2.395007     0.838123    -2.136108
H      2.043097     0.126287    -2.684292
H      1.861667     1.594398    -2.410936
6
BHMC Sample 854
O     -0.357706     0.172276    -0.016462
H      0.309382     0.867724     0.016324
H      0.147837    -0.601700     0.257340
O      2.395007     0.838123    -2.136108
H      2.043097     0.126287    -2.684292
H      1.861667     1.594398    -2.410936
6
BHMC Sample 855
O     -0.115459     1.274156    -0.245640
H      0.551629     1.969604    -0.212854
H      0.390083     0.500181     0.028163
O      2.395007     0.838123    -2.136108
H      2.043097     0.126287    -2.684292
H      1.861667     1.594398    -2.410936
6
BHMC Sample 856
O     -0.115459     1.274156    -0.245640
H      0.551629     1.969604    -0.212854
H      0.390083     0.500181     0.028163
O      2.353740     0.774108    -2.191626
H      3.026316     1.460954    -2.108313
H      1.533437     1.275766    -2.105736
6
BHMC Sample 857
O     -0.390877     0.026176    -0.102196
H      0.276211     0.721624    -0.069410
H      0.114666    -0.747799     0.171606
O      0.876092     0.451383     2.787068
H      1.570180     1.121673     2.783864
H      0.230466     0.818607     2.170425
6
BHMC Sample 858
O      2.976554     0.195974    -0.734326
H      2.311152     0.588924    -1.311005
H      2.760187    -0.741887    -0.790716
O     -0.016154    -0.345838     0.206616
H      0.677934     0.324452     0.203411
H     -0.661780     0.021386    -0.410027
6
BHMC Sample 859
O      0.293924     0.181637     0.211023
H     -0.371479     0.574587    -0.365656
H      0.077556    -0.756224     0.154633
O      0.437943    -0.846296    -2.798603
H      0.676714    -0.105442    -2.228356
H     -0.264457    -0.470273    -3.343742
6
BHMC Sample 860
O     -2.980317    -0.508019    -0.545108
H     -2.710140     0.248941    -0.012431
H     -2.689811    -1.248669    -0.000477
O      0.154543    -0.372292    -0.008369
H      0.393314     0.368561     0.561877
H     -0.547857     0.003730    -0.553508
6
BHMC Sample 861
O     -0.186894    -0.005437    -0.359103
H      0.083283     0.751523     0.173574
H      0.103612    -0.746086     0.185528
O     -1.546897     0.087953     2.517619
H     -1.227699     0.829564     3.045996
H     -1.596220     0.470127     1.632495
6
BHMC Sample 862
O     -0.887626     2.416428     1.676458
H     -1.040354     1.521826     2.002173
H     -1.438704     2.437233     0.885599
O     -0.089958    -0.374595     0.118916
H      0.229240     0.367016     0.647293
H     -0.139282     0.007579    -0.766209
6
BHMC Sample 863
O      2.529380     1.395449     1.045216
H      2.279800     0.529786     1.388822
H      2.710352     1.197522     0.119120
O     -0.089958    -0.374595     0.118916
H      0.229240     0.367016     0.647293
H     -0.139282     0.007579    -0.766209
6
BHMC Sample 864
O      2.529380     1.395449     1.045216
H      2.279800     0.529786     1.388822
H      2.710352     1.197522     0.119120
O     -0.906166    -1.317752     0.085861
H     -0.586968    -0.576141     0.614238
H     -0.955489    -0.935578    -0.799263
6
BHMC Sample 865
O     -0.887227    -1.195361     0.098492
H     -1.136807    -2.061024     0.442099
H     -0.706255    -1.393288    -0.827603
O      2.510441     1.273058     1.032585
H      2.829639     2.014669     1.560962
H      2.461117     1.655232     0.147460
6
BHMC Sample 866
O     -1.108392    -0.626808    -0.340984
H     -1.427501    -1.525310    -0.197484
H     -0.959121    -0.618209    -1.293466
O      2.510441     1.273058     1.032585
H      2.829639     2.014669     1.560962
H      2.461117     1.655232     0.147460
6
BHMC Sample 867
O      0.056613     0.296634     0.269661
H     -0.262497    -0.601868     0.413161
H      0.205884     0.305233    -0.682822
O     -1.976948     4.065206     0.774269
H     -1.931813     4.897424     1.260514
H     -1.475940     4.265438    -0.026251
6
BHMC Sample 868
O     -0.231199    -0.610898    -1.066659
H     -0.550309    -1.509400    -0.923159
H     -0.081928    -0.602299    -2.019142
O     -1.976948     4.065206     0.774269
H     -1.931813     4.897424     1.260514
H     -1.475940     4.265438    -0.026251
6
BHMC Sample 869
O     -0.231199    -0.610898    -1.066659
H     -0.550309    -1.509400    -0.923159
H     -0.081928    -0.602299    -2.019142
O     -0.730037     2.603351     3.132243
H     -0.436822     3.124884     3.889267
H     -0.493450     3.169096     2.386660
6
BHMC Sample 870
O      0.632662    -3.810530     3.954601
H      0.301621    -4.700044     3.784583
H      0.853849    -3.856108     4.891926
O     -0.176601    -0.362426    -0.003814
H      0.116615     0.159107     0.753210
H      0.059986     0.203319    -0.749397
6
BHMC Sample 871
O      0.632662    -3.810530     3.954601
H      0.301621    -4.700044     3.784583
H      0.853849    -3.856108     4.891926
O      0.018037    -2.003817    -0.299349
H      0.311253    -1.482284     0.457675
H      0.254624    -1.438072    -1.044932
6
BHMC Sample 872
O      0.632662    -3.810530     3.954601
H      0.301621    -4.700044     3.784583
H      0.853849    -3.856108     4.891926
O      0.134373    -3.054718     1.197858
H      0.427589    -2.533185     1.954882
H      0.370960    -2.488973     0.452275
6
BHMC Sample 873
O      0.036618     0.311697    -0.255769
H     -0.294422    -0.577817    -0.425787
H      0.257805     0.266119     0.681556
O      0.862852     3.091376    -0.356125
H      0.446983     2.529429    -1.021200
H      1.206618     3.820889    -0.886756
6
BHMC Sample 874
O     -0.901953    -2.602493    -1.160266
H     -1.225357    -3.509845    -1.203280
H     -0.793216    -2.385366    -2.093331
O      0.024034    -0.055856     0.398569
H     -0.391834    -0.617802    -0.266506
H      0.367800     0.673658    -0.132063
6
BHMC Sample 875
O     -0.901953    -2.602493    -1.160266
H     -1.225357    -3.509845    -1.203280
H     -0.793216    -2.385366    -2.093331
O      0.042068    -0.608914     1.624771
H     -0.373801    -1.170861     0.959696
H      0.385834     0.120599     1.094140
6
BHMC Sample 876
O      0.071556     0.230075     0.325360
H     -0.251849    -0.677277     0.282345
H      0.180293     0.447202    -0.607705
O      0.443776     2.428360     3.091397
H      0.447276     1.716278     2.440257
H      0.672482     3.199064     2.556942
6
BHMC Sample 877
O      0.071556     0.230075     0.325360
H     -0.251849    -0.677277     0.282345
H      0.180293     0.447202    -0.607705
O     -1.239662     3.400000    -0.789800
H     -1.013837     2.563094    -0.365951
H     -0.372408     3.795368    -0.943063
6
BHMC Sample 878
O      0.049725     0.204068     0.336799
H     -0.446193    -0.377876    -0.250683
H      0.721138     0.560580    -0.256231
O     -1.239662     3.400000    -0.789800
H     -1.013837     2.563094    -0.365951
H     -0.372408     3.795368    -0.943063
6
BHMC Sample 879
O      0.049725     0.204068     0.336799
H     -0.446193    -0.377876    -0.250683
H      0.721138     0.560580    -0.256231
O     -0.601208    -0.399282     3.781000
H     -0.423182    -0.061984     2.894663
H     -1.332545    -1.010369     3.627203
6
BHMC Sample 880
O      0.207604    -0.664231     0.836015
H     -0.288314    -1.246175     0.248533
H      0.879016    -0.307720     0.242985
O     -0.601208    -0.399282     3.781000
H     -0.423182    -0.061984     2.894663
H     -1.332545    -1.010369     3.627203
6
BHMC Sample 881
O      0.207604    -0.664231     0.836015
H     -0.288314    -1.246175     0.248533
H      0.879016    -0.307720     0.242985
O     -0.351943     1.466641     2.982391
H      0.027560     0.646053     2.645243
H      0.073475     2.134159     2.429785
6
BHMC Sample 882
O     -0.058498     0.075144     0.393504
H     -0.554416    -0.506800    -0.193978
H      0.612914     0.431656    -0.199526
O      1.149178     0.011825     3.221603
H      0.585852     0.361858     2.520750
H      2.032930     0.110274     2.845803
6
BHMC Sample 883
O     -0.058498     0.075144     0.393504
H     -0.554416    -0.506800    -0.193978
H      0.612914     0.431656    -0.199526
O     -0.239198    -1.104262     3.228447
H     -0.464194    -0.482251     2.525926
H     -0.527503    -1.948002     2.858424
6
BHMC Sample 884
O     -0.058498     0.075144     0.393504
H     -0.554416    -0.506800    -0.193978
H      0.612914     0.431656    -0.199526
O     -2.006422     1.089930     2.546724
H     -1.288588     0.541319     2.207908
H     -2.753060     0.815258     1.999895
6
BHMC Sample 885
O     -0.058498     0.075144     0.393504
H     -0.554416    -0.506800    -0.193978
H      0.612914     0.431656    -0.199526
O     -1.148972     2.295739     2.674653
H     -0.431138     1.747128     2.335837
H     -1.895609     2.021067     2.127824
6
BHMC Sample 886
O     -0.071918     0.067172     0.391145
H      0.732689    -0.354145     0.067371
H     -0.461199     0.405546    -0.423436
O     -1.148972     2.295739     2.674653
H     -0.431138     1.747128     2.335837
H     -1.895609     2.021067     2.127824
6
BHMC Sample 887
O     -0.071918     0.067172     0.391145
H      0.732689    -0.354145     0.067371
H     -0.461199     0.405546    -0.423436
O     -1.160041     2.371319     2.594959
H     -0.452243     1.786741     2.297729
H     -1.890572     2.124173     2.014289
6
BHMC Sample 888
O     -1.092850    -1.512142    -2.341074
H     -1.824217    -1.572186    -2.966556
H     -0.332352    -1.444205    -2.929806
O      0.007577     0.277242     0.292634
H      0.715376    -0.307337    -0.004597
H     -0.722953     0.030095    -0.288037
6
BHMC Sample 889
O     -1.267691    -2.801404     0.573656
H     -1.029774    -3.735708     0.559538
H     -1.691161    -2.716719     1.435677
O      0.007577     0.277242     0.292634
H      0.715376    -0.307337    -0.004597
H     -0.722953     0.030095    -0.288037
6
BHMC Sample 890
O     -1.614670    -2.647873     0.134103
H     -1.483314    -3.601297     0.192905
H     -2.280094    -2.496128     0.815105
O      0.007577     0.277242     0.292634
H      0.715376    -0.307337    -0.004597
H     -0.722953     0.030095    -0.288037
6
BHMC Sample 891
O      0.036188     0.275560     0.202118
H      0.167545    -0.677863     0.260919
H     -0.629235     0.427306     0.883119
O     -1.643281    -2.646192     0.224619
H     -0.935483    -3.230771    -0.072611
H     -2.373812    -2.893338    -0.356051
6
BHMC Sample 892
O     -1.614670    -2.647873     0.134103
H     -1.483314    -3.601297     0.192905
H     -2.280094    -2.496128     0.815105
O      0.007577     0.277242     0.292634
H      0.715376    -0.307337    -0.004597
H     -0.722953     0.030095    -0.288037
6
BHMC Sample 893
O     -2.618767    -1.776468     0.320949
H     -3.001986    -2.549915    -0.108762
H     -2.596810    -2.052196     1.244567
O      0.007577     0.277242     0.292634
H      0.715376    -0.307337    -0.004597
H     -0.722953     0.030095    -0.288037
6
BHMC Sample 894
O      0.120421     0.349725    -0.164636
H     -0.262799    -0.423722    -0.594346
H      0.142378     0.073997     0.758982
O     -0.239478     3.638706     0.246807
H     -1.197317     3.743125     0.194860
H     -0.059900     3.015089    -0.467888
6
BHMC Sample 895
O      0.120421     0.349725    -0.164636
H     -0.262799    -0.423722    -0.594346
H      0.142378     0.073997     0.758982
O     -2.007323    -1.495297     2.663304
H     -2.861892    -1.090973     2.470197
H     -1.711920    -1.782547     1.790287
6
BHMC Sample 896
O     -0.465508     1.112785     0.061568
H     -0.843099     0.407621    -0.476854
H     -0.286122     0.655575     0.891241
O     -2.007323    -1.495297     2.663304
H     -2.861892    -1.090973     2.470197
H     -1.711920    -1.782547     1.790287
6
BHMC Sample 897
O      0.832727    -1.676479    -0.121231
H      0.393601    -2.534781    -0.135898
H      0.655066    -1.377203     0.777907
O     -2.007323    -1.495297     2.663304
H     -2.861892    -1.090973     2.470197
H     -1.711920    -1.782547     1.790287
6
BHMC Sample 898
O      0.832727    -1.676479    -0.121231
H      0.393601    -2.534781    -0.135898
H      0.655066    -1.377203     0.777907
O      3.658615    -1.684785    -2.757678
H      4.348292    -2.359618    -2.756943
H      2.925488    -2.137195    -2.322036
6
BHMC Sample 899
O      0.830846    -1.761990    -0.046987
H     -0.081027    -1.483731     0.097195
H      1.159548    -1.071019    -0.633581
O      3.658615    -1.684785    -2.757678
H      4.348292    -2.359618    -2.756943
H      2.925488    -2.137195    -2.322036
6
BHMC Sample 900
O      3.704971    -0.725865     0.574829
H      4.581438    -0.728661     0.172926
H      3.319450     0.077354     0.206329
O      0.014483     0.375748    -0.145459
H      0.704161    -0.299086    -0.144724
H     -0.718644    -0.076662     0.290183
6
BHMC Sample 901
O      3.704971    -0.725865     0.574829
H      4.581438    -0.728661     0.172926
H      3.319450     0.077354     0.206329
O      0.245337    -0.127876     2.484927
H      0.935014    -0.802710     2.485662
H     -0.487790    -0.580286     2.920569
6
BHMC Sample 902
O      3.704971    -0.725865     0.574829
H      4.581438    -0.728661     0.172926
H      3.319450     0.077354     0.206329
O      0.256164    -0.100729     2.496316
H      0.942033    -0.779433     2.496976
H     -0.477788    -0.547322     2.936547
6
BHMC Sample 903
O      3.682203    -0.637262     0.544946
H      4.628821    -0.470732     0.468070
H      3.633441    -1.586881     0.385494
O      0.256164    -0.100729     2.496316
H      0.942033    -0.779433     2.496976
H     -0.477788    -0.547322     2.936547
6
BHMC Sample 904
O      3.953719     0.356961    -0.719423
H      4.704816     0.325393    -1.323234
H      4.215114    -0.278415    -0.042999
O      0.016027     0.375099    -0.146964
H      0.701897    -0.303605    -0.146304
H     -0.717924    -0.071494     0.293268
6
BHMC Sample 905
O      3.988600     0.025907    -0.145577
H      4.813145    -0.077424    -0.634636
H      4.096849    -0.616358     0.565307
O      0.016027     0.375099    -0.146964
H      0.701897    -0.303605    -0.146304
H     -0.717924    -0.071494     0.293268
6
BHMC Sample 906
O     -0.310931     0.248532    -0.073942
H      0.513613     0.145201    -0.563000
H     -0.202682    -0.393733     0.636942
O     -3.049519     2.632583     1.575212
H     -2.206637     2.212796     1.785888
H     -3.463392     2.713804     2.443571
6
BHMC Sample 907
O     -3.077708     2.655358     1.623176
H     -2.253163     2.552027     1.134117
H     -2.969458     2.013092     2.334059
O     -0.282743     0.225758    -0.121905
H      0.560140    -0.194029     0.088771
H     -0.696616     0.306978     0.746453
6
BHMC Sample 908
O     -0.310931     0.248532    -0.073942
H      0.513613     0.145201    -0.563000
H     -0.202682    -0.393733     0.636942
O      3.771408    -0.058169    -0.097070
H      4.457277    -0.736873    -0.096410
H      3.037457    -0.504762     0.343162
6
BHMC Sample 909
O     -0.310931     0.248532    -0.073942
H      0.513613     0.145201    -0.563000
H     -0.202682    -0.393733     0.636942
O      1.992755    -1.397043     2.883319
H      2.599129    -2.135586     3.017184
H      2.085336    -1.221468     1.938577
6
BHMC Sample 910
O     -0.310931     0.248532    -0.073942
H      0.513613     0.145201    -0.563000
H     -0.202682    -0.393733     0.636942
O      0.933070     3.653830    -0.123416
H      1.507816     4.242803     0.380403
H      0.723345     2.967024     0.521756
6
BHMC Sample 911
O      2.021489     1.762058    -2.967572
H      2.671389     2.474250    -2.955640
H      2.583827     0.979018    -2.953326
O      0.933070     3.653830    -0.123416
H      1.507816     4.242803     0.380403
H      0.723345     2.967024     0.521756
6
BHMC Sample 912
O      0.885666     3.652320    -0.060591
H      1.535566     4.364512    -0.048658
H      1.448003     2.869280    -0.046344
O      2.068894     1.763568    -3.030398
H      2.643640     2.352541    -2.526578
H      1.859169     1.076762    -2.385225
6
BHMC Sample 913
O      0.851616     2.523805    -0.067044
H      1.501516     3.235997    -0.055111
H      1.413954     1.740765    -0.052797
O      2.068894     1.763568    -3.030398
H      2.643640     2.352541    -2.526578
H      1.859169     1.076762    -2.385225
6
BHMC Sample 914
O     -0.404079     0.023616    -0.008727
H      0.245821     0.735808     0.003206
H      0.158258    -0.759424     0.005520
O     -0.822138    -1.501837    -2.665659
H     -1.334253    -0.730854    -2.392932
H     -0.712412    -1.982048    -1.835423
6
BHMC Sample 915
O     -0.383968     0.058151     0.022054
H     -0.232579    -0.890391     0.106179
H      0.317456     0.318631    -0.586003
O     -0.822138    -1.501837    -2.665659
H     -1.334253    -0.730854    -2.392932
H     -0.712412    -1.982048    -1.835423
6
BHMC Sample 916
O     -0.384833    -0.019909    -0.033593
H      0.070483     0.730261    -0.433171
H      0.028117    -0.063051     0.836574
O     -0.822138    -1.501837    -2.665659
H     -1.334253    -0.730854    -2.392932
H     -0.712412    -1.982048    -1.835423
6
BHMC Sample 917
O     -1.000484    -2.877416     0.042709
H     -1.454497    -2.159977     0.499745
H     -0.488904    -3.275881     0.756214
O     -0.822138    -1.501837    -2.665659
H     -1.334253    -0.730854    -2.392932
H     -0.712412    -1.982048    -1.835423
6
BHMC Sample 918
O     -0.788256     2.429351    -1.061161
H     -0.505230     2.151102    -1.939912
H     -1.520742     3.021826    -1.266142
O      0.134130    -0.096924    -0.367654
H     -0.377985     0.674059    -0.094927
H      0.243856    -0.577135     0.462581
6
BHMC Sample 919
O     -1.745356     1.909021    -0.828538
H     -1.643974     1.618179    -1.742245
H     -2.659486     2.215317    -0.817285
O      0.134130    -0.096924    -0.367654
H     -0.377985     0.674059    -0.094927
H      0.243856    -0.577135     0.462581
6
BHMC Sample 920
O      0.419325    -2.444604     1.106879
H      0.565402    -2.825339     0.233133
H      0.025387    -3.184524     1.583230
O      0.134130    -0.096924    -0.367654
H     -0.377985     0.674059    -0.094927
H      0.243856    -0.577135     0.462581
6
BHMC Sample 921
O      1.718454    -1.601258     1.362842
H      2.436069    -1.111333     0.944833
H      2.143444    -2.442538     1.565845
O      0.134130    -0.096924    -0.367654
H     -0.377985     0.674059    -0.094927
H      0.243856    -0.577135     0.462581
6
BHMC Sample 922
O      0.047682    -0.060995    -0.293910
H      0.765297     0.428930    -0.711918
H      0.472672    -0.902274    -0.090907
O      1.804901    -1.637187     1.289097
H      1.292786    -0.866205     1.561824
H      1.914627    -2.117399     2.119333
6
BHMC Sample 923
O     -0.380868     0.117118     0.071669
H      0.336747     0.607043    -0.346340
H      0.044122    -0.724161     0.274672
O      0.633280    -2.411689    -0.737496
H     -0.087066    -1.907658    -1.135127
H      0.409831    -3.319031    -0.979852
6
BHMC Sample 924
O      0.342536     2.848232    -0.630855
H      0.232934     3.191312     0.263579
H      0.793694     2.011597    -0.469369
O      0.314598     0.134437     0.213329
H     -0.405748     0.638468    -0.184302
H      0.091149    -0.772905    -0.029027
6
BHMC Sample 925
O      2.079105    -2.073040    -0.086940
H      2.145141    -2.227702     0.862506
H      1.900919    -1.126173    -0.122572
O      0.314598     0.134437     0.213329
H     -0.405748     0.638468    -0.184302
H      0.091149    -0.772905    -0.029027
6
BHMC Sample 926
O      0.342536     2.848232    -0.630855
H      0.232934     3.191312     0.263579
H      0.793694     2.011597    -0.469369
O      0.314598     0.134437     0.213329
H     -0.405748     0.638468    -0.184302
H      0.091149    -0.772905    -0.029027
6
BHMC Sample 927
O      2.079105    -2.073040    -0.086940
H      2.145141    -2.227702     0.862506
H      1.900919    -1.126173    -0.122572
O      0.314598     0.134437     0.213329
H     -0.405748     0.638468    -0.184302
H      0.091149    -0.772905    -0.029027
6
BHMC Sample 928
O      1.037019    -2.258028     1.566409
H      1.930272    -2.265845     1.203412
H      0.832665    -1.315805     1.572293
O      0.314598     0.134437     0.213329
H     -0.405748     0.638468    -0.184302
H      0.091149    -0.772905    -0.029027
6
BHMC Sample 929
O      2.079105    -2.073040    -0.086940
H      2.145141    -2.227702     0.862506
H      1.900919    -1.126173    -0.122572
O      0.314598     0.134437     0.213329
H     -0.405748     0.638468    -0.184302
H      0.091149    -0.772905    -0.029027
6
BHMC Sample 930
O      0.268065     0.067544     0.126389
H      0.334101    -0.087118     1.075835
H      0.089878     1.014411     0.090757
O      2.125639    -2.006147     0.000000
H      1.405293    -1.502116    -0.397631
H      1.902190    -2.913489    -0.242357
6
BHMC Sample 931
O      0.268065     0.067544     0.126389
H      0.334101    -0.087118     1.075835
H      0.089878     1.014411     0.090757
O      1.043706    -0.497022    -2.469989
H      1.116713    -0.673463    -1.524158
H      1.959089    -0.574709    -2.766591
6
BHMC Sample 932
O     -0.435301    -0.822022     0.190281
H     -0.369265    -0.976684     1.139727
H     -0.613488     0.124846     0.154649
O      1.043706    -0.497022    -2.469989
H      1.116713    -0.673463    -1.524158
H      1.959089    -0.574709    -2.766591
6
BHMC Sample 933
O      0.147394    -1.115768     0.406187
H      0.318859    -0.996573     1.347528
H     -0.575805    -0.496216     0.255461
O      1.043706    -0.497022    -2.469989
H      1.116713    -0.673463    -1.524158
H      1.959089    -0.574709    -2.766591
6
BHMC Sample 934
O      0.183911    -0.246249    -0.263538
H      0.355376    -0.127054     0.677802
H     -0.539287     0.373303    -0.414265
O     -1.096022    -1.998348    -2.443108
H     -0.654372    -1.773182    -1.615279
H     -0.989351    -2.957062    -2.480846
6
BHMC Sample 935
O      0.183911    -0.246249    -0.263538
H      0.355376    -0.127054     0.677802
H     -0.539287     0.373303    -0.414265
O      1.080223     0.372497    -3.139714
H      1.153230     0.196056    -2.193884
H      1.995606     0.294810    -3.436316
6
BHMC Sample 936
O      2.038912    -0.149810    -2.163903
H      2.964450     0.058133    -2.336727
H      1.583206     0.501223    -2.709858
O     -0.329463     0.084709    -0.216409
H     -0.256457    -0.091731     0.729421
H      0.585920     0.007022    -0.513012
6
BHMC Sample 937
O      1.373094     0.070081    -2.753199
H      1.977034     0.570467    -3.314091
H      0.543774     0.141965    -3.239654
O     -0.329463     0.084709    -0.216409
H     -0.256457    -0.091731     0.729421
H      0.585920     0.007022    -0.513012
6
BHMC Sample 938
O      1.788128    -0.735301    -2.285325
H      2.692035    -0.621901    -2.601268
H      1.287565    -0.211801    -2.921693
O     -0.329463     0.084709    -0.216409
H     -0.256457    -0.091731     0.729421
H      0.585920     0.007022    -0.513012
6
BHMC Sample 939
O      1.788128    -0.735301    -2.285325
H      2.692035    -0.621901    -2.601268
H      1.287565    -0.211801    -2.921693
O      0.813086    -1.783938     0.405180
H      1.374047    -1.925316     1.177443
H      1.343770    -1.179485    -0.128623
6
BHMC Sample 940
O      2.355768    -1.092382    -2.141528
H      1.983442    -0.814588    -2.986474
H      3.250621    -1.348646    -2.392816
O      0.813086    -1.783938     0.405180
H      1.374047    -1.925316     1.177443
H      1.343770    -1.179485    -0.128623
6
BHMC Sample 941
O      3.645866    -1.390683    -0.754007
H      4.168329    -2.030449    -1.251461
H      4.311040    -0.736561    -0.510598
O      0.813086    -1.783938     0.405180
H      1.374047    -1.925316     1.177443
H      1.343770    -1.179485    -0.128623
6
BHMC Sample 942
O      1.230496     2.483460     0.071796
H      0.935753     3.324852     0.439103
H      2.183552     2.615805     0.010570
O     -0.363882    -0.154358    -0.079487
H      0.197079    -0.295736     0.692777
H      0.166803     0.450095    -0.613289
6
BHMC Sample 943
O     -0.219437    -0.324579    -0.102027
H     -0.514181     0.516813     0.265281
H      0.733618    -0.192234    -0.163253
O     -1.752656    -2.997139    -0.274310
H     -1.713859    -2.841901     0.677243
H     -1.736502    -2.100407    -0.631444
6
BHMC Sample 944
O     -2.681619    -3.802089     2.511625
H     -3.283394    -4.521362     2.735777
H     -2.267966    -3.616036     3.362421
O     -1.752656    -2.997139    -0.274310
H     -1.713859    -2.841901     0.677243
H     -1.736502    -2.100407    -0.631444
6
BHMC Sample 945
O     -1.739055    -2.908442    -0.301197
H     -2.340830    -3.627714    -0.077045
H     -1.325402    -2.722389     0.549599
O     -2.695220    -3.890786     2.538512
H     -2.656423    -3.735549     3.490065
H     -2.679066    -2.994054     2.181378
6
BHMC Sample 946
O     -1.024584    -2.191875     2.157087
H     -1.461659    -1.342705     2.024402
H     -0.513417    -2.281883     1.344569
O     -0.018316    -0.350657    -0.198139
H      0.020480    -0.195419     0.753413
H     -0.002163     0.546076    -0.555274
6
BHMC Sample 947
O     -0.019387    -0.334273    -0.111992
H     -0.456462     0.514897    -0.244678
H      0.491779    -0.424281    -0.924511
O     -1.023513    -2.208259     2.070940
H     -0.984717    -2.053021     3.022493
H     -1.007360    -1.311527     1.713806
6
BHMC Sample 948
O     -0.024697    -0.253054     0.315068
H     -0.461772     0.596116     0.182383
H      0.486469    -0.343062    -0.497450
O     -2.326797    -1.736325    -1.842273
H     -2.475631    -2.689686    -1.845105
H     -1.417437    -1.669449    -1.525213
6
BHMC Sample 949
O     -2.288388    -1.828405    -1.771804
H     -2.725463    -0.979235    -1.904489
H     -1.777222    -1.918413    -2.584322
O     -0.063105    -0.160974     0.244598
H     -0.211940    -1.114335     0.241767
H      0.846254    -0.094098     0.561659
6
BHMC Sample 950
O      1.913327     2.869663    -0.793775
H      1.137419     3.391612    -1.028861
H      2.247924     2.609136    -1.659656
O     -0.253508     0.295495    -0.104743
H     -0.402343    -0.657866    -0.107574
H      0.655851     0.362371     0.212317
6
BHMC Sample 951
O     -2.478791    -1.371935    -2.121145
H     -2.915866    -0.522766    -2.253830
H     -1.967625    -1.461944    -2.933663
O     -0.253508     0.295495    -0.104743
H     -0.402343    -0.657866    -0.107574
H      0.655851     0.362371     0.212317
6
BHMC Sample 952
O     -2.553118    -2.043591    -1.168862
H     -3.157133    -1.306655    -1.316576
H     -2.237122    -2.224146    -2.061681
O     -0.253508     0.295495    -0.104743
H     -0.402343    -0.657866    -0.107574
H      0.655851     0.362371     0.212317
6
BHMC Sample 953
O     -0.509402    -1.687744    -2.041374
H     -1.113418    -0.950808    -2.189088
H     -0.193406    -1.868298    -2.934192
O     -0.253508     0.295495    -0.104743
H     -0.402343    -0.657866    -0.107574
H      0.655851     0.362371     0.212317
6
BHMC Sample 954
O      0.096007    -0.185461     0.346844
H     -0.508009     0.551475     0.199130
H      0.412003    -0.366015    -0.545974
O     -2.257995    -0.435981     1.811485
H     -1.313141    -0.453275     2.006443
H     -2.508748    -1.362023     1.918743
6
BHMC Sample 955
O      1.401207     1.171509     1.984783
H      0.835511     1.876227     1.648495
H      1.342145     1.306286     2.937634
O     -0.231367     0.314445    -0.100739
H      0.713487     0.297151     0.094219
H     -0.482120    -0.611596     0.006519
6
BHMC Sample 956
O      1.401207     1.171509     1.984783
H      0.835511     1.876227     1.648495
H      1.342145     1.306286     2.937634
O     -0.349070     0.202096     0.047281
H      0.602882     0.171841     0.201969
H     -0.618856    -0.705145     0.237181
6
BHMC Sample 957
O      1.401207     1.171509     1.984783
H      0.835511     1.876227     1.648495
H      1.342145     1.306286     2.937634
O      0.008643     2.192113    -0.233071
H      0.552821     1.416724    -0.049497
H     -0.874609     1.811002    -0.314029
6
BHMC Sample 958
O     -2.249906     0.405654     1.487226
H     -1.333666     0.699684     1.425750
H     -2.453471     0.580477     2.413281
O      0.113025     0.385500    -0.034205
H      0.657203    -0.389889     0.149368
H     -0.770228     0.004389    -0.115163
6
BHMC Sample 959
O      1.505588    -0.635105     2.183649
H      0.939893     0.069614     1.847361
H      1.446526    -0.500328     3.136500
O      0.113025     0.385500    -0.034205
H      0.657203    -0.389889     0.149368
H     -0.770228     0.004389    -0.115163
6
BHMC Sample 960
O      1.798351    -1.487578    -1.411213
H      1.364030    -0.626934    -1.430861
H      2.019472    -1.620335    -2.340223
O      0.113025     0.385500    -0.034205
H      0.657203    -0.389889     0.149368
H     -0.770228     0.004389    -0.115163
6
BHMC Sample 961
O      2.051902    -1.571070    -0.849749
H      1.659284    -0.706055    -1.015064
H      2.502406    -1.747964    -1.683616
O      0.113025     0.385500    -0.034205
H      0.657203    -0.389889     0.149368
H     -0.770228     0.004389    -0.115163
6
BHMC Sample 962
O     -0.019295    -0.229374     0.333060
H     -0.411914     0.635641     0.167746
H      0.431208    -0.406267    -0.500807
O     -1.218350     2.123319     1.464268
H     -0.956508     1.196759     1.527376
H     -0.573957     2.560153     2.035117
6
BHMC Sample 963
O     -0.019295    -0.229374     0.333060
H     -0.411914     0.635641     0.167746
H      0.431208    -0.406267    -0.500807
O     -0.106538     1.500698     3.931287
H      0.155303     0.574139     3.994395
H      0.537854     1.937533     4.502136
6
BHMC Sample 964
O      2.296933     1.790954     0.731364
H      1.891041     2.663207     0.795835
H      3.153218     1.998198     0.339695
O     -0.106538     1.500698     3.931287
H      0.155303     0.574139     3.994395
H      0.537854     1.937533     4.502136
6
BHMC Sample 965
O      2.205721     0.826377    -3.272611
H      1.439816     0.411898    -3.686528
H      2.923455     0.538422    -3.848387
O     -0.302078     0.163242    -0.211319
H     -0.040237    -0.763318    -0.148211
H      0.342315     0.600076     0.359530
6
BHMC Sample 966
O     -0.248676     0.175144    -0.120470
H     -1.014580    -0.239335    -0.534387
H      0.469058    -0.112812    -0.696246
O      2.152318     0.814475    -3.363460
H      2.414160    -0.112084    -3.300352
H      2.796711     1.251309    -2.792611
6
BHMC Sample 967
O      0.016057     0.234145     0.329897
H     -0.749848    -0.180334    -0.084019
H      0.733791    -0.053810    -0.245878
O      2.557853     2.923694    -0.024491
H      2.857351     2.545444     0.811143
H      3.143195     2.500685    -0.665095
6
BHMC Sample 968
O      0.016057     0.234145     0.329897
H     -0.749848    -0.180334    -0.084019
H      0.733791    -0.053810    -0.245878
O     -3.083801     2.234341    -0.767525
H     -3.160338     2.297168     0.192294
H     -3.662047     1.489189    -0.973230
6
BHMC Sample 969
O     -3.117743     2.235466    -0.669953
H     -3.883647     1.820987    -1.083869
H     -2.400009     1.947511    -1.245729
O      0.049999     0.233019     0.232326
H     -0.026538     0.295847     1.192144
H     -0.528248    -0.512132     0.026620
6
BHMC Sample 970
O     -3.117743     2.235466    -0.669953
H     -3.883647     1.820987    -1.083869
H     -2.400009     1.947511    -1.245729
O     -2.987945     1.554127    -4.519132
H     -2.185680     1.018694    -4.546313
H     -3.662459     0.905025    -4.283267
6
BHMC Sample 971
O     -3.066788     2.164291    -0.752245
H     -3.373495     3.066650    -0.898562
H     -3.718925     1.831536    -0.124894
O     -2.987945     1.554127    -4.519132
H     -2.185680     1.018694    -4.546313
H     -3.662459     0.905025    -4.283267
6
BHMC Sample 972
O      0.319615    -0.189868    -0.160345
H      0.012908     0.712491    -0.306661
H     -0.332523    -0.522623     0.467006
O      3.820355     1.103555     0.639553
H      4.319677     0.399596     0.208072
H      3.612310     0.713948     1.497957
6
BHMC Sample 973
O      2.775831     1.867280     1.871640
H      2.433705     2.754100     1.709687
H      2.874981     1.864121     2.830670
O     -0.097093     0.364522    -0.142308
H      0.402230    -0.339437    -0.573788
H     -0.305137    -0.025085     0.716096
6
BHMC Sample 974
O      2.775831     1.867280     1.871640
H      2.433705     2.754100     1.709687
H      2.874981     1.864121     2.830670
O     -0.113118     0.362523    -0.124088
H      0.834173     0.196180    -0.046456
H     -0.482730    -0.528971    -0.100420
6
BHMC Sample 975
O      2.963954     1.647837    -1.751924
H      2.609358     2.544424    -1.740782
H      3.199096     1.538182    -2.680505
O     -0.192560     0.352612    -0.033767
H      0.754731     0.186269     0.043865
H     -0.562172    -0.538882    -0.010099
6
BHMC Sample 976
O      2.963954     1.647837    -1.751924
H      2.609358     2.544424    -1.740782
H      3.199096     1.538182    -2.680505
O      1.437106    -0.288219     1.131787
H      2.331605    -0.137602     0.802783
H      1.438974    -1.236908     1.310451
6
BHMC Sample 977
O      2.970316     1.639709    -1.761691
H      2.214405     2.238296    -1.766322
H      3.493072     1.973324    -2.499936
O      1.437106    -0.288219     1.131787
H      2.331605    -0.137602     0.802783
H      1.438974    -1.236908     1.310451
6
BHMC Sample 978
O      0.077718    -0.310734     0.247625
H     -0.678193     0.287853     0.242995
H      0.600475     0.022881    -0.490620
O      0.533367     4.046228    -0.583224
H      0.340098     3.323382    -1.192484
H     -0.059082     4.742556    -0.893171
6
BHMC Sample 979
O     -1.599353    -0.383844     0.593951
H     -2.355264     0.214743     0.589321
H     -1.076597    -0.050229    -0.144293
O      0.533367     4.046228    -0.583224
H      0.340098     3.323382    -1.192484
H     -0.059082     4.742556    -0.893171
6
BHMC Sample 980
O      0.502449     3.992584    -0.593091
H     -0.253462     4.591171    -0.597721
H      1.025206     4.326200    -1.331335
O     -1.568436    -0.330200     0.603818
H     -1.761704    -1.053047    -0.005441
H     -2.160884     0.366128     0.293872
6
BHMC Sample 981
O      0.502449     3.992584    -0.593091
H     -0.253462     4.591171    -0.597721
H      1.025206     4.326200    -1.331335
O     -3.282958    -1.350966    -0.874443
H     -3.476227    -2.073812    -1.483702
H     -3.875407    -0.654638    -1.184389
6
BHMC Sample 982
O      0.554685     4.058849    -0.647228
H      0.101465     3.208136    -0.671881
H     -0.158804     4.657478    -0.397915
O     -3.282958    -1.350966    -0.874443
H     -3.476227    -2.073812    -1.483702
H     -3.875407    -0.654638    -1.184389
6
BHMC Sample 983
O      1.690115     0.978570     2.791968
H      0.981427     0.745926     2.180930
H      1.909162     0.122693     3.178065
O     -3.282958    -1.350966    -0.874443
H     -3.476227    -2.073812    -1.483702
H     -3.875407    -0.654638    -1.184389
6
BHMC Sample 984
O     -3.299525    -1.291543    -0.913289
H     -4.008213    -1.524187    -1.524327
H     -3.080478    -2.147420    -0.527192
O      1.706681     0.919147     2.830814
H      1.513413     0.196301     2.221555
H      1.114233     1.615475     2.520868
6
BHMC Sample 985
O     -3.299525    -1.291543    -0.913289
H     -4.008213    -1.524187    -1.524327
H     -3.080478    -2.147420    -0.527192
O      0.325648     0.753144     1.109640
H      0.132379     0.030298     0.500381
H     -0.266801     1.449472     0.799694
6
BHMC Sample 986
O     -3.299525    -1.291543    -0.913289
H     -4.008213    -1.524187    -1.524327
H     -3.080478    -2.147420    -0.527192
O      0.348264     0.763259     1.054616
H     -0.130963     0.170741     1.646494
H     -0.362427     1.148494     0.526935
6
BHMC Sample 987
O      0.163214     0.362840     0.074980
H     -0.545474     0.130197    -0.536058
H      0.382261    -0.493037     0.461077
O      0.519887    -4.897971     0.530764
H      0.536216    -4.388949     1.350329
H     -0.159328    -4.442770     0.017546
6
BHMC Sample 988
O      0.163214     0.362840     0.074980
H     -0.545474     0.130197    -0.536058
H      0.382261    -0.493037     0.461077
O     -3.790793    -2.474710    -2.011918
H     -2.940446    -2.930152    -2.035134
H     -3.540648    -1.559464    -2.189927
6
BHMC Sample 989
O      0.163214     0.362840     0.074980
H     -0.545474     0.130197    -0.536058
H      0.382261    -0.493037     0.461077
O     -3.373483    -1.533463     0.248552
H     -2.523136    -1.988905     0.225336
H     -3.123338    -0.618217     0.070543
6
BHMC Sample 990
O      0.163214     0.362840     0.074980
H     -0.545474     0.130197    -0.536058
H      0.382261    -0.493037     0.461077
O     -0.386673    -2.214742    -2.956193
H     -0.425128    -2.467452    -2.025755
H     -0.347466    -1.251382    -2.907872
6
BHMC Sample 991
O      0.163214     0.362840     0.074980
H     -0.545474     0.130197    -0.536058
H      0.382261    -0.493037     0.461077
O     -0.450908    -2.195515    -2.896237
H      0.267357    -2.582116    -3.411689
H     -0.020397    -1.441900    -2.473556
6
BHMC Sample 992
O      0.163214     0.362840     0.074980
H     -0.545474     0.130197    -0.536058
H      0.382261    -0.493037     0.461077
O     -0.957734    -3.444510     0.383796
H     -0.795388    -3.976548     1.172234
H     -0.339950    -2.711480     0.497573
6
BHMC Sample 993
O      0.163214     0.362840     0.074980
H     -0.545474     0.130197    -0.536058
H      0.382261    -0.493037     0.461077
O      1.785386     2.653000     1.644138
H      2.161655     2.596476     2.530864
H      1.655633     1.724375     1.414454
6
BHMC Sample 994
O      1.569717     1.147980     2.483757
H      1.755297     1.263997     3.422814
H      2.405396     1.411501     2.081545
O     -0.082172     0.328383    -0.219014
H      0.294097     0.271859     0.667712
H     -0.211925    -0.600242    -0.448698
6
BHMC Sample 995
O     -0.340420    -0.126513    -0.178948
H     -0.154839    -0.010496     0.760109
H      0.495260     0.137009    -0.581161
O     -1.204883     3.045560     1.562545
H     -1.038497     2.403183     0.862027
H     -2.028021     3.458887     1.273514
6
BHMC Sample 996
O     -0.340420    -0.126513    -0.178948
H     -0.154839    -0.010496     0.760109
H      0.495260     0.137009    -0.581161
O     -0.935288     3.468352     0.565418
H     -0.711435     2.659644     0.089039
H     -1.505199     3.928368    -0.063486
6
BHMC Sample 997
O     -0.340420    -0.126513    -0.178948
H     -0.154839    -0.010496     0.760109
H      0.495260     0.137009    -0.581161
O     -0.439799     3.580796    -0.456512
H     -0.601541     2.684582    -0.137613
H     -1.323201     3.969670    -0.438852
6
BHMC Sample 998
O     -0.340420    -0.126513    -0.178948
H     -0.154839    -0.010496     0.760109
H      0.495260     0.137009    -0.581161
O      1.277527     3.071529    -1.234288
H      0.709720     2.447832    -0.765617
H      0.670046     3.794471    -1.434929
6
BHMC Sample 999
O     -0.340420    -0.126513    -0.178948
H     -0.154839    -0.010496     0.760109
H      0.495260     0.137009    -0.581161
O      2.568197    -1.727343     1.735074
H      1.776662    -1.572283     1.205466
H      2.871278    -2.583916     1.408946
6
BHMC Sample 1000
O     -0.238443    -0.153427    -0.131882
H     -1.014407    -0.219774    -0.700394
H     -0.263758     0.773476     0.132295
O      2.568197    -1.727343     1.735074
H      1.776662    -1.572283     1.205466
H      2.871278    -2.583916     1.408946
6
BHMC Sample 1001
O      0.267093    -0.286852     0.101445
H     -0.508871    -0.353199    -0.467067
H      0.241778     0.640051     0.365621
O      3.395679    -1.722123     1.512796
H      2.588635    -1.573742     1.005135
H      3.450512    -2.685603     1.537979
6
BHMC Sample 1002
O      0.267093    -0.286852     0.101445
H     -0.508871    -0.353199    -0.467067
H      0.241778     0.640051     0.365621
O      3.109944    -0.804780    -2.293026
H      2.248426    -0.827975    -1.859084
H      3.134931    -1.654906    -2.749749
6
BHMC Sample 1003
O      1.422274    -2.901607    -1.598875
H      0.746246    -3.060981    -2.267692
H      2.199555    -2.721804    -2.140246
O      0.278844     0.291107     0.007594
H     -0.582674     0.267912     0.441536
H      0.303830    -0.559019    -0.449130
6
BHMC Sample 1004
O     -0.033751    -0.006810     0.403396
H     -0.709779    -0.166184    -0.265421
H      0.743530     0.172994    -0.137975
O     -0.691948     3.299149     2.052345
H      0.007436     3.640241     2.622938
H     -0.265124     2.542805     1.630801
6
BHMC Sample 1005
O      0.590112    -0.202237     1.518910
H      0.052603    -0.639611     0.848450
H      1.419071    -0.059562     1.047690
O     -0.691948     3.299149     2.052345
H      0.007436     3.640241     2.622938
H     -0.265124     2.542805     1.630801
6
BHMC Sample 1006
O     -0.097150     0.098233     0.380560
H     -0.634659    -0.339141    -0.289900
H      0.731809     0.240908    -0.090660
O     -1.848211     3.400559     0.845683
H     -2.692519     3.086456     1.191429
H     -1.495313     2.612838     0.413371
6
BHMC Sample 1007
O      0.282312     1.781390    -0.669368
H     -0.255197     1.344017    -1.339829
H      1.111271     1.924066    -1.140588
O     -1.848211     3.400559     0.845683
H     -2.692519     3.086456     1.191429
H     -1.495313     2.612838     0.413371
6
BHMC Sample 1008
O      0.138887     2.121533    -1.114421
H     -0.451566     1.602230    -1.672471
H      0.822507     2.386775    -1.740431
O     -1.848211     3.400559     0.845683
H     -2.692519     3.086456     1.191429
H     -1.495313     2.612838     0.413371
6
BHMC Sample 1009
O     -1.880920     3.353124     0.907091
H     -2.471372     2.833821     0.349041
H     -1.197300     3.618366     0.281081
O      0.171596     2.168968    -1.175829
H     -0.672712     1.854865    -0.830084
H      0.524494     1.381247    -1.608141
6
BHMC Sample 1010
O     -1.880920     3.353124     0.907091
H     -2.471372     2.833821     0.349041
H     -1.197300     3.618366     0.281081
O     -0.064403     1.568916    -0.951776
H     -0.889447     1.407765    -0.478079
H      0.213764     0.676543    -1.193081
6
BHMC Sample 1011
O      2.259354    -0.030018     0.503234
H      1.874802     0.583756     1.139733
H      2.299369     0.509660    -0.294716
O     -0.064403     1.568916    -0.951776
H     -0.889447     1.407765    -0.478079
H      0.213764     0.676543    -1.193081
6
BHMC Sample 1012
O      2.273351    -0.024556     0.489594
H      2.453539     0.810477     0.042402
H      1.498478     0.196250     1.019118
O     -0.064403     1.568916    -0.951776
H     -0.889447     1.407765    -0.478079
H      0.213764     0.676543    -1.193081
6
BHMC Sample 1013
O      0.198228    -0.351947    -0.027444
H      0.378417     0.483087    -0.474636
H     -0.576645    -0.131140     0.502080
O     -0.395303     1.298759     2.536401
H     -0.614282     0.624042     3.190513
H      0.498875     1.048728     2.272084
6
BHMC Sample 1014
O      0.198228    -0.351947    -0.027444
H      0.378417     0.483087    -0.474636
H     -0.576645    -0.131140     0.502080
O      1.448123     1.130913    -2.415157
H      2.157751     1.655271    -2.024602
H      1.691094     0.231724    -2.161469
6
BHMC Sample 1015
O      0.198228    -0.351947    -0.027444
H      0.378417     0.483087    -0.474636
H     -0.576645    -0.131140     0.502080
O      2.221560     1.489957    -1.433075
H      1.906392     1.538586    -2.343768
H      2.360087     0.542282    -1.312008
6
BHMC Sample 1016
O      0.198228    -0.351947    -0.027444
H      0.378417     0.483087    -0.474636
H     -0.576645    -0.131140     0.502080
O     -1.556355    -0.938730     2.430134
H     -2.398048    -1.228586     2.057854
H     -0.934285    -1.575553     2.056742
6
BHMC Sample 1017
O      0.198228    -0.351947    -0.027444
H      0.378417     0.483087    -0.474636
H     -0.576645    -0.131140     0.502080
O     -0.969151    -0.257976     2.824916
H     -1.625039    -0.965695     2.826207
H     -0.156649    -0.728785     2.601054
6
BHMC Sample 1018
O     -1.912606    -0.192222    -2.314336
H     -2.464259     0.524110    -2.649415
H     -1.124902     0.282029    -2.024187
O     -0.052205     0.392843     0.074190
H     -0.708093    -0.314876     0.075482
H      0.760297    -0.077966    -0.149672
6
BHMC Sample 1019
O     -0.332866     0.364773    -2.991751
H     -0.973938     0.957952    -3.400277
H     -0.051028     0.874684    -2.223547
O     -0.052205     0.392843     0.074190
H     -0.708093    -0.314876     0.075482
H      0.760297    -0.077966    -0.149672
6
BHMC Sample 1020
O     -0.635866     0.797021    -2.910974
H     -1.377767     1.358565    -3.163916
H     -0.339561     1.214513    -2.093978
O     -0.052205     0.392843     0.074190
H     -0.708093    -0.314876     0.075482
H      0.760297    -0.077966    -0.149672
6
BHMC Sample 1021
O     -0.635866     0.797021    -2.910974
H     -1.377767     1.358565    -3.163916
H     -0.339561     1.214513    -2.093978
O     -3.318388     2.063691    -2.000014
H     -3.686011     1.172329    -1.962830
H     -2.983708     2.187453    -1.103015
6
BHMC Sample 1022
O     -2.787953     1.321800     0.500995
H     -2.121438     1.284000    -0.194748
H     -2.275672     1.647385     1.250089
O      0.010981     0.255867    -0.311394
H     -0.356642    -0.635495    -0.274210
H      0.345661     0.379629     0.585605
6
BHMC Sample 1023
O     -0.392932    -0.095928    -0.017784
H      0.273583    -0.133728    -0.713527
H      0.119349     0.229656     0.731310
O      2.132423    -0.516338     1.736124
H      1.735468    -1.338492     2.048448
H      2.644166    -0.810366     0.972187
6
BHMC Sample 1024
O     -0.392932    -0.095928    -0.017784
H      0.273583    -0.133728    -0.713527
H      0.119349     0.229656     0.731310
O      1.521609     2.120662     1.007700
H      0.789910     2.743660     0.920827
H      1.950724     2.183355     0.145225
6
BHMC Sample 1025
O     -0.358298    -0.322765     0.919004
H     -0.000846    -0.375585     0.025042
H      0.357927     0.113797     1.394413
O      1.521609     2.120662     1.007700
H      0.789910     2.743660     0.920827
H      1.950724     2.183355     0.145225
6
BHMC Sample 1026
O     -0.357892    -0.127914     0.139517
H     -0.000440    -0.180734    -0.754444
H      0.358332     0.308648     0.614927
O      1.770252    -0.268089     2.127098
H      1.782752    -1.232829     2.140408
H      2.622735    -0.055251     1.727215
6
BHMC Sample 1027
O     -0.357892    -0.127914     0.139517
H     -0.000440    -0.180734    -0.754444
H      0.358332     0.308648     0.614927
O     -0.100094    -1.429413    -2.444725
H     -1.041536    -1.635495    -2.492393
H      0.002624    -0.767397    -3.139791
6
BHMC Sample 1028
O     -0.357892    -0.127914     0.139517
H     -0.000440    -0.180734    -0.754444
H      0.358332     0.308648     0.614927
O      0.135866    -2.605760    -3.764802
H     -0.805577    -2.811841    -3.812470
H      0.238583    -1.943743    -4.459868
6
BHMC Sample 1029
O      0.028861    -2.601720    -3.782941
H      0.386313    -2.654540    -4.676902
H      0.745085    -2.165158    -3.307531
O     -0.250887    -0.131954     0.157656
H     -1.192330    -0.338035     0.109988
H     -0.148169     0.530063    -0.537410
6
BHMC Sample 1030
O     -0.357892    -0.127914     0.139517
H     -0.000440    -0.180734    -0.754444
H      0.358332     0.308648     0.614927
O     -2.719095    -0.496252    -3.859850
H     -3.499224    -0.482379    -3.292169
H     -2.427294     0.423585    -3.833633
6
BHMC Sample 1031
O     -0.357892    -0.127914     0.139517
H     -0.000440    -0.180734    -0.754444
H      0.358332     0.308648     0.614927
O     -0.637640     2.341853     4.080114
H     -1.579082     2.135771     4.032446
H     -0.534922     3.003869     3.385048
6
BHMC Sample 1032
O     -0.268562    -0.106977     0.177437
H     -1.192951    -0.251216    -0.055864
H      0.132985     0.046818    -0.685515
O     -0.637640     2.341853     4.080114
H     -1.579082     2.135771     4.032446
H     -0.534922     3.003869     3.385048
6
BHMC Sample 1033
O     -0.655314     2.366829     4.099895
H     -1.579703     2.222590     3.866594
H     -0.253768     2.520625     3.236943
O     -0.250887    -0.131954     0.157656
H     -1.192330    -0.338035     0.109988
H     -0.148169     0.530063    -0.537410
6
BHMC Sample 1034
O     -3.396603    -3.441476    -1.063134
H     -2.643714    -3.961803    -0.759577
H     -2.963295    -2.718668    -1.531505
O     -0.250887    -0.131954     0.157656
H     -1.192330    -0.338035     0.109988
H     -0.148169     0.530063    -0.537410
6
BHMC Sample 1035
O     -0.364188    -0.117772     0.125320
H      0.388701    -0.638099     0.428877
H      0.069120     0.605036    -0.343052
O     -3.283302    -3.455658    -1.030797
H     -4.224745    -3.661739    -1.078466
H     -3.180584    -2.793641    -1.725864
6
BHMC Sample 1036
O     -3.396603    -3.441476    -1.063134
H     -2.643714    -3.961803    -0.759577
H     -2.963295    -2.718668    -1.531505
O     -0.250887    -0.131954     0.157656
H     -1.192330    -0.338035     0.109988
H     -0.148169     0.530063    -0.537410
6
BHMC Sample 1037
O     -0.364188    -0.117772     0.125320
H      0.388701    -0.638099     0.428877
H      0.069120     0.605036    -0.343052
O     -3.283302    -3.455658    -1.030797
H     -4.224745    -3.661739    -1.078466
H     -3.180584    -2.793641    -1.725864
6
BHMC Sample 1038
O     -3.015121     2.939052     2.150116
H     -3.406857     3.458268     1.438297
H     -2.882910     3.606036     2.833659
O      0.279575    -0.151978     0.247578
H     -0.661868    -0.358060     0.199910
H      0.382293     0.510038    -0.447488
6
BHMC Sample 1039
O     -3.015121     2.939052     2.150116
H     -3.406857     3.458268     1.438297
H     -2.882910     3.606036     2.833659
O      0.284913    -0.094554     0.234830
H     -0.348169    -0.702001     0.636418
H     -0.016126    -0.057457    -0.681649
6
BHMC Sample 1040
O      2.927003    -3.624653     2.262239
H      3.571850    -3.208135     2.845688
H      3.456345    -4.308829     1.836470
O      0.284913    -0.094554     0.234830
H     -0.348169    -0.702001     0.636418
H     -0.016126    -0.057457    -0.681649
6
BHMC Sample 1041
O      2.927003    -3.624653     2.262239
H      3.571850    -3.208135     2.845688
H      3.456345    -4.308829     1.836470
O     -1.536186    -2.840323     3.972884
H     -0.968676    -2.228384     4.457156
H     -1.975131    -3.323108     4.684348
6
BHMC Sample 1042
O     -1.594692    -2.818120     4.030967
H     -0.949845    -2.401602     4.614416
H     -1.065351    -3.502296     3.605198
O      2.985509    -3.646856     2.204156
H      3.553019    -3.034917     2.688428
H      2.546564    -4.129641     2.915620
6
BHMC Sample 1043
O      1.174665    -4.554232     1.381642
H      1.541939    -3.882057     1.967322
H      0.445696    -4.079456     0.965985
O     -0.042855    -0.043051    -0.398578
H      0.524655     0.568888     0.085693
H     -0.481800    -0.525836     0.312885
6
BHMC Sample 1044
O      0.120565    -0.382317    -0.056674
H      0.487839     0.289858     0.529006
H     -0.608404     0.092459    -0.472332
O     -3.443475     2.974324     0.959626
H     -3.094906     3.478539     1.704826
H     -2.737300     3.054964     0.306366
6
BHMC Sample 1045
O     -3.287634     3.494479     1.004925
H     -3.628833     2.826824     0.398668
H     -2.565036     3.022564     1.434724
O     -0.351581    -0.194952    -0.030647
H     -0.003012     0.309264     0.714553
H      0.354594    -0.114312    -0.683907
6
BHMC Sample 1046
O      4.215102     1.394979    -0.837763
H      3.792802     0.924815    -1.566005
H      3.456672     1.655918    -0.302718
O     -0.351581    -0.194952    -0.030647
H     -0.003012     0.309264     0.714553
H      0.354594    -0.114312    -0.683907
6
BHMC Sample 1047
O      4.242619    -1.239326     3.291336
H      3.526581    -1.080135     3.917177
H      4.799614    -1.857087     3.778887
O      2.763648    -0.834607    -2.211580
H      2.915002    -0.525216    -3.112927
H      2.842501    -0.021431    -1.697323
6
BHMC Sample 1048
O      0.053014     0.152857    -0.371131
H     -0.663023     0.312048     0.254710
H      0.610009    -0.464904     0.116421
O      1.211675     4.521661    -3.864595
H      1.399675     4.886128    -4.738023
H      0.408678     4.009508    -4.022166
6
BHMC Sample 1049
O      1.186163     4.539056    -3.984581
H      0.470125     4.698247    -3.358740
H      1.743158     3.921295    -3.497029
O      0.078527     0.135462    -0.251145
H      0.266527     0.499929    -1.124573
H     -0.724471    -0.376691    -0.408716
6
BHMC Sample 1050
O      3.662598     1.049639    -4.304046
H      3.679222     0.147800    -3.963254
H      3.442682     1.556990    -3.514230
O      0.204999     0.049229     0.343666
H      0.392999     0.413696    -0.529761
H     -0.597998    -0.462924     0.186095
6
BHMC Sample 1051
O      3.662598     1.049639    -4.304046
H      3.679222     0.147800    -3.963254
H      3.442682     1.556990    -3.514230
O      1.589420     1.649635     0.663755
H      1.777421     2.014102    -0.209673
H      0.786423     1.137483     0.506183
6
BHMC Sample 1052
O     -2.175750    -4.492497    -1.399872
H     -1.267852    -4.605557    -1.704287
H     -2.098632    -3.722271    -0.825083
O      0.204999     0.049229     0.343666
H      0.392999     0.413696    -0.529761
H     -0.597998    -0.462924     0.186095
6
BHMC Sample 1053
O     -2.175750    -4.492497    -1.399872
H     -1.267852    -4.605557    -1.704287
H     -2.098632    -3.722271    -0.825083
O      1.117495    -0.700226    -0.303274
H      1.305495    -0.335759    -1.176702
H      0.314497    -1.212379    -0.460846
6
BHMC Sample 1054
O     -0.328338    -0.219055    -0.090125
H      0.579559    -0.332116    -0.394540
H     -0.251221     0.551171     0.484665
O      3.265402     2.606340     2.261784
H      3.775121     1.935644     2.732325
H      2.449444     2.135888     2.050071
6
BHMC Sample 1055
O      3.348777     1.160364    -3.399085
H      3.656922     1.084029    -2.488619
H      2.480556     0.743871    -3.351083
O      0.102080     0.380383    -0.086276
H      0.611799    -0.290313     0.384265
H     -0.713878    -0.090069    -0.297989
6
BHMC Sample 1056
O      0.186692     0.164276    -0.319489
H      0.494837     0.087941     0.590977
H     -0.681529    -0.252217    -0.271488
O     -1.771678    -0.243110     3.937606
H     -2.077121    -1.149558     3.810670
H     -1.221461    -0.318452     4.727238
6
BHMC Sample 1057
O     -0.082248     1.225976    -1.077225
H      0.225898     1.149641    -0.166759
H     -0.950469     0.809483    -1.029223
O     -1.771678    -0.243110     3.937606
H     -2.077121    -1.149558     3.810670
H     -1.221461    -0.318452     4.727238
6
BHMC Sample 1058
O     -0.082248     1.225976    -1.077225
H      0.225898     1.149641    -0.166759
H     -0.950469     0.809483    -1.029223
O     -0.938021     0.927825     2.590538
H     -1.243464     0.021377     2.463602
H     -0.387805     0.852483     3.380170
6
BHMC Sample 1059
O     -0.014213    -2.031036     0.325763
H      0.269419    -1.256583     0.825269
H     -0.810837    -2.293816     0.801069
O     -0.938021     0.927825     2.590538
H     -1.243464     0.021377     2.463602
H     -0.387805     0.852483     3.380170
6
BHMC Sample 1060
O      0.343715    -2.084684     0.577141
H      0.529023    -1.242653     1.008853
H     -0.419624    -2.399859     1.074692
O     -0.938021     0.927825     2.590538
H     -1.243464     0.021377     2.463602
H     -0.387805     0.852483     3.380170
6
BHMC Sample 1061
O      0.192677    -0.175618    -0.309754
H      0.377985     0.666412     0.121957
H     -0.570662    -0.490794     0.187797
O     -2.896498     0.632497     1.829382
H     -2.076774     1.098328     1.624171
H     -2.669992     0.162351     2.641535
6
BHMC Sample 1062
O      0.192677    -0.175618    -0.309754
H      0.377985     0.666412     0.121957
H     -0.570662    -0.490794     0.187797
O     -2.892861     0.534904     1.868466
H     -2.088026     1.023874     1.658215
H     -2.645109     0.064581     2.674288
6
BHMC Sample 1063
O      0.192677    -0.175618    -0.309754
H      0.377985     0.666412     0.121957
H     -0.570662    -0.490794     0.187797
O     -1.900932    -0.218833     2.912817
H     -1.253899     0.390045     2.536425
H     -2.735535     0.133294     2.579083
6
BHMC Sample 1064
O     -1.262335     3.543060     3.494641
H     -1.703267     3.219340     4.288690
H     -1.388388     2.808294     2.883242
O     -1.900932    -0.218833     2.912817
H     -1.253899     0.390045     2.536425
H     -2.735535     0.133294     2.579083
6
BHMC Sample 1065
O     -1.262335     3.543060     3.494641
H     -1.703267     3.219340     4.288690
H     -1.388388     2.808294     2.883242
O     -1.955263    -0.165197     2.924646
H     -1.965599     0.373187     2.123964
H     -1.161493    -0.701162     2.803798
6
BHMC Sample 1066
O     -1.879703    -0.105836     2.862863
H     -2.320635    -0.429555     3.656912
H     -2.005756    -0.840602     2.251465
O     -1.337896     3.483699     3.556424
H     -1.348232     4.022083     2.755742
H     -0.544125     2.947733     3.435576
6
BHMC Sample 1067
O     -1.847792    -0.148899     2.890631
H     -2.553298    -0.516514     3.435470
H     -2.279576    -0.070149     2.032179
O     -1.337896     3.483699     3.556424
H     -1.348232     4.022083     2.755742
H     -0.544125     2.947733     3.435576
6
BHMC Sample 1068
O      2.627699     0.746076     2.542303
H      2.343667     0.921555     3.446881
H      2.823271     1.633212     2.219317
O     -0.261145    -0.000806     0.307177
H     -0.271481     0.537578    -0.493505
H      0.532626    -0.536772     0.186329
6
BHMC Sample 1069
O      2.547191     0.679695     2.658797
H      2.231060     0.845644     3.554481
H      2.764891     1.568954     2.356468
O     -0.261145    -0.000806     0.307177
H     -0.271481     0.537578    -0.493505
H      0.532626    -0.536772     0.186329
6
BHMC Sample 1070
O      0.032810    -0.351736    -0.197785
H     -0.283321    -0.185787     0.697899
H      0.250511     0.537523    -0.500114
O     -3.168392    -1.564700    -1.667792
H     -3.817930    -1.892647    -1.034067
H     -2.460627    -2.217232    -1.595638
6
BHMC Sample 1071
O      0.032810    -0.351736    -0.197785
H     -0.283321    -0.185787     0.697899
H      0.250511     0.537523    -0.500114
O     -0.726546    -2.522349     2.759529
H     -1.139780    -2.084522     3.513586
H      0.158329    -2.136457     2.755162
6
BHMC Sample 1072
O     -0.694648    -2.535302     2.768277
H     -1.010780    -2.369353     3.663961
H     -0.476948    -1.646042     2.465948
O      0.000913    -0.338784    -0.206533
H     -0.412321     0.099044     0.547524
H      0.885787     0.047108    -0.210899
6
BHMC Sample 1073
O     -0.694648    -2.535302     2.768277
H     -1.010780    -2.369353     3.663961
H     -0.476948    -1.646042     2.465948
O     -2.603051    -1.126273    -0.142151
H     -3.026121    -1.042126     0.720975
H     -2.386917    -0.210322    -0.357222
6
BHMC Sample 1074
O     -0.694648    -2.535302     2.768277
H     -1.010780    -2.369353     3.663961
H     -0.476948    -1.646042     2.465948
O     -2.803299    -1.321892    -0.088617
H     -3.192297    -1.235586     0.790183
H     -2.648945    -0.402207    -0.338195
6
BHMC Sample 1075
O     -0.694648    -2.535302     2.768277
H     -1.010780    -2.369353     3.663961
H     -0.476948    -1.646042     2.465948
O     -2.807186    -1.259692     0.013373
H     -3.459806    -0.823103    -0.547460
H     -2.319753    -1.801930    -0.619337
6
BHMC Sample 1076
O     -1.321988     1.754905     3.368911
H     -1.047456     1.413856     4.228007
H     -0.498901     2.124528     3.029082
O      0.055062     0.035216     0.397848
H     -0.597558     0.471805    -0.162985
H      0.542495    -0.507022    -0.234862
6
BHMC Sample 1077
O     -0.365873    -0.009525    -0.173089
H     -0.091341    -0.350574     0.686007
H      0.457214     0.360098    -0.512918
O     -0.503076    -3.690308     0.163999
H     -1.461208    -3.649384     0.270609
H     -0.329050    -4.638436     0.215982
6
BHMC Sample 1078
O     -0.365873    -0.009525    -0.173089
H     -0.091341    -0.350574     0.686007
H      0.457214     0.360098    -0.512918
O     -0.570297    -3.759365     0.112041
H      0.333521    -3.544793     0.373055
H     -1.056856    -3.646956     0.938212
6
BHMC Sample 1079
O     -2.638217    -2.283928     1.225889
H     -2.512365    -2.158607     0.278163
H     -3.515168    -1.907051     1.361905
O     -0.139086    -0.108993    -0.362395
H      0.764732     0.105578    -0.101381
H     -0.625646     0.003415     0.463776
6
BHMC Sample 1080
O      2.351832    -2.805991    -0.090518
H      1.422870    -2.917062    -0.323803
H      2.404702    -3.279575     0.747636
O     -0.139086    -0.108993    -0.362395
H      0.764732     0.105578    -0.101381
H     -0.625646     0.003415     0.463776
6
BHMC Sample 1081
O      0.292031     0.194885    -0.201623
H     -0.636931     0.083814    -0.434908
H      0.344901    -0.278699     0.636531
O     -0.945872    -3.536450     0.145393
H     -0.951349    -3.149873    -0.738679
H     -0.122527    -4.040471     0.146124
6
BHMC Sample 1082
O      0.292031     0.194885    -0.201623
H     -0.636931     0.083814    -0.434908
H      0.344901    -0.278699     0.636531
O     -2.152756     1.006402     2.788385
H     -2.205864     1.572267     2.008620
H     -1.601790     1.527648     3.385607
6
BHMC Sample 1083
O      0.292031     0.194885    -0.201623
H     -0.636931     0.083814    -0.434908
H      0.344901    -0.278699     0.636531
O     -2.362251     1.061034     2.588303
H     -2.385345     1.585346     1.778600
H     -1.868300     1.631361     3.190526
6
BHMC Sample 1084
O      3.687642    -1.127629     0.533290
H      3.130415    -1.206408     1.316246
H      3.197409    -1.648392    -0.113283
O     -0.156953    -0.364880     0.069160
H     -0.180046     0.159433    -0.740543
H      0.336999     0.205447     0.671383
6
BHMC Sample 1085
O     -3.260693     0.114546     2.123537
H     -3.010934    -0.767773     1.825439
H     -3.305057     0.600572     1.292039
O     -0.156953    -0.364880     0.069160
H     -0.180046     0.159433    -0.740543
H      0.336999     0.205447     0.671383
6
BHMC Sample 1086
O     -0.068465     0.132098     0.376532
H      0.181294    -0.750221     0.078434
H     -0.112829     0.618123    -0.454966
O     -2.171624    -1.656561    -2.165307
H     -2.256169    -1.147699    -2.980763
H     -2.971969    -1.411673    -1.684253
6
BHMC Sample 1087
O     -2.313887    -1.050555     1.337940
H     -2.064127    -1.932874     1.039842
H     -2.358250    -0.564530     0.506442
O     -2.171624    -1.656561    -2.165307
H     -2.256169    -1.147699    -2.980763
H     -2.971969    -1.411673    -1.684253
6
BHMC Sample 1088
O     -2.313887    -1.050555     1.337940
H     -2.064127    -1.932874     1.039842
H     -2.358250    -0.564530     0.506442
O     -2.696558    -3.290417    -1.393288
H     -3.036042    -3.269704    -2.296270
H     -3.426307    -2.909881    -0.888716
6
BHMC Sample 1089
O     -2.313887    -1.050555     1.337940
H     -2.064127    -1.932874     1.039842
H     -2.358250    -0.564530     0.506442
O     -2.720430    -3.232303    -1.370683
H     -2.458727    -3.539925    -2.247003
H     -3.624722    -3.562040    -1.296763
6
BHMC Sample 1090
O     -2.767877    -3.245791    -1.352376
H     -2.518118    -4.128110    -1.650474
H     -2.812241    -2.759766    -2.183874
O     -2.266439    -1.037067     1.319632
H     -2.004737    -1.344689     0.443312
H     -3.170731    -1.366804     1.393553
6
BHMC Sample 1091
O     -2.313887    -1.050555     1.337940
H     -2.064127    -1.932874     1.039842
H     -2.358250    -0.564530     0.506442
O     -2.720430    -3.232303    -1.370683
H     -2.458727    -3.539925    -2.247003
H     -3.624722    -3.562040    -1.296763
6
BHMC Sample 1092
O     -2.334804    -1.049697     1.329851
H     -1.855863    -0.554130     0.655494
H     -2.234510    -1.956894     1.019184
O     -2.720430    -3.232303    -1.370683
H     -2.458727    -3.539925    -2.247003
H     -3.624722    -3.562040    -1.296763
6
BHMC Sample 1093
O     -1.730370    -0.588986     0.683514
H     -1.351139    -0.286624    -0.149848
H     -1.738206    -1.545578     0.563317
O     -2.720430    -3.232303    -1.370683
H     -2.458727    -3.539925    -2.247003
H     -3.624722    -3.562040    -1.296763
6
BHMC Sample 1094
O     -2.777166    -3.231359    -1.362226
H     -2.397935    -2.928998    -2.195587
H     -2.785002    -4.187952    -1.482422
O     -1.673634    -0.589930     0.675056
H     -1.411931    -0.897551    -0.201264
H     -2.577926    -0.919667     0.748976
6
BHMC Sample 1095
O     -2.689114    -3.260093    -1.409984
H     -3.356453    -2.615024    -1.671277
H     -3.224033    -4.045862    -1.248716
O     -1.673634    -0.589930     0.675056
H     -1.411931    -0.897551    -0.201264
H     -2.577926    -0.919667     0.748976
6
BHMC Sample 1096
O     -2.476580    -2.849125    -2.341332
H     -3.143919    -2.204056    -2.602625
H     -3.011499    -3.634894    -2.180065
O     -1.673634    -0.589930     0.675056
H     -1.411931    -0.897551    -0.201264
H     -2.577926    -0.919667     0.748976
6
BHMC Sample 1097
O     -2.476580    -2.849125    -2.341332
H     -3.143919    -2.204056    -2.602625
H     -3.011499    -3.634894    -2.180065
O     -0.149250    -0.656948     0.411407
H      0.112452    -0.964570    -0.464913
H     -1.053542    -0.986685     0.485327
6
BHMC Sample 1098
O     -2.601807    -2.838462    -2.377196
H     -2.052751    -2.340957    -1.760142
H     -2.115065    -3.667236    -2.453317
O     -0.149250    -0.656948     0.411407
H      0.112452    -0.964570    -0.464913
H     -1.053542    -0.986685     0.485327
6
BHMC Sample 1099
O     -2.963435     2.506241     0.512664
H     -2.322711     1.786447     0.479502
H     -3.588576     2.248231    -0.174510
O     -0.149250    -0.656948     0.411407
H      0.112452    -0.964570    -0.464913
H     -1.053542    -0.986685     0.485327
6
BHMC Sample 1100
O     -2.963435     2.506241     0.512664
H     -2.322711     1.786447     0.479502
H     -3.588576     2.248231    -0.174510
O      1.175317    -2.138231     0.010831
H      1.437020    -2.445853    -0.865489
H      0.271025    -2.467968     0.084751
6
BHMC Sample 1101
O     -0.487274     3.832881     0.521116
H     -0.208481     2.910805     0.478923
H     -1.382056     3.786906     0.164985
O      1.175317    -2.138231     0.010831
H      1.437020    -2.445853    -0.865489
H      0.271025    -2.467968     0.084751
6
BHMC Sample 1102
O     -0.487274     3.832881     0.521116
H     -0.208481     2.910805     0.478923
H     -1.382056     3.786906     0.164985
O      3.417783    -2.398299    -0.465260
H      3.679486    -2.705921    -1.341580
H      2.513492    -2.728036    -0.391340
6
BHMC Sample 1103
O     -0.495260     3.802450     0.556743
H     -1.369724     3.956390     0.180784
H     -0.094066     3.224317    -0.102336
O      3.417783    -2.398299    -0.465260
H      3.679486    -2.705921    -1.341580
H      2.513492    -2.728036    -0.391340
6
BHMC Sample 1104
O      3.408309    -2.410226    -0.452243
H      2.533846    -2.256286    -0.828202
H      3.809503    -2.988359    -1.111321
O     -0.485786     3.814377     0.543726
H     -0.224083     3.506756    -0.332594
H     -1.390078     3.484640     0.617646
6
BHMC Sample 1105
O      3.408309    -2.410226    -0.452243
H      2.533846    -2.256286    -0.828202
H      3.809503    -2.988359    -1.111321
O     -1.499897     3.149923    -0.194182
H     -1.515528     2.484925    -0.893174
H     -2.156289     2.812192     0.427928
6
BHMC Sample 1106
O      3.408309    -2.410226    -0.452243
H      2.533846    -2.256286    -0.828202
H      3.809503    -2.988359    -1.111321
O     -1.491948     3.120940    -0.156415
H     -1.927497     3.524208    -0.917157
H     -1.870482     2.232927    -0.147527
6
BHMC Sample 1107
O      3.408309    -2.410226    -0.452243
H      2.533846    -2.256286    -0.828202
H      3.809503    -2.988359    -1.111321
O     -0.267306     4.348344     0.360716
H     -0.702855     4.751612    -0.400026
H     -0.645840     3.460330     0.369604
6
BHMC Sample 1108
O      3.408309    -2.410226    -0.452243
H      2.533846    -2.256286    -0.828202
H      3.809503    -2.988359    -1.111321
O      0.600344     4.398112    -1.079339
H      0.164795     4.801380    -1.840081
H      0.221810     3.510099    -1.070451
6
BHMC Sample 1109
O      3.408309    -2.410226    -0.452243
H      2.533846    -2.256286    -0.828202
H      3.809503    -2.988359    -1.111321
O     -0.524966     4.318105     1.012893
H     -0.960515     4.721373     0.252151
H     -0.903500     3.430092     1.021781
6
BHMC Sample 1110
O      3.442884    -2.452274    -0.486588
H      2.931999    -1.656931    -0.296443
H      2.862587    -2.920322    -1.097952
O     -0.524966     4.318105     1.012893
H     -0.960515     4.721373     0.252151
H     -0.903500     3.430092     1.021781
6
BHMC Sample 1111
O      3.442884    -2.452274    -0.486588
H      2.931999    -1.656931    -0.296443
H      2.862587    -2.920322    -1.097952
O     -2.534337     2.184663     2.105263
H     -3.366108     2.099002     1.623728
H     -2.360233     1.276186     2.381474
6
BHMC Sample 1112
O      3.442884    -2.452274    -0.486588
H      2.931999    -1.656931    -0.296443
H      2.862587    -2.920322    -1.097952
O     -1.979247     2.785146    -0.272910
H     -2.811018     2.699485    -0.754445
H     -1.805143     1.876669     0.003300
6
BHMC Sample 1113
O      3.442884    -2.452274    -0.486588
H      2.931999    -1.656931    -0.296443
H      2.862587    -2.920322    -1.097952
O     -1.684567     3.069601    -0.229221
H     -2.548443     3.004280    -0.654085
H     -1.539142     2.168254     0.084403
6
BHMC Sample 1114
O      3.387404    -2.389100    -0.459413
H      4.072675    -2.732950    -1.044135
H      2.602488    -2.847014    -0.781593
O     -1.684567     3.069601    -0.229221
H     -2.548443     3.004280    -0.654085
H     -1.539142     2.168254     0.084403
6
BHMC Sample 1115
O      3.428810    -2.435200    -0.461067
H      2.507430    -2.717412    -0.427218
H      3.510540    -2.130840    -1.372255
O     -1.684567     3.069601    -0.229221
H     -2.548443     3.004280    -0.654085
H     -1.539142     2.168254     0.084403
6
BHMC Sample 1116
O      3.428810    -2.435200    -0.461067
H      2.507430    -2.717412    -0.427218
H      3.510540    -2.130840    -1.372255
O     -3.410569    -2.974118    -3.609843
H     -3.579127    -3.489093    -4.408245
H     -2.750691    -3.510378    -3.152765
6
BHMC Sample 1117
O     -3.336097    -3.034178    -3.579851
H     -4.257476    -3.316390    -3.546003
H     -3.254367    -2.729817    -4.491039
O      3.354337    -2.375141    -0.491059
H      3.185780    -2.890116    -1.289460
H      4.014216    -2.911401    -0.033981
6
BHMC Sample 1118
O     -3.369762    -3.081454    -3.674630
H     -2.941194    -2.910341    -2.828002
H     -4.036325    -2.385489    -3.704705
O      3.354337    -2.375141    -0.491059
H      3.185780    -2.890116    -1.289460
H      4.014216    -2.911401    -0.033981
6
BHMC Sample 1119
O     -3.024929     1.430081    -0.709520
H     -2.425938     0.983842    -0.099758
H     -3.180665     2.267825    -0.258398
O      3.354337    -2.375141    -0.491059
H      3.185780    -2.890116    -1.289460
H      4.014216    -2.911401    -0.033981
6
BHMC Sample 1120
O     -3.888006    -4.167472    -0.912090
H     -3.059367    -4.456571    -0.512706
H     -4.492306    -4.198306    -0.161457
O      3.354337    -2.375141    -0.491059
H      3.185780    -2.890116    -1.289460
H      4.014216    -2.911401    -0.033981
6
BHMC Sample 1121
O     -2.650529     1.939649     0.196459
H     -2.013360     1.435156     0.715334
H     -2.673693     2.778791     0.670676
O      3.354337    -2.375141    -0.491059
H      3.185780    -2.890116    -1.289460
H      4.014216    -2.911401    -0.033981
6
BHMC Sample 1122
O      3.347473    -2.452686    -0.565724
H      3.984641    -2.957179    -0.046848
H      3.324309    -1.613543    -0.091507
O     -2.643664     2.017194     0.271124
H     -2.812222     1.502219    -0.527278
H     -1.983786     1.480934     0.728202
6
BHMC Sample 1123
O      2.996257    -2.779550    -1.068561
H      3.684672    -3.274263    -0.609136
H      3.074153    -1.907662    -0.664430
O     -2.643664     2.017194     0.271124
H     -2.812222     1.502219    -0.527278
H     -1.983786     1.480934     0.728202
6
BHMC Sample 1124
O      3.096886    -2.724002    -1.030089
H      2.965289    -3.581298    -0.608834
H      2.196337    -2.482279    -1.275363
O     -2.643664     2.017194     0.271124
H     -2.812222     1.502219    -0.527278
H     -1.983786     1.480934     0.728202
6
BHMC Sample 1125
O      3.096886    -2.724002    -1.030089
H      2.965289    -3.581298    -0.608834
H      2.196337    -2.482279    -1.275363
O     -2.572032     1.917641     0.220836
H     -2.920190     1.857079     1.118708
H     -3.012759     2.706174    -0.119620
6
BHMC Sample 1126
O      3.060323    -2.694974    -1.008367
H      3.565004    -3.516449    -0.994021
H      2.176951    -3.007862    -1.234935
O     -2.572032     1.917641     0.220836
H     -2.920190     1.857079     1.118708
H     -3.012759     2.706174    -0.119620
6
BHMC Sample 1127
O      3.060323    -2.694974    -1.008367
H      3.565004    -3.516449    -0.994021
H      2.176951    -3.007862    -1.234935
O     -1.207145    -0.358957    -0.179028
H     -1.555303    -0.419519     0.718844
H     -1.647871     0.429576    -0.519484
6
BHMC Sample 1128
O      2.576879    -1.012505    -1.168961
H      3.081559    -1.833980    -1.154615
H      1.693506    -1.325393    -1.395529
O     -1.207145    -0.358957    -0.179028
H     -1.555303    -0.419519     0.718844
H     -1.647871     0.429576    -0.519484
6
BHMC Sample 1129
O      0.780181    -3.340185    -2.607320
H      1.403144    -4.073170    -2.541139
H      1.285994    -2.613788    -2.225117
O      0.262962    -0.242657    -0.185805
H     -0.085197    -0.303219     0.712067
H     -0.177765     0.545876    -0.526262
6
BHMC Sample 1130
O     -0.376259     0.002196    -0.149461
H      0.246704    -0.730789    -0.083281
H      0.129554     0.728593     0.232742
O     -0.336047    -3.856168     0.765414
H     -0.659583    -4.223977     1.596737
H     -0.662637    -4.491888     0.116465
6
BHMC Sample 1131
O     -2.050755    -0.540537    -0.636296
H     -2.156663    -1.495748    -0.714293
H     -2.184960    -0.250340    -1.545886
O     -0.336047    -3.856168     0.765414
H     -0.659583    -4.223977     1.596737
H     -0.662637    -4.491888     0.116465
6
BHMC Sample 1132
O      0.264845    -2.109032    -2.762921
H     -0.238633    -1.967835    -1.952796
H     -0.364831    -1.833951    -3.439248
O     -0.336047    -3.856168     0.765414
H     -0.659583    -4.223977     1.596737
H     -0.662637    -4.491888     0.116465
6
BHMC Sample 1133
O      2.081989     1.288149    -3.448121
H      2.292084     0.981526    -2.558418
H      2.700613     0.779830    -3.985237
O      0.216709     0.334509    -0.060792
H     -0.106827    -0.033299     0.770531
H     -0.109881    -0.301210    -0.709740
6
BHMC Sample 1134
O      2.081989     1.288149    -3.448121
H      2.292084     0.981526    -2.558418
H      2.700613     0.779830    -3.985237
O      0.599013     0.602755     0.187053
H      0.343916     0.279690     1.059756
H      0.087314     0.034412    -0.402087
6
BHMC Sample 1135
O     -0.276240     0.271647    -0.117529
H     -0.066145    -0.034975     0.772174
H      0.342385    -0.236672    -0.654645
O      0.300837    -1.431183    -3.674380
H      0.513614    -1.985325    -4.435108
H     -0.482713    -1.865262    -3.314436
6
BHMC Sample 1136
O     -0.276240     0.271647    -0.117529
H     -0.066145    -0.034975     0.772174
H      0.342385    -0.236672    -0.654645
O     -3.227235     2.487093     1.215009
H     -3.804764     3.156698     1.601201
H     -2.939502     2.909051     0.395805
6
BHMC Sample 1137
O     -3.289820     2.593768     1.171052
H     -3.079724     2.287146     2.060755
H     -2.671195     2.085449     0.633936
O     -0.213655     0.164972    -0.073572
H     -0.791185     0.834577     0.312620
H      0.074078     0.586930    -0.892776
6
BHMC Sample 1138
O     -3.289820     2.593768     1.171052
H     -3.079724     2.287146     2.060755
H     -2.671195     2.085449     0.633936
O     -0.275339     0.176808    -0.107194
H      0.284780     0.614748    -0.759521
H     -0.022836     0.618898     0.713009
6
BHMC Sample 1139
O     -0.276240     0.271647    -0.117529
H     -0.066145    -0.034975     0.772174
H      0.342385    -0.236672    -0.654645
O      0.693838    -1.303323     3.445062
H      0.774675    -2.263130     3.502448
H     -0.248602    -1.184619     3.272869
6
BHMC Sample 1140
O     -1.820632     2.143712     2.901593
H     -1.323114     1.764240     2.167968
H     -1.431419     1.693539     3.660168
O      0.287201     0.280367     0.038269
H      0.368038    -0.679439     0.095655
H     -0.655239     0.399072    -0.133924
6
BHMC Sample 1141
O     -0.550258    -0.434484     3.369781
H     -0.052741    -0.813956     2.636156
H     -0.161045    -0.884657     4.128356
O      0.287201     0.280367     0.038269
H      0.368038    -0.679439     0.095655
H     -0.655239     0.399072    -0.133924
6
BHMC Sample 1142
O      0.189376     0.279726     0.030449
H      0.686893    -0.099746    -0.703176
H      0.578589    -0.170447     0.789024
O     -0.452433    -0.433843     3.377601
H     -0.371596    -1.393649     3.434987
H     -1.394873    -0.315138     3.205408
6
BHMC Sample 1143
O     -0.295577     0.276548    -0.008317
H      0.201941    -0.102924    -0.741942
H      0.093636    -0.173625     0.750259
O     -0.473853    -0.870708     3.351840
H     -1.438188    -0.852637     3.379903
H     -0.288102    -1.807553     3.211299
6
BHMC Sample 1144
O     -0.318299     0.796897     1.181390
H      0.179219     0.417424     0.447765
H      0.070914     0.346724     1.939965
O     -0.473853    -0.870708     3.351840
H     -1.438188    -0.852637     3.379903
H     -0.288102    -1.807553     3.211299
6
BHMC Sample 1145
O     -0.318299     0.796897     1.181390
H      0.179219     0.417424     0.447765
H      0.070914     0.346724     1.939965
O     -0.479192    -0.892154     3.335128
H     -1.443392    -0.869661     3.364585
H     -0.298206    -1.828385     3.184625
6
BHMC Sample 1146
O     -0.318299     0.796897     1.181390
H      0.179219     0.417424     0.447765
H      0.070914     0.346724     1.939965
O     -0.857382     0.015520    -1.364447
H     -1.803922    -0.085507    -1.206609
H     -0.831837     0.711626    -2.032816
6
BHMC Sample 1147
O     -0.318299     0.796897     1.181390
H      0.179219     0.417424     0.447765
H      0.070914     0.346724     1.939965
O     -1.182164     0.000072    -1.262121
H     -2.099301    -0.104661    -0.981148
H     -1.248156     0.692959    -1.931066
6
BHMC Sample 1148
O     -0.295577     0.276548    -0.008317
H      0.201941    -0.102924    -0.741942
H      0.093636    -0.173625     0.750259
O      0.706154     1.480609    -2.221620
H      0.707773     2.361260    -1.827276
H      0.091013     1.584525    -2.958328
6
BHMC Sample 1149
O     -0.295577     0.276548    -0.008317
H      0.201941    -0.102924    -0.741942
H      0.093636    -0.173625     0.750259
O      2.344933     2.019760    -1.139115
H      2.346553     2.900411    -0.744771
H      1.729793     2.123676    -1.875823
6
BHMC Sample 1150
O      2.338908     0.386268     1.756579
H      1.718174     0.080251     1.085184
H      3.081750    -0.215173     1.629954
O      2.344933     2.019760    -1.139115
H      2.346553     2.900411    -0.744771
H      1.729793     2.123676    -1.875823
6
BHMC Sample 1151
O      2.303772     2.125626    -1.113620
H      1.683037     1.819609    -1.785015
H      3.046614     1.524185    -1.240245
O      2.380069     0.280402     1.731084
H      2.381689     1.161054     2.125428
H      1.764929     0.384318     0.994376
6
BHMC Sample 1152
O      2.303772     2.125626    -1.113620
H      1.683037     1.819609    -1.785015
H      3.046614     1.524185    -1.240245
O      2.394255     1.819087     2.019924
H      2.395875     2.699738     2.414268
H      1.779115     1.923003     1.283216
6
BHMC Sample 1153
O     -2.735453    -1.018832    -0.780808
H     -3.125842    -1.244239    -1.633167
H     -2.719008    -1.874477    -0.336758
O      0.204507    -0.328189     0.114121
H      0.206127     0.552462     0.508465
H     -0.410634    -0.224273    -0.622587
6
BHMC Sample 1154
O      0.124648     0.360351     0.136103
H     -0.265741     0.134944    -0.716256
H      0.141093    -0.495294     0.580153
O     -0.997607     1.831375     2.685197
H     -0.450327     2.607200     2.857344
H     -1.055495     1.828238     1.721572
6
BHMC Sample 1155
O      2.758042     0.587390     1.085614
H      3.106140     1.312733     1.617060
H      2.856533    -0.162627     1.683404
O     -0.163131    -0.257563     0.263826
H      0.384150     0.518263     0.435973
H     -0.221019    -0.260699    -0.699799
6
BHMC Sample 1156
O      1.780052     2.103721    -0.630880
H      2.302539     2.740006    -0.129005
H      2.459752     1.506614    -0.964121
O     -0.163131    -0.257563     0.263826
H      0.384150     0.518263     0.435973
H     -0.221019    -0.260699    -0.699799
6
BHMC Sample 1157
O     -0.400729    -0.013059    -0.056212
H      0.121758     0.623226     0.445664
H      0.278971    -0.610166    -0.389452
O     -2.604851    -0.329934     2.222700
H     -1.915192    -0.669619     1.639570
H     -2.774940     0.546000     1.854266
6
BHMC Sample 1158
O     -0.400729    -0.013059    -0.056212
H      0.121758     0.623226     0.445664
H      0.278971    -0.610166    -0.389452
O     -2.169935     2.227021    -1.471821
H     -1.547969     1.489357    -1.479914
H     -2.490580     2.217803    -0.561307
6
BHMC Sample 1159
O     -0.400729    -0.013059    -0.056212
H      0.121758     0.623226     0.445664
H      0.278971    -0.610166    -0.389452
O     -2.604851    -0.329934     2.222700
H     -1.915192    -0.669619     1.639570
H     -2.774940     0.546000     1.854266
6
BHMC Sample 1160
O     -0.400729    -0.013059    -0.056212
H      0.121758     0.623226     0.445664
H      0.278971    -0.610166    -0.389452
O     -2.307106    -0.375239     2.479782
H     -1.730113    -0.707955     1.781617
H     -2.450860     0.540724     2.210932
6
BHMC Sample 1161
O     -0.400729    -0.013059    -0.056212
H      0.121758     0.623226     0.445664
H      0.278971    -0.610166    -0.389452
O     -2.102742     1.614136    -2.141473
H     -1.376207     1.013338    -1.935936
H     -2.620957     1.598948    -1.327128
6
BHMC Sample 1162
O     -0.400729    -0.013059    -0.056212
H      0.121758     0.623226     0.445664
H      0.278971    -0.610166    -0.389452
O     -2.577619    -1.177763     1.892516
H     -1.766580    -1.281745     1.380208
H     -2.956125    -0.371572     1.520058
6
BHMC Sample 1163
O      0.133989     2.381709    -1.429190
H      0.685456     2.995845    -0.930743
H     -0.657418     2.908875    -1.588402
O     -0.144178    -0.234069     0.294922
H      0.666861    -0.338051    -0.217386
H     -0.522684     0.572121    -0.077536
6
BHMC Sample 1164
O      0.079980    -0.380434    -0.113078
H      0.631447     0.233702     0.385369
H     -0.711427     0.146732    -0.272290
O      1.755511    -1.334412    -2.597984
H      1.992682    -1.926522    -1.873959
H      1.028326    -0.824806    -2.219253
6
BHMC Sample 1165
O      0.013669     0.380344    -0.635861
H      0.540716     1.149045    -0.388777
H     -0.787629     0.790806    -0.980855
O      1.755511    -1.334412    -2.597984
H      1.992682    -1.926522    -1.873959
H      1.028326    -0.824806    -2.219253
6
BHMC Sample 1166
O      0.882132    -1.070576     2.478991
H      1.625003    -0.548592     2.803651
H      1.225780    -1.968940     2.545536
O      0.163338     0.027501    -0.367585
H      0.400509    -0.564609     0.356439
H     -0.563847     0.537108     0.011146
6
BHMC Sample 1167
O     -1.578503     1.742258     1.594538
H     -1.051457     2.510959     1.841622
H     -2.379801     2.152720     1.249543
O      0.163338     0.027501    -0.367585
H      0.400509    -0.564609     0.356439
H     -0.563847     0.537108     0.011146
6
BHMC Sample 1168
O     -2.483353     0.802164     1.122131
H     -3.193291     0.285700     0.723405
H     -2.812740     1.702918     1.023513
O      0.163338     0.027501    -0.367585
H      0.400509    -0.564609     0.356439
H     -0.563847     0.537108     0.011146
6
BHMC Sample 1169
O     -2.483353     0.802164     1.122131
H     -3.193291     0.285700     0.723405
H     -2.812740     1.702918     1.023513
O      0.092996     0.093957    -0.522515
H      0.422223    -0.430975     0.217155
H     -0.635848     0.583446    -0.121115
6
BHMC Sample 1170
O      0.128790     0.070472    -0.430841
H     -0.581148    -0.445992    -0.829567
H     -0.200597     0.971226    -0.529458
O     -2.519147     0.825650     1.030456
H     -2.189920     0.300717     1.770126
H     -3.247991     1.315138     1.431856
6
BHMC Sample 1171
O     -0.663326     2.361936     3.126546
H     -0.344749     2.561760     2.238679
H     -1.584924     2.640436     3.074841
O     -2.519147     0.825650     1.030456
H     -2.189920     0.300717     1.770126
H     -3.247991     1.315138     1.431856
6
BHMC Sample 1172
O      0.201007    -0.159442     0.313191
H      0.519584     0.040383    -0.574676
H     -0.720591     0.119059     0.261485
O     -0.340881     2.933210    -0.269651
H      0.079027     2.727745     0.574456
H     -1.267571     2.725693    -0.096109
6
BHMC Sample 1173
O      0.201007    -0.159442     0.313191
H      0.519584     0.040383    -0.574676
H     -0.720591     0.119059     0.261485
O     -0.996263    -1.755368    -2.172274
H     -1.111253    -2.191294    -1.319161
H     -1.730538    -1.128790    -2.185510
6
BHMC Sample 1174
O      0.706275    -0.226537     0.029056
H      0.615329     0.165483    -0.847173
H     -0.199966    -0.194550     0.356596
O     -0.996263    -1.755368    -2.172274
H     -1.111253    -2.191294    -1.319161
H     -1.730538    -1.128790    -2.185510
6
BHMC Sample 1175
O      0.706275    -0.226537     0.029056
H      0.615329     0.165483    -0.847173
H     -0.199966    -0.194550     0.356596
O      0.477692    -1.943127    -3.101471
H      0.362702    -2.379053    -2.248358
H     -0.256582    -1.316549    -3.114707
6
BHMC Sample 1176
O      3.615583    -2.317950    -1.571526
H      3.419136    -1.956126    -2.443432
H      3.722156    -1.518344    -1.043462
O      0.477692    -1.943127    -3.101471
H      0.362702    -2.379053    -2.248358
H     -0.256582    -1.316549    -3.114707
6
BHMC Sample 1177
O      2.671178    -1.401643     0.016464
H      2.474732    -1.039819    -0.855443
H      2.777751    -0.602037     0.544527
O      0.477692    -1.943127    -3.101471
H      0.362702    -2.379053    -2.248358
H     -0.256582    -1.316549    -3.114707
6
BHMC Sample 1178
O      0.029958    -0.387143     0.114614
H     -0.166489    -0.025319    -0.757292
H      0.136531     0.412462     0.642678
O     -0.739730     1.174011     3.554945
H     -1.137684     0.369401     3.200978
H     -1.463369     1.809554     3.488864
6
BHMC Sample 1179
O      0.029958    -0.387143     0.114614
H     -0.166489    -0.025319    -0.757292
H      0.136531     0.412462     0.642678
O     -0.714454     0.847420     3.651653
H     -1.207092     1.266200     2.935423
H     -1.337445     0.182544     3.970645
6
BHMC Sample 1180
O      2.015219    -0.809812     1.629812
H      2.395184    -0.612580     0.765836
H      1.776168     0.068553     1.947474
O     -0.714454     0.847420     3.651653
H     -1.207092     1.266200     2.935423
H     -1.337445     0.182544     3.970645
6
BHMC Sample 1181
O      1.734453    -1.791520     4.768256
H      2.411928    -2.287731     4.294410
H      1.733389    -0.952451     4.293345
O     -0.714454     0.847420     3.651653
H     -1.207092     1.266200     2.935423
H     -1.337445     0.182544     3.970645
6
BHMC Sample 1182
O      1.734453    -1.791520     4.768256
H      2.411928    -2.287731     4.294410
H      1.733389    -0.952451     4.293345
O      0.687342     1.693741     3.721536
H      0.080481     2.248863     3.216941
H      0.261922     1.655314     4.587258
6
BHMC Sample 1183
O      4.399184     1.325372     4.247848
H      4.875667     0.516609     4.027402
H      3.503623     1.113586     3.960279
O      0.687342     1.693741     3.721536
H      0.080481     2.248863     3.216941
H      0.261922     1.655314     4.587258
6
BHMC Sample 1184
O     -0.079652     1.330122     4.303968
H      0.515569     2.047559     4.550391
H     -0.891978     1.580021     4.759221
O      2.763648    -0.834607    -2.211580
H      2.915002    -0.525216    -3.112927
H      2.842501    -0.021431    -1.697323
6
BHMC Sample 1185
O     -0.079652     1.330122     4.303968
H      0.515569     2.047559     4.550391
H     -0.891978     1.580021     4.759221
O      1.629716    -0.519158    -2.659970
H      1.781070    -0.209767    -3.561316
H      1.708569     0.294019    -2.145713
6
BHMC Sample 1186
O     -0.126944     1.249759     4.312233
H      0.470380     1.960411     4.572820
H     -0.941540     1.498553     4.764022
O      1.629716    -0.519158    -2.659970
H      1.781070    -0.209767    -3.561316
H      1.708569     0.294019    -2.145713
6
BHMC Sample 1187
O     -0.121391     1.295963     4.417277
H      0.401137     1.133257     3.623412
H     -0.960439     1.592365     4.046167
O      1.629716    -0.519158    -2.659970
H      1.781070    -0.209767    -3.561316
H      1.708569     0.294019    -2.145713
6
BHMC Sample 1188
O      1.660308    -0.463827    -2.616445
H      2.182835    -0.626533    -3.410309
H      0.821259    -0.167425    -2.987555
O     -0.151982     1.240632     4.373752
H     -0.000628     1.550023     3.472405
H     -0.073129     2.053809     4.888009
6
BHMC Sample 1189
O      1.660308    -0.463827    -2.616445
H      2.182835    -0.626533    -3.410309
H      0.821259    -0.167425    -2.987555
O      0.145863     1.905335     3.589291
H      0.297216     2.214727     2.687945
H      0.224715     2.718512     4.103548
6
BHMC Sample 1190
O      3.699439     1.127821    -3.398871
H      4.221967     0.965115    -4.192735
H      2.860391     1.424223    -3.769980
O      0.145863     1.905335     3.589291
H      0.297216     2.214727     2.687945
H      0.224715     2.718512     4.103548
6
BHMC Sample 1191
O      3.699439     1.127821    -3.398871
H      4.221967     0.965115    -4.192735
H      2.860391     1.424223    -3.769980
O     -2.924735    -2.624974    -1.214621
H     -2.449786    -1.809074    -1.414089
H     -3.365395    -2.410264    -0.382964
6
BHMC Sample 1192
O      4.284614     0.087844    -3.033454
H      4.840243    -0.193905    -3.769404
H      3.523735     0.463846    -3.490908
O     -2.924735    -2.624974    -1.214621
H     -2.449786    -1.809074    -1.414089
H     -3.365395    -2.410264    -0.382964
6
BHMC Sample 1193
O      4.284614     0.087844    -3.033454
H      4.840243    -0.193905    -3.769404
H      3.523735     0.463846    -3.490908
O     -4.416765    -4.003443    -0.448200
H     -3.941815    -3.187544    -0.647669
H     -4.857424    -3.788734     0.383457
6
BHMC Sample 1194
O      4.284614     0.087844    -3.033454
H      4.840243    -0.193905    -3.769404
H      3.523735     0.463846    -3.490908
O     -2.785925    -3.908059    -2.293733
H     -2.310976    -3.092160    -2.493202
H     -3.226585    -3.693350    -1.462076
6
BHMC Sample 1195
O     -2.772522    -3.855667    -2.191585
H     -2.216893    -4.137416    -2.927535
H     -3.533401    -3.479665    -2.649039
O      4.271211     0.035452    -3.135602
H      4.746160     0.851351    -3.335071
H      3.830551     0.250161    -2.303945
6
BHMC Sample 1196
O      4.284614     0.087844    -3.033454
H      4.840243    -0.193905    -3.769404
H      3.523735     0.463846    -3.490908
O     -2.785925    -3.908059    -2.293733
H     -2.310976    -3.092160    -2.493202
H     -3.226585    -3.693350    -1.462076
6
BHMC Sample 1197
O      3.962055     1.124521    -3.553911
H      4.517684     0.842772    -4.289861
H      3.201176     1.500524    -4.011365
O     -2.785925    -3.908059    -2.293733
H     -2.310976    -3.092160    -2.493202
H     -3.226585    -3.693350    -1.462076
6
BHMC Sample 1198
O      3.909449     1.121454    -3.674147
H      3.681425     1.302215    -2.754876
H      4.872395     1.089763    -3.637964
O     -2.785925    -3.908059    -2.293733
H     -2.310976    -3.092160    -2.493202
H     -3.226585    -3.693350    -1.462076
6
BHMC Sample 1199
O     -2.825128    -3.858734    -2.311821
H     -3.053151    -3.677973    -1.392549
H     -1.862182    -3.890426    -2.275638
O      3.948652     1.072129    -3.656059
H      4.423601     1.888028    -3.855528
H      3.507992     1.286839    -2.824402
6
BHMC Sample 1200
O      3.909449     1.121454    -3.674147
H      3.681425     1.302215    -2.754876
H      4.872395     1.089763    -3.637964
O     -2.785925    -3.908059    -2.293733
H     -2.310976    -3.092160    -2.493202
H     -3.226585    -3.693350    -1.462076
6
BHMC Sample 1201
O     -2.825128    -3.858734    -2.311821
H     -3.053151    -3.677973    -1.392549
H     -1.862182    -3.890426    -2.275638
O      3.948652     1.072129    -3.656059
H      4.423601     1.888028    -3.855528
H      3.507992     1.286839    -2.824402
6
BHMC Sample 1202
O     -4.004264    -1.882846    -3.229236
H     -4.260654    -1.700341    -2.317816
H     -3.092663    -2.178720    -3.124254
O      3.948652     1.072129    -3.656059
H      4.423601     1.888028    -3.855528
H      3.507992     1.286839    -2.824402
6
BHMC Sample 1203
O     -4.004264    -1.882846    -3.229236
H     -4.260654    -1.700341    -2.317816
H     -3.092663    -2.178720    -3.124254
O      3.509326    -0.307123    -3.646249
H      3.984275     0.508776    -3.845717
H      3.068666    -0.092414    -2.814592
6
BHMC Sample 1204
O     -2.331808    -1.356158     1.280999
H     -2.623020    -0.473316     1.536955
H     -1.386377    -1.222938     1.146864
O      3.509326    -0.307123    -3.646249
H      3.984275     0.508776    -3.845717
H      3.068666    -0.092414    -2.814592
6
BHMC Sample 1205
O      3.474639    -0.306309    -3.617692
H      3.183426     0.576533    -3.361736
H      4.420069    -0.173089    -3.751826
O     -2.297121    -1.356972     1.252442
H     -1.822171    -0.541073     1.052973
H     -2.737780    -1.142262     2.084099
6
BHMC Sample 1206
O      3.520381    -0.270056    -3.546760
H      2.698755    -0.062727    -4.006842
H      4.178715    -0.109239    -4.232553
O     -2.297121    -1.356972     1.252442
H     -1.822171    -0.541073     1.052973
H     -2.737780    -1.142262     2.084099
6
BHMC Sample 1207
O      3.520381    -0.270056    -3.546760
H      2.698755    -0.062727    -4.006842
H      4.178715    -0.109239    -4.232553
O     -2.300238    -1.326585     1.349547
H     -2.547017    -1.707974     0.498255
H     -1.963462    -0.457664     1.097569
6
BHMC Sample 1208
O      3.520381    -0.270056    -3.546760
H      2.698755    -0.062727    -4.006842
H      4.178715    -0.109239    -4.232553
O     -0.847454     1.079009     1.797268
H     -1.094233     0.697620     0.945976
H     -0.510678     1.947930     1.545290
6
BHMC Sample 1209
O      3.520381    -0.270056    -3.546760
H      2.698755    -0.062727    -4.006842
H      4.178715    -0.109239    -4.232553
O     -1.147336     1.202726     0.851081
H     -1.394115     0.821337    -0.000212
H     -0.810561     2.071647     0.599102
6
BHMC Sample 1210
O     -1.133164     1.209406     0.853464
H     -1.954789     1.416735     0.393383
H     -0.474829     1.370223     0.167671
O      3.506209    -0.276736    -3.549144
H      3.259429    -0.658125    -4.400436
H      3.842984     0.592185    -3.801122
6
BHMC Sample 1211
O     -1.133164     1.209406     0.853464
H     -1.954789     1.416735     0.393383
H     -0.474829     1.370223     0.167671
O      4.044451     2.068074    -3.332629
H      3.797672     1.686685    -4.183921
H      4.381227     2.936995    -3.584607
6
BHMC Sample 1212
O     -1.133164     1.209406     0.853464
H     -1.954789     1.416735     0.393383
H     -0.474829     1.370223     0.167671
O      2.452479     1.033775    -2.296291
H      2.205700     0.652386    -3.147583
H      2.789254     1.902696    -2.548269
6
BHMC Sample 1213
O     -1.133164     1.209406     0.853464
H     -1.954789     1.416735     0.393383
H     -0.474829     1.370223     0.167671
O      2.604459     1.379623    -2.112638
H      2.431801     0.995156    -2.980641
H      2.881562     2.277250    -2.334933
6
BHMC Sample 1214
O      0.054430    -0.122715     0.381958
H     -0.767195     0.084613    -0.078123
H      0.712765     0.038102    -0.303835
O     -4.379547     0.303964    -1.336746
H     -4.497357    -0.082225    -2.213122
H     -4.654760     1.218925    -1.474730
6
BHMC Sample 1215
O      0.054430    -0.122715     0.381958
H     -0.767195     0.084613    -0.078123
H      0.712765     0.038102    -0.303835
O     -3.413108     1.592836    -2.296338
H     -3.530918     1.206647    -3.172714
H     -3.688321     2.507797    -2.434322
6
BHMC Sample 1216
O     -0.247490     0.566413     1.185974
H     -1.069116     0.773742     0.725893
H      0.410844     0.727230     0.500181
O     -3.413108     1.592836    -2.296338
H     -3.530918     1.206647    -3.172714
H     -3.688321     2.507797    -2.434322
6
BHMC Sample 1217
O     -0.559146    -0.514538    -0.925136
H     -1.380771    -0.307209    -1.385218
H      0.099189    -0.353721    -1.610929
O     -3.413108     1.592836    -2.296338
H     -3.530918     1.206647    -3.172714
H     -3.688321     2.507797    -2.434322
6
BHMC Sample 1218
O     -0.559146    -0.514538    -0.925136
H     -1.380771    -0.307209    -1.385218
H      0.099189    -0.353721    -1.610929
O     -3.710632     1.415772    -0.192517
H     -4.309566     0.691879     0.027283
H     -4.311774     2.080498    -0.551266
6
BHMC Sample 1219
O     -0.559146    -0.514538    -0.925136
H     -1.380771    -0.307209    -1.385218
H      0.099189    -0.353721    -1.610929
O     -3.767793     1.387670    -1.604733
H     -4.417282     0.688372    -1.462596
H     -4.209210     1.952165    -2.251596
6
BHMC Sample 1220
O     -0.559146    -0.514538    -0.925136
H     -1.380771    -0.307209    -1.385218
H      0.099189    -0.353721    -1.610929
O     -3.442159     0.597785    -0.773620
H     -4.091648    -0.101513    -0.631482
H     -3.883576     1.162280    -1.420482
6
BHMC Sample 1221
O      3.372945    -0.304377    -0.459260
H      2.467576    -0.602980    -0.603729
H      3.868251    -1.128487    -0.530631
O      0.363635     0.044934     0.168242
H     -0.285854    -0.654364     0.310379
H     -0.077781     0.609429    -0.478621
6
BHMC Sample 1222
O      3.372945    -0.304377    -0.459260
H      2.467576    -0.602980    -0.603729
H      3.868251    -1.128487    -0.530631
O      0.725990    -1.537212    -0.233746
H      0.076502    -2.236510    -0.091608
H      0.284574    -0.972717    -0.880609
6
BHMC Sample 1223
O      0.136688     0.374238     0.071947
H     -0.768681     0.075634    -0.072522
H      0.631993    -0.449872     0.000576
O     -2.361829    -0.651805    -1.060200
H     -2.943792    -1.257031    -1.535675
H     -2.947857    -0.288772    -0.384394
6
BHMC Sample 1224
O      0.160521     0.060343     0.250178
H     -0.707424    -0.295837     0.027610
H      0.731968    -0.404114    -0.372161
O     -2.361829    -0.651805    -1.060200
H     -2.943792    -1.257031    -1.535675
H     -2.947857    -0.288772    -0.384394
6
BHMC Sample 1225
O      0.106173    -0.012149     0.252770
H     -0.089186     0.050730    -0.689361
H      0.976340     0.399916     0.303673
O     -2.361829    -0.651805    -1.060200
H     -2.943792    -1.257031    -1.535675
H     -2.947857    -0.288772    -0.384394
6
BHMC Sample 1226
O     -0.224936    -0.158315     0.297076
H     -0.420295    -0.095436    -0.645055
H      0.645231     0.253751     0.347979
O     -1.512306     0.033019    -2.575375
H     -1.859770    -0.407156    -3.360595
H     -1.343325     0.927465    -2.896849
6
BHMC Sample 1227
O      1.219010    -1.610077    -2.842209
H      0.412810    -1.100325    -2.983360
H      1.754824    -1.349265    -3.600140
O     -1.512306     0.033019    -2.575375
H     -1.859770    -0.407156    -3.360595
H     -1.343325     0.927465    -2.896849
6
BHMC Sample 1228
O      1.219010    -1.610077    -2.842209
H      0.412810    -1.100325    -2.983360
H      1.754824    -1.349265    -3.600140
O     -2.308990    -0.975097    -3.015469
H     -2.656455    -1.415271    -3.800689
H     -2.140010    -0.080650    -3.336944
6
BHMC Sample 1229
O      0.090129    -0.256855     0.299694
H     -0.716071     0.252897     0.158543
H      0.625943     0.003958    -0.458237
O     -3.031807    -0.778846     1.476302
H     -3.210340    -1.700348     1.252659
H     -2.520897    -0.858637     2.291494
6
BHMC Sample 1230
O      0.090129    -0.256855     0.299694
H     -0.716071     0.252897     0.158543
H      0.625943     0.003958    -0.458237
O     -3.051606    -0.812527     1.560457
H     -3.327943    -1.197919     0.720119
H     -2.089039    -0.826491     1.488329
6
BHMC Sample 1231
O     -2.774228    -0.488864     1.392738
H     -1.992709    -1.053219     1.414209
H     -3.205349    -0.713923     2.225242
O     -0.228744     0.133119     0.304155
H     -0.505080    -0.252274    -0.536182
H      0.733824     0.119155     0.232027
6
BHMC Sample 1232
O     -4.134662    -1.788243     0.285605
H     -3.353143    -2.352598     0.307076
H     -4.565783    -2.013302     1.118108
O     -0.228744     0.133119     0.304155
H     -0.505080    -0.252274    -0.536182
H      0.733824     0.119155     0.232027
6
BHMC Sample 1233
O     -0.297638    -4.098164    -0.946184
H      0.168484    -3.863482    -0.135392
H     -0.986710    -4.686496    -0.616604
O     -0.228744     0.133119     0.304155
H     -0.505080    -0.252274    -0.536182
H      0.733824     0.119155     0.232027
6
BHMC Sample 1234
O     -0.177872     0.130561     0.189292
H      0.288250     0.365243     1.000084
H     -0.866944    -0.457771     0.518872
O     -0.348510    -4.095606    -0.831321
H     -0.624846    -4.480998    -1.671659
H      0.614058    -4.109570    -0.903449
6
BHMC Sample 1235
O      2.635424    -2.443476     2.801023
H      3.588070    -2.297544     2.771044
H      2.312354    -1.587790     3.105991
O     -0.228744     0.133119     0.304155
H     -0.505080    -0.252274    -0.536182
H      0.733824     0.119155     0.232027
6
BHMC Sample 1236
O     -0.225574     0.054729     0.237713
H      0.727072     0.200662     0.207735
H     -0.548644     0.910416     0.542681
O      2.632254    -2.365087     2.867465
H      2.355917    -2.750479     2.027127
H      3.594822    -2.379051     2.795337
6
BHMC Sample 1237
O     -0.209859    -0.333873    -0.091663
H      0.742787    -0.187940    -0.121642
H     -0.532929     0.521813     0.213305
O     -2.449520     0.083281     3.876771
H     -2.956271    -0.173876     3.096944
H     -2.922038     0.868004     4.181519
6
BHMC Sample 1238
O      0.384675     0.939671     0.390093
H      1.266142     1.290258     0.562819
H     -0.179649     1.630429     0.756112
O     -2.449520     0.083281     3.876771
H     -2.956271    -0.173876     3.096944
H     -2.922038     0.868004     4.181519
6
BHMC Sample 1239
O     -1.700510    -4.083421     1.401530
H     -1.546208    -4.445463     2.281783
H     -2.097309    -3.228486     1.604548
O      0.326423    -0.175855     0.158360
H     -0.180328    -0.433012    -0.621468
H     -0.146095     0.608867     0.463108
6
BHMC Sample 1240
O      0.080833    -0.164297    -0.361091
H      0.235134    -0.526339     0.519163
H     -0.315967     0.690637    -0.158072
O      1.974906     4.013311    -1.010674
H      1.189182     4.323179    -0.544117
H      1.775704     4.242507    -1.927038
6
BHMC Sample 1241
O      1.933364     4.015895    -1.096455
H      2.087666     3.653853    -0.216202
H      1.536565     4.870829    -0.893437
O      0.122374    -0.166881    -0.275310
H     -0.663350     0.142987     0.191248
H     -0.076828     0.062315    -1.191673
6
BHMC Sample 1242
O      1.933364     4.015895    -1.096455
H      2.087666     3.653853    -0.216202
H      1.536565     4.870829    -0.893437
O      0.134157    -0.128283    -0.306352
H     -0.577302     0.429748    -0.643227
H     -0.349893    -0.837074     0.135513
6
BHMC Sample 1243
O      0.080833    -0.164297    -0.361091
H      0.235134    -0.526339     0.519163
H     -0.315967     0.690637    -0.158072
O      1.986688     4.051909    -1.041717
H      1.275230     4.609940    -1.378592
H      1.502639     3.343118    -0.599852
6
BHMC Sample 1244
O      0.080833    -0.164297    -0.361091
H      0.235134    -0.526339     0.519163
H     -0.315967     0.690637    -0.158072
O      4.007657    -1.547788    -2.364555
H      4.621896    -0.807387    -2.289901
H      3.369130    -1.358655    -1.665665
6
BHMC Sample 1245
O      0.080833    -0.164297    -0.361091
H      0.235134    -0.526339     0.519163
H     -0.315967     0.690637    -0.158072
O      2.783393     1.155693    -3.868486
H      3.649220     1.340524    -3.484771
H      2.198387     1.226638    -3.103849
6
BHMC Sample 1246
O      0.080833    -0.164297    -0.361091
H      0.235134    -0.526339     0.519163
H     -0.315967     0.690637    -0.158072
O      3.255713    -0.463437    -3.454869
H      4.121540    -0.278606    -3.071155
H      2.670707    -0.392492    -2.690232
6
BHMC Sample 1247
O      2.351171    -0.659479    -0.318726
H      2.505472    -1.021521     0.561527
H      1.954371     0.195455    -0.115708
O      3.255713    -0.463437    -3.454869
H      4.121540    -0.278606    -3.071155
H      2.670707    -0.392492    -2.690232
6
BHMC Sample 1248
O      1.704217     0.598890     0.531279
H      1.858518     0.236848     1.411532
H      1.307417     1.453824     0.734297
O      3.255713    -0.463437    -3.454869
H      4.121540    -0.278606    -3.071155
H      2.670707    -0.392492    -2.690232
6
BHMC Sample 1249
O      3.200679    -0.552706     2.468892
H      3.493371    -1.333336     2.953328
H      3.651454     0.156052     2.942223
O     -0.093607    -0.085259    -0.382784
H      0.772220     0.099572     0.000930
H     -0.678613    -0.014314     0.381853
6
BHMC Sample 1250
O      3.200679    -0.552706     2.468892
H      3.493371    -1.333336     2.953328
H      3.651454     0.156052     2.942223
O     -0.246629     0.882589     4.877665
H      0.507362     0.314057     4.679358
H     -0.745484     0.860969     4.051463
6
BHMC Sample 1251
O     -2.270378    -0.610879     3.403630
H     -3.172075    -0.430657     3.113475
H     -2.178168    -1.548060     3.196826
O     -0.085045     0.196717     0.341503
H      0.668946    -0.371814     0.143196
H     -0.583901     0.175097    -0.484699
6
BHMC Sample 1252
O     -2.375692    -0.636369     3.402874
H     -1.790699    -1.368078     3.631162
H     -1.887996    -0.206062     2.691139
O     -0.085045     0.196717     0.341503
H      0.668946    -0.371814     0.143196
H     -0.583901     0.175097    -0.484699
6
BHMC Sample 1253
O     -2.375692    -0.636369     3.402874
H     -1.790699    -1.368078     3.631162
H     -1.887996    -0.206062     2.691139
O      0.164717    -0.280570     1.425976
H      0.918708    -0.849101     1.227669
H     -0.334139    -0.302190     0.599774
6
BHMC Sample 1254
O     -0.339970     3.385637     0.845682
H      0.609858     3.219778     0.838878
H     -0.696989     2.505815     0.678264
O     -0.085045     0.196717     0.341503
H      0.668946    -0.371814     0.143196
H     -0.583901     0.175097    -0.484699
6
BHMC Sample 1255
O     -0.197603     0.348560     0.058074
H      0.752225     0.182701     0.051270
H     -0.554622    -0.531262    -0.109344
O      0.060381    -2.817684    -0.571795
H      0.808996    -3.426061    -0.549240
H     -0.476647    -3.122248     0.170348
6
BHMC Sample 1256
O      0.039050    -2.810257    -0.519259
H      0.988879    -2.976116    -0.526063
H     -0.317969    -3.690079    -0.686677
O     -0.176272     0.341133     0.005538
H      0.572343    -0.267244     0.028093
H     -0.713301     0.036569     0.747681
6
BHMC Sample 1257
O     -0.197603     0.348560     0.058074
H      0.752225     0.182701     0.051270
H     -0.554622    -0.531262    -0.109344
O     -2.805223     2.192541     0.288775
H     -2.694315     1.235652     0.232933
H     -2.410226     2.397336     1.145496
6
BHMC Sample 1258
O     -0.197603     0.348560     0.058074
H      0.752225     0.182701     0.051270
H     -0.554622    -0.531262    -0.109344
O      2.928825     0.348712    -0.990599
H      2.400157    -0.331463    -0.555940
H      2.494389     0.432091    -1.848648
6
BHMC Sample 1259
O     -0.197603     0.348560     0.058074
H      0.752225     0.182701     0.051270
H     -0.554622    -0.531262    -0.109344
O      2.875828    -0.044117     1.186833
H      2.374028    -0.525140     0.517601
H      2.400752    -0.261967     1.998485
6
BHMC Sample 1260
O     -0.197603     0.348560     0.058074
H      0.752225     0.182701     0.051270
H     -0.554622    -0.531262    -0.109344
O      4.591391    -0.244245     3.075283
H      4.089592    -0.725268     2.406052
H      4.116315    -0.462095     3.886935
6
BHMC Sample 1261
O     -1.391766    -3.788296     3.702381
H     -1.208689    -2.853798     3.550969
H     -0.556955    -4.097340     4.072732
O      0.325625     0.232958    -0.047473
H     -0.176174    -0.248065    -0.716705
H     -0.149451     0.015108     0.764178
6
BHMC Sample 1262
O     -1.391766    -3.788296     3.702381
H     -1.208689    -2.853798     3.550969
H     -0.556955    -4.097340     4.072732
O      0.290283     0.209070     0.023548
H      0.153968    -0.659604    -0.373794
H      0.081352     0.805786    -0.705981
6
BHMC Sample 1263
O      2.815232    -1.991634     4.583725
H      2.524537    -1.193296     4.127784
H      3.738859    -2.050237     4.313432
O      0.290283     0.209070     0.023548
H      0.153968    -0.659604    -0.373794
H      0.081352     0.805786    -0.705981
6
BHMC Sample 1264
O      0.235551     0.152463     0.001131
H     -0.055145     0.950800    -0.454811
H      1.159178     0.093860    -0.269162
O      2.869965    -1.935026     4.606142
H      2.733649    -2.803700     4.208801
H      2.661033    -1.338310     3.876613
6
BHMC Sample 1265
O     -0.210977    -0.246578     0.242078
H     -0.501673     0.551759    -0.213863
H      0.712650    -0.305181    -0.028215
O     -3.901769     2.128513     3.880827
H     -4.584867     1.645606     3.399957
H     -3.135914     2.037494     3.300210
6
BHMC Sample 1266
O     -0.210977    -0.246578     0.242078
H     -0.501673     0.551759    -0.213863
H      0.712650    -0.305181    -0.028215
O     -2.473467     2.480125     4.061435
H     -3.156564     1.997218     3.580565
H     -1.707612     2.389106     3.480818
6
BHMC Sample 1267
O      1.475237    -1.156545    -1.651777
H      1.184541    -0.358208    -2.107719
H      2.398863    -1.215148    -1.922070
O     -2.473467     2.480125     4.061435
H     -3.156564     1.997218     3.580565
H     -1.707612     2.389106     3.480818
6
BHMC Sample 1268
O      2.216496    -1.695613    -1.048551
H      1.925801    -0.897276    -1.504492
H      3.140123    -1.754216    -1.318844
O     -2.473467     2.480125     4.061435
H     -3.156564     1.997218     3.580565
H     -1.707612     2.389106     3.480818
6
BHMC Sample 1269
O      2.241931    -1.597928    -1.052444
H      2.442236    -2.491901    -0.751746
H      2.219986    -1.710045    -2.009798
O     -2.473467     2.480125     4.061435
H     -3.156564     1.997218     3.580565
H     -1.707612     2.389106     3.480818
6
BHMC Sample 1270
O      1.341173     0.626082     0.170129
H      1.541478    -0.267891     0.470828
H      1.319228     0.513965    -0.787225
O     -2.473467     2.480125     4.061435
H     -3.156564     1.997218     3.580565
H     -1.707612     2.389106     3.480818
6
BHMC Sample 1271
O     -2.478817     2.504306     4.038783
H     -2.278511     1.610333     4.339481
H     -2.500762     2.392189     3.081429
O      1.346522     0.601901     0.192781
H      0.663425     0.118994    -0.288089
H      2.112377     0.510882    -0.387836
6
BHMC Sample 1272
O     -1.977139     2.241331     4.582158
H     -1.624435     1.390801     4.868388
H     -2.144828     2.082561     3.646075
O      1.346522     0.601901     0.192781
H      0.663425     0.118994    -0.288089
H      2.112377     0.510882    -0.387836
6
BHMC Sample 1273
O     -0.583177     3.353886     3.711254
H     -0.230473     2.503356     3.997484
H     -0.750866     3.195117     2.775171
O      1.346522     0.601901     0.192781
H      0.663425     0.118994    -0.288089
H      2.112377     0.510882    -0.387836
6
BHMC Sample 1274
O     -0.061671     0.336433     0.216617
H      0.291032    -0.514097     0.502848
H     -0.229361     0.177663    -0.719465
O     -1.277991    -3.470298    -2.559382
H     -0.708608    -3.533294    -3.335842
H     -2.005789    -4.062085    -2.787491
6
BHMC Sample 1275
O     -3.627724     0.160664    -0.299773
H     -2.847066     0.423102    -0.801200
H     -3.869563    -0.668893    -0.727473
O     -1.277991    -3.470298    -2.559382
H     -0.708608    -3.533294    -3.335842
H     -2.005789    -4.062085    -2.787491
6
BHMC Sample 1276
O     -1.317003    -3.475203    -2.563603
H     -0.536346    -3.212765    -3.065030
H     -1.558843    -4.304760    -2.991303
O     -3.588711     0.165569    -0.295552
H     -3.019328     0.102573    -1.072012
H     -4.316509    -0.426218    -0.523660
6
BHMC Sample 1277
O     -1.317003    -3.475203    -2.563603
H     -0.536346    -3.212765    -3.065030
H     -1.558843    -4.304760    -2.991303
O     -3.722949    -1.000771     0.841720
H     -3.344026    -0.780607    -0.017932
H     -4.342327    -1.707395     0.620386
6
BHMC Sample 1278
O     -0.179606     0.189039     0.309709
H      0.601052     0.451478    -0.191718
H     -0.421446    -0.640518    -0.117991
O     -2.064706     2.214662     4.291023
H     -1.172233     1.992304     3.999294
H     -2.511933     1.359698     4.260066
6
BHMC Sample 1279
O     -0.179606     0.189039     0.309709
H      0.601052     0.451478    -0.191718
H     -0.421446    -0.640518    -0.117991
O     -2.057410     2.222455     4.290498
H     -1.794853     1.327243     4.044093
H     -1.238892     2.719517     4.168468
6
BHMC Sample 1280
O     -2.027069     2.231909     4.321871
H     -1.246411     2.494348     3.820444
H     -2.268909     1.402352     3.894171
O     -0.209947     0.179585     0.278336
H      0.052610    -0.715627     0.031931
H      0.608571     0.676647     0.156306
6
BHMC Sample 1281
O     -0.179606     0.189039     0.309709
H      0.601052     0.451478    -0.191718
H     -0.421446    -0.640518    -0.117991
O     -2.057410     2.222455     4.290498
H     -1.794853     1.327243     4.044093
H     -1.238892     2.719517     4.168468
6
BHMC Sample 1282
O     -0.179606     0.189039     0.309709
H      0.601052     0.451478    -0.191718
H     -0.421446    -0.640518    -0.117991
O     -1.932350     2.179983     4.271664
H     -2.731156     1.644479     4.192911
H     -2.287546     3.076402     4.318591
6
BHMC Sample 1283
O     -0.179606     0.189039     0.309709
H      0.601052     0.451478    -0.191718
H     -0.421446    -0.640518    -0.117991
O     -2.239444     2.277291     2.753680
H     -3.038250     1.741788     2.674927
H     -2.594640     3.173711     2.800606
6
BHMC Sample 1284
O     -0.534683     3.123059     2.595226
H     -1.298357     3.361035     3.133649
H      0.172686     3.619908     3.022250
O      0.384667    -0.120305     0.010609
H     -0.414139    -0.655809    -0.068144
H      0.029471     0.776114     0.057535
6
BHMC Sample 1285
O     -1.080627    -2.586845    -2.985810
H     -0.769168    -2.651656    -3.896042
H     -1.907861    -3.080706    -3.022724
O      0.384667    -0.120305     0.010609
H     -0.414139    -0.655809    -0.068144
H      0.029471     0.776114     0.057535
6
BHMC Sample 1286
O     -1.080627    -2.586845    -2.985810
H     -0.769168    -2.651656    -3.896042
H     -1.907861    -3.080706    -3.022724
O      0.633480     0.731694     0.635434
H     -0.165326     0.196190     0.556681
H      0.278284     1.628113     0.682361
6
BHMC Sample 1287
O     -1.080627    -2.586845    -2.985810
H     -0.769168    -2.651656    -3.896042
H     -1.907861    -3.080706    -3.022724
O     -2.040861     0.019393     1.426087
H     -1.488013    -0.742154     1.212870
H     -2.645935    -0.341951     2.085822
6
BHMC Sample 1288
O     -2.014924    -0.012177     1.504067
H     -1.703464    -0.076988     0.593835
H     -2.842158    -0.506039     1.467153
O     -1.106564    -2.555275    -3.063790
H     -0.553717    -3.316822    -3.277007
H     -1.711638    -2.916619    -2.404055
6
BHMC Sample 1289
O     -4.008111    -2.084493    -2.902179
H     -3.428774    -2.117146    -2.132093
H     -3.387079    -1.877309    -3.609973
O      0.017409     0.374297    -0.148840
H      0.570256    -0.387250    -0.362056
H     -0.587665     0.012953     0.510895
6
BHMC Sample 1290
O     -3.917976    -0.158993    -3.668363
H     -3.313473     0.345976    -3.112205
H     -3.338724    -0.844329    -4.021011
O      0.017409     0.374297    -0.148840
H      0.570256    -0.387250    -0.362056
H     -0.587665     0.012953     0.510895
6
BHMC Sample 1291
O      3.789174     2.332446     3.005755
H      3.410920     2.137366     2.140539
H      3.743649     1.473482     3.441285
O      0.017409     0.374297    -0.148840
H      0.570256    -0.387250    -0.362056
H     -0.587665     0.012953     0.510895
6
BHMC Sample 1292
O      0.038198     0.370445    -0.099813
H     -0.340055     0.175365    -0.965028
H     -0.007326    -0.488519     0.335717
O      3.768384     2.336298     2.956728
H      4.321232     1.574751     2.743512
H      3.163310     1.974954     3.616463
6
BHMC Sample 1293
O      0.141259     0.351348     0.143228
H     -0.236994     0.156268    -0.721987
H      0.095735    -0.507616     0.578759
O     -2.993234     2.431253    -3.965551
H     -3.422999     2.928433    -3.259031
H     -2.147156     2.887421    -4.054979
6
BHMC Sample 1294
O      0.141259     0.351348     0.143228
H     -0.236994     0.156268    -0.721987
H      0.095735    -0.507616     0.578759
O      2.987217    -1.759369     4.310126
H      3.665604    -2.003922     3.669001
H      2.345210    -2.474060     4.215370
6
BHMC Sample 1295
O      0.141259     0.351348     0.143228
H     -0.236994     0.156268    -0.721987
H      0.095735    -0.507616     0.578759
O      2.649600    -3.174333     4.079948
H      3.327987    -3.418886     3.438823
H      2.007593    -3.889024     3.985192
6
BHMC Sample 1296
O      0.243757    -1.852234     1.042614
H     -0.134496    -2.047313     0.177398
H      0.198233    -2.711198     1.478144
O      2.649600    -3.174333     4.079948
H      3.327987    -3.418886     3.438823
H      2.007593    -3.889024     3.985192
6
BHMC Sample 1297
O      1.877350     0.777108     4.203528
H      1.298038     1.485281     3.899196
H      1.252742     0.056925     4.347680
O      2.649600    -3.174333     4.079948
H      3.327987    -3.418886     3.438823
H      2.007593    -3.889024     3.985192
6
BHMC Sample 1298
O      1.877350     0.777108     4.203528
H      1.298038     1.485281     3.899196
H      1.252742     0.056925     4.347680
O      0.215577    -3.980802     4.873861
H      0.893964    -4.225355     4.232736
H     -0.426429    -4.695493     4.779105
6
BHMC Sample 1299
O      1.877350     0.777108     4.203528
H      1.298038     1.485281     3.899196
H      1.252742     0.056925     4.347680
O      0.175963    -3.968272     4.867327
H      0.850311    -4.217224     4.223639
H     -0.472552    -4.677090     4.772772
6
BHMC Sample 1300
O     -3.391170     2.891819     2.971174
H     -3.587827     3.813902     2.769140
H     -2.635122     2.719273     2.398288
O     -0.008611     0.319257     0.246081
H      0.665737     0.070305    -0.397607
H     -0.657126    -0.389561     0.151526
6
BHMC Sample 1301
O     -0.038465     0.223727     0.248133
H     -0.235123     1.145810     0.046099
H      0.717582     0.051181    -0.324753
O     -3.361316     2.987349     2.969122
H     -2.686968     2.738397     2.325434
H     -4.009830     2.278531     2.874567
6
BHMC Sample 1302
O      3.570128     1.883197    -2.606151
H      3.621265     1.839986    -1.644254
H      4.358757     2.392926    -2.824826
O     -0.008611     0.319257     0.246081
H      0.665737     0.070305    -0.397607
H     -0.657126    -0.389561     0.151526
6
BHMC Sample 1303
O      3.570128     1.883197    -2.606151
H      3.621265     1.839986    -1.644254
H      4.358757     2.392926    -2.824826
O     -0.041746     0.262043     0.146710
H      0.462018    -0.428587     0.594267
H      0.072518     1.017423     0.736863
6
BHMC Sample 1304
O      3.570128     1.883197    -2.606151
H      3.621265     1.839986    -1.644254
H      4.358757     2.392926    -2.824826
O      0.186691     0.835492    -0.791302
H      0.690456     0.144861    -0.343746
H      0.300955     1.590871    -0.201150
6
BHMC Sample 1305
O      0.174284     0.813011    -0.774825
H      0.225420     0.769801     0.187073
H      0.962913     1.322741    -0.993500
O      3.582535     1.905677    -2.622629
H      4.086300     1.215046    -2.175072
H      3.696800     2.661056    -2.032476
6
BHMC Sample 1306
O     -0.279922    -0.155506    -0.247741
H     -0.228786    -0.198717     0.714157
H      0.508707     0.354223    -0.466416
O      2.071822     2.628426    -1.963404
H      1.707362     3.327657    -1.407255
H      2.839351     2.338054    -1.454957
6
BHMC Sample 1307
O     -0.279922    -0.155506    -0.247741
H     -0.228786    -0.198717     0.714157
H      0.508707     0.354223    -0.466416
O      2.264950     3.880831    -1.155648
H      1.900490     4.580062    -0.599500
H      3.032479     3.590459    -0.647202
6
BHMC Sample 1308
O     -2.356904     1.612377     0.237909
H     -2.305768     1.569167     1.199806
H     -1.568275     2.122107     0.019234
O      2.264950     3.880831    -1.155648
H      1.900490     4.580062    -0.599500
H      3.032479     3.590459    -0.647202
6
BHMC Sample 1309
O      0.257467     1.486958    -0.515814
H      0.308603     1.443747     0.446084
H      1.046096     1.996687    -0.734489
O      2.264950     3.880831    -1.155648
H      1.900490     4.580062    -0.599500
H      3.032479     3.590459    -0.647202
6
BHMC Sample 1310
O     -0.279922    -0.155506    -0.247741
H     -0.228786    -0.198717     0.714157
H      0.508707     0.354223    -0.466416
O     -0.048316    -0.048694     2.962742
H      0.286102     0.840455     3.131957
H      0.748097    -0.588384     3.042705
6
BHMC Sample 1311
O     -2.971161    -0.718031     1.923894
H     -2.078233    -0.596551     2.266896
H     -2.964443    -0.149564     1.145191
O     -0.048316    -0.048694     2.962742
H      0.286102     0.840455     3.131957
H      0.748097    -0.588384     3.042705
6
BHMC Sample 1312
O     -1.627711    -2.392087     0.655987
H     -0.734782    -2.270608     0.998989
H     -1.620992    -1.823620    -0.122717
O     -0.048316    -0.048694     2.962742
H      0.286102     0.840455     3.131957
H      0.748097    -0.588384     3.042705
6
BHMC Sample 1313
O     -0.299882    -0.229982     0.145234
H      0.593046    -0.108503     0.488236
H     -0.293164     0.338485    -0.633470
O     -2.907342     0.372134    -1.877443
H     -3.662123    -0.098302    -2.251676
H     -3.316548     0.898316    -1.179146
6
BHMC Sample 1314
O     -2.270494    -1.098335     1.117769
H     -1.866535    -1.181185     1.989366
H     -1.831276    -0.314370     0.768391
O     -2.907342     0.372134    -1.877443
H     -3.662123    -0.098302    -2.251676
H     -3.316548     0.898316    -1.179146
6
BHMC Sample 1315
O     -3.019649     0.336024    -1.888530
H     -2.615690     0.253174    -1.016933
H     -2.580431     1.119989    -2.237908
O     -2.158187    -1.062225     1.128856
H     -2.912968    -1.532661     0.754623
H     -2.567393    -0.536043     1.827153
6
BHMC Sample 1316
O     -0.281059    -0.233705    -0.174073
H      0.122900    -0.316555     0.697524
H      0.158159     0.550260    -0.523451
O      0.733987     2.128583    -2.452543
H     -0.021500     1.640887    -2.802470
H      0.337749     2.972311    -2.201439
6
BHMC Sample 1317
O     -0.281059    -0.233705    -0.174073
H      0.122900    -0.316555     0.697524
H      0.158159     0.550260    -0.523451
O      0.094026     2.699028    -1.927805
H     -0.362774     2.048538    -2.474845
H     -0.623661     3.287974    -1.663226
6
BHMC Sample 1318
O     -0.281059    -0.233705    -0.174073
H      0.122900    -0.316555     0.697524
H      0.158159     0.550260    -0.523451
O     -1.478470     2.191800     0.065513
H     -1.935270     1.541311    -0.481527
H     -2.196157     2.780747     0.330092
6
BHMC Sample 1319
O     -0.281059    -0.233705    -0.174073
H      0.122900    -0.316555     0.697524
H      0.158159     0.550260    -0.523451
O      1.973068    -0.475671    -1.695550
H      1.152074    -0.778225    -2.102349
H      2.640644    -0.983325    -2.173635
6
BHMC Sample 1320
O      1.917305    -0.560234    -1.774283
H      2.321265    -0.643084    -0.902685
H      2.356524     0.223731    -2.123660
O     -0.225296    -0.149142    -0.095341
H     -1.046291    -0.451695    -0.502139
H      0.442279    -0.656796    -0.573426
6
BHMC Sample 1321
O      1.917305    -0.560234    -1.774283
H      2.321265    -0.643084    -0.902685
H      2.356524     0.223731    -2.123660
O     -0.234154    -0.213786    -0.079989
H      0.520330    -0.029633    -0.652612
H     -0.983749    -0.052815    -0.666615
6
BHMC Sample 1322
O     -0.281059    -0.233705    -0.174073
H      0.122900    -0.316555     0.697524
H      0.158159     0.550260    -0.523451
O      0.844711    -2.655581    -0.689406
H      0.741158    -1.700295    -0.601306
H      0.789281    -2.782846    -1.644741
6
BHMC Sample 1323
O     -0.281059    -0.233705    -0.174073
H      0.122900    -0.316555     0.697524
H      0.158159     0.550260    -0.523451
O      0.889869    -1.549873    -2.246542
H      0.763686    -1.148703    -1.378098
H      0.801167    -2.491801    -2.054611
6
BHMC Sample 1324
O     -0.281059    -0.233705    -0.174073
H      0.122900    -0.316555     0.697524
H      0.158159     0.550260    -0.523451
O     -0.423086    -0.326688    -2.876837
H     -0.167379    -0.517863    -1.966275
H     -1.017116    -1.059070    -3.083428
6
BHMC Sample 1325
O     -0.489195    -0.417594    -2.866667
H     -0.085235    -0.500444    -1.995070
H     -0.049977     0.366371    -3.216045
O     -0.214950    -0.142799    -0.184243
H      0.040757    -0.333974     0.726319
H     -0.808981    -0.875181    -0.390834
6
BHMC Sample 1326
O     -0.662752     0.854474    -2.642655
H     -0.220867     0.360551    -1.942293
H     -0.167272     1.681557    -2.646184
O     -0.214950    -0.142799    -0.184243
H      0.040757    -0.333974     0.726319
H     -0.808981    -0.875181    -0.390834
6
BHMC Sample 1327
O     -0.702240    -0.128883    -2.846626
H     -0.236344     0.013589    -2.014537
H     -1.100624     0.735196    -3.002310
O     -0.214950    -0.142799    -0.184243
H      0.040757    -0.333974     0.726319
H     -0.808981    -0.875181    -0.390834
6
BHMC Sample 1328
O     -1.142515     0.852424    -2.569956
H     -0.692382     1.005788    -1.731153
H     -0.420670     0.942471    -3.202735
O      0.112774     0.307852    -0.234657
H      0.368482     0.116678     0.675905
H     -0.481256    -0.424530    -0.441248
6
BHMC Sample 1329
O     -1.142515     0.852424    -2.569956
H     -0.692382     1.005788    -1.731153
H     -0.420670     0.942471    -3.202735
O      0.116012     0.165214    -0.275313
H      0.374627    -0.071615     0.623623
H     -0.516311    -0.529153    -0.498818
6
BHMC Sample 1330
O     -0.390659    -0.081137    -0.068674
H      0.059473     0.072226     0.770128
H      0.331186     0.008910    -0.701454
O      0.454854     1.362386     2.058033
H      0.580575     1.811156     2.902933
H     -0.383300     1.729893     1.750834
6
BHMC Sample 1331
O     -1.702359     0.156572     3.300201
H     -0.778105     0.411510     3.197783
H     -1.709808    -0.725796     2.911679
O      0.454854     1.362386     2.058033
H      0.580575     1.811156     2.902933
H     -0.383300     1.729893     1.750834
6
BHMC Sample 1332
O      0.571264     2.241827    -1.283467
H      0.814744     1.480185    -0.744628
H      1.029719     2.055179    -2.110849
O      0.237478    -0.272092    -0.179234
H      0.363199     0.176677     0.665666
H     -0.600676     0.095415    -0.486432
6
BHMC Sample 1333
O      0.571264     2.241827    -1.283467
H      0.814744     1.480185    -0.744628
H      1.029719     2.055179    -2.110849
O     -0.260762     0.213991    -2.970344
H     -0.325472    -0.327367    -2.174228
H     -0.951582     0.873395    -2.829319
6
BHMC Sample 1334
O     -2.257846    -1.017222    -0.941003
H     -1.954767    -1.725258    -0.360868
H     -1.552376    -0.981693    -1.597226
O      0.251843    -0.039349    -0.312380
H      0.187134    -0.580707     0.483736
H     -0.438977     0.620056    -0.171355
6
BHMC Sample 1335
O     -1.811345    -1.874519    -0.472547
H     -2.293156    -1.075539    -0.715896
H     -1.088168    -1.872989    -1.110192
O      0.251843    -0.039349    -0.312380
H      0.187134    -0.580707     0.483736
H     -0.438977     0.620056    -0.171355
6
BHMC Sample 1336
O     -0.080455    -0.266837     0.293665
H     -0.562266     0.532143     0.050316
H      0.642722    -0.265306    -0.343981
O     -0.515167    -0.802560    -2.384819
H     -0.784226    -1.537877    -1.820929
H     -1.265705    -0.199837    -2.311659
6
BHMC Sample 1337
O     -0.080455    -0.266837     0.293665
H     -0.562266     0.532143     0.050316
H      0.642722    -0.265306    -0.343981
O      1.897788    -1.259586    -1.341141
H      1.618291    -1.901803    -0.677443
H      1.208438    -1.341438    -2.011985
6
BHMC Sample 1338
O     -0.080455    -0.266837     0.293665
H     -0.562266     0.532143     0.050316
H      0.642722    -0.265306    -0.343981
O     -2.206212     1.455829     0.002250
H     -2.392725     0.752090     0.635511
H     -2.357544     1.017997    -0.844707
6
BHMC Sample 1339
O     -0.080455    -0.266837     0.293665
H     -0.562266     0.532143     0.050316
H      0.642722    -0.265306    -0.343981
O     -2.364999     0.847108     1.257391
H     -2.163161     0.004310     1.681667
H     -2.770921     0.569075     0.426813
6
BHMC Sample 1340
O     -0.080455    -0.266837     0.293665
H     -0.562266     0.532143     0.050316
H      0.642722    -0.265306    -0.343981
O      1.955037    -2.011247    -0.156716
H      1.353480    -2.322479     0.530540
H      1.484493    -2.246523    -0.966141
6
BHMC Sample 1341
O      0.459634    -2.550115    -0.233770
H      1.026272    -3.303080    -0.437962
H      1.105240    -1.849999    -0.083405
O      0.357366     0.182169     0.040723
H     -0.244190    -0.129062     0.727979
H     -0.113177    -0.053107    -0.768702
6
BHMC Sample 1342
O     -0.404081     0.017617     0.017942
H      0.162556    -0.735349    -0.186250
H      0.241525     0.717732     0.168307
O     -0.928701     2.444311     1.032820
H     -1.545846     2.378717     0.293979
H     -1.274385     1.787907     1.650534
6
BHMC Sample 1343
O      0.797842    -2.082683    -1.212119
H      1.287023    -2.667909    -1.801984
H      1.451443    -1.399882    -1.021942
O      0.320943     0.240666     0.040376
H     -0.296202     0.175072    -0.698465
H     -0.024741    -0.415738     0.658090
6
BHMC Sample 1344
O      0.203127     0.194808     0.055962
H      0.692309    -0.390418    -0.533903
H      0.856728     0.877609     0.246139
O      0.915658    -2.036825    -1.227705
H      0.298513    -2.102419    -1.966546
H      0.569974    -2.693229    -0.609991
6
BHMC Sample 1345
O     -0.380928    -0.032525     0.133229
H      0.108254    -0.617751    -0.456636
H      0.272674     0.650276     0.323406
O      0.080859    -1.852449    -1.766854
H     -0.058688    -2.702233    -1.331596
H     -0.726996    -1.749991    -2.285319
6
BHMC Sample 1346
O     -1.438081     0.366739    -1.782141
H     -0.658844    -0.194888    -1.697916
H     -1.044777     1.225092    -1.977389
O      0.080859    -1.852449    -1.766854
H     -0.058688    -2.702233    -1.331596
H     -0.726996    -1.749991    -2.285319
6
BHMC Sample 1347
O     -0.037759    -1.910867    -1.765298
H      0.741478    -2.472494    -1.681073
H      0.355546    -1.052515    -1.960546
O     -1.319463     0.425158    -1.783697
H     -1.459011    -0.424626    -1.348439
H     -2.127319     0.527616    -2.302163
6
BHMC Sample 1348
O      0.176512    -0.565484     2.560946
H      0.489128    -0.627509     3.470975
H      0.638085     0.219773     2.244878
O      0.315801     0.249109     0.027736
H      0.176253    -0.600675     0.462994
H     -0.492054     0.351567    -0.490729
6
BHMC Sample 1349
O     -0.105692    -0.181066     2.622848
H      0.087754    -0.078992     3.561937
H      0.340532     0.584658     2.243202
O      0.315801     0.249109     0.027736
H      0.176253    -0.600675     0.462994
H     -0.492054     0.351567    -0.490729
6
BHMC Sample 1350
O     -0.105692    -0.181066     2.622848
H      0.087754    -0.078992     3.561937
H      0.340532     0.584658     2.243202
O     -0.761317     0.860086     0.260586
H     -1.026485     0.003790     0.617657
H     -1.595020     1.346622     0.248118
6
BHMC Sample 1351
O     -0.105692    -0.181066     2.622848
H      0.087754    -0.078992     3.561937
H      0.340532     0.584658     2.243202
O      0.177482     0.050000    -0.010046
H      0.072371    -0.765214     0.495359
H     -0.656857     0.103698    -0.492674
6
BHMC Sample 1352
O     -0.213223    -0.289266    -0.186481
H     -0.019777    -0.187192     0.752608
H      0.233000     0.476458    -0.566127
O     -0.609465     0.383324    -2.727411
H     -1.209152    -0.110486    -2.155062
H     -0.327759    -0.288249    -3.361103
6
BHMC Sample 1353
O     -0.213223    -0.289266    -0.186481
H     -0.019777    -0.187192     0.752608
H      0.233000     0.476458    -0.566127
O     -1.442918    -1.804379     1.618444
H     -1.764358    -1.567827     0.739936
H     -1.265160    -2.748800     1.526762
6
BHMC Sample 1354
O      1.378299    -2.109175    -0.738292
H      1.901557    -1.299761    -0.766175
H      2.042884    -2.782472    -0.924239
O      0.047894     0.235956     0.323397
H     -0.273546     0.472508    -0.555111
H      0.225652    -0.708464     0.231714
6
BHMC Sample 1355
O      1.643818    -1.408507    -1.841581
H      2.167077    -0.599093    -1.869464
H      2.308404    -2.081804    -2.027527
O      0.047894     0.235956     0.323397
H     -0.273546     0.472508    -0.555111
H      0.225652    -0.708464     0.231714
6
BHMC Sample 1356
O     -1.688180    -2.135016    -0.818051
H     -2.405497    -1.596097    -0.464851
H     -2.030509    -3.027861    -0.694691
O      0.047894     0.235956     0.323397
H     -0.273546     0.472508    -0.555111
H      0.225652    -0.708464     0.231714
6
BHMC Sample 1357
O     -0.848493    -2.471202    -1.034076
H     -1.597421    -2.363518    -0.436380
H     -0.763648    -3.430684    -1.076201
O      0.047894     0.235956     0.323397
H     -0.273546     0.472508    -0.555111
H      0.225652    -0.708464     0.231714
6
BHMC Sample 1358
O      0.077012     0.244010     0.238025
H     -0.671916     0.351693     0.835721
H      0.161857    -0.715472     0.195900
O     -0.877611    -2.479255    -0.948705
H     -1.199051    -2.242704    -1.827212
H     -0.699853    -3.423676    -1.040387
6
BHMC Sample 1359
O      0.040112     0.263373     0.257871
H      0.396671    -0.445672    -0.289714
H     -0.321049    -0.225434     1.006342
O     -0.877611    -2.479255    -0.948705
H     -1.199051    -2.242704    -1.827212
H     -0.699853    -3.423676    -1.040387
6
BHMC Sample 1360
O     -0.885393    -2.451839    -1.014230
H     -0.528834    -3.160884    -1.561816
H     -1.246554    -2.940646    -0.265759
O      0.047894     0.235956     0.323397
H     -0.273546     0.472508    -0.555111
H      0.225652    -0.708464     0.231714
6
BHMC Sample 1361
O      0.777983    -2.114722     2.174384
H      1.482668    -2.761030     2.298622
H      0.730940    -1.701658     3.044294
O      0.047894     0.235956     0.323397
H     -0.273546     0.472508    -0.555111
H      0.225652    -0.708464     0.231714
6
BHMC Sample 1362
O     -0.219214     0.077748    -0.331383
H      0.485471    -0.568560    -0.207145
H     -0.266257     0.490812     0.538527
O     -0.938714     0.068957    -3.267297
H     -1.640840     0.183658    -3.919156
H     -1.379360     0.311204    -2.443233
6
BHMC Sample 1363
O     -0.264067     2.139305    -1.153509
H      0.586445     2.526622    -1.390879
H     -0.523193     2.676678    -0.396104
O     -0.938714     0.068957    -3.267297
H     -1.640840     0.183658    -3.919156
H     -1.379360     0.311204    -2.443233
6
BHMC Sample 1364
O      0.229098     1.551229    -2.586887
H      1.097633     1.947271    -2.723003
H     -0.289570     1.962945    -3.287638
O      0.380924    -0.118983    -0.057402
H     -0.321202    -0.004281    -0.709261
H     -0.059722     0.123264     0.766663
6
BHMC Sample 1365
O      1.055571     1.951366     2.056386
H      1.906083     2.338682     1.819016
H      0.796445     2.488739     2.813791
O      0.380924    -0.118983    -0.057402
H     -0.321202    -0.004281    -0.709261
H     -0.059722     0.123264     0.766663
6
BHMC Sample 1366
O      0.103213     2.363422     1.703732
H      0.879503     2.914481     1.550641
H     -0.428735     2.924358     2.279892
O      0.380924    -0.118983    -0.057402
H     -0.321202    -0.004281    -0.709261
H     -0.059722     0.123264     0.766663
6
BHMC Sample 1367
O     -0.556536     2.044004    -2.002856
H      0.208595     2.589661    -2.218638
H     -1.269994     2.517063    -2.446447
O      0.380924    -0.118983    -0.057402
H     -0.321202    -0.004281    -0.709261
H     -0.059722     0.123264     0.766663
6
BHMC Sample 1368
O     -1.690294     2.392601    -1.573948
H     -0.925163     2.938258    -1.789731
H     -2.403752     2.865660    -2.017540
O      0.380924    -0.118983    -0.057402
H     -0.321202    -0.004281    -0.709261
H     -0.059722     0.123264     0.766663
6
BHMC Sample 1369
O     -2.407950    -1.636905    -1.606633
H     -2.049014    -2.520319    -1.463544
H     -3.167682    -1.819682    -2.171413
O      0.380924    -0.118983    -0.057402
H     -0.321202    -0.004281    -0.709261
H     -0.059722     0.123264     0.766663
6
BHMC Sample 1370
O      0.339408    -0.039354    -0.024171
H      0.698344    -0.922767     0.118918
H     -0.420325    -0.222131    -0.588952
O     -2.366434    -1.716535    -1.639863
H     -3.068559    -1.601833    -2.291722
H     -2.807079    -1.474287    -0.815799
6
BHMC Sample 1371
O      0.133599     0.355397     0.140564
H      0.492535    -0.528017     0.283653
H     -0.626134     0.172620    -0.424217
O      0.415994    -3.192737     0.415841
H      1.037687    -3.906887     0.601701
H      0.054398    -2.999983     1.289929
6
BHMC Sample 1372
O      0.133599     0.355397     0.140564
H      0.492535    -0.528017     0.283653
H     -0.626134     0.172620    -0.424217
O     -0.280386     0.621622    -3.174038
H     -0.696223     1.163861    -3.855296
H     -0.853413    -0.154866    -3.148727
6
BHMC Sample 1373
O      2.959993    -1.912619     0.807798
H      2.760577    -2.361603     1.637482
H      2.150874    -2.056972     0.303745
O      0.329622     0.078083     0.218649
H     -0.086216     0.620322    -0.462609
H     -0.243406    -0.698405     0.243960
6
BHMC Sample 1374
O      0.336178     0.197779    -0.108544
H      0.136762    -0.251205     0.721140
H     -0.472940     0.053426    -0.612596
O     -0.412144    -2.008894    -2.516750
H     -0.548107    -2.090835    -3.468514
H     -1.313555    -2.053016    -2.174046
6
BHMC Sample 1375
O      0.336178     0.197779    -0.108544
H      0.136762    -0.251205     0.721140
H     -0.472940     0.053426    -0.612596
O     -2.294193     2.188481    -0.697693
H     -2.710031     2.730720    -1.378951
H     -2.867221     1.411993    -0.672381
6
BHMC Sample 1376
O      0.336178     0.197779    -0.108544
H      0.136762    -0.251205     0.721140
H     -0.472940     0.053426    -0.612596
O     -2.283568     2.161786    -0.727644
H     -2.967597     2.189790    -0.047661
H     -2.778292     2.376635    -1.528283
6
BHMC Sample 1377
O     -0.185850    -0.353557    -1.396657
H     -0.186757    -0.905945    -0.606343
H     -1.128982    -0.245244    -1.565027
O     -2.283568     2.161786    -0.727644
H     -2.967597     2.189790    -0.047661
H     -2.778292     2.376635    -1.528283
6
BHMC Sample 1378
O     -2.296701     2.200222    -0.769195
H     -2.297608     1.647833     0.021118
H     -3.239834     2.308535    -0.937565
O     -0.172717    -0.391993    -1.355106
H     -0.856746    -0.363989    -0.675123
H     -0.667440    -0.177144    -2.155745
6
BHMC Sample 1379
O     -0.185850    -0.353557    -1.396657
H     -0.186757    -0.905945    -0.606343
H     -1.128982    -0.245244    -1.565027
O     -2.283568     2.161786    -0.727644
H     -2.967597     2.189790    -0.047661
H     -2.778292     2.376635    -1.528283
6
BHMC Sample 1380
O     -4.548145     1.597921     1.785164
H     -4.020867     1.241561     2.509536
H     -4.039528     2.377294     1.533241
O     -2.283568     2.161786    -0.727644
H     -2.967597     2.189790    -0.047661
H     -2.778292     2.376635    -1.528283
6
BHMC Sample 1381
O     -4.548145     1.597921     1.785164
H     -4.020867     1.241561     2.509536
H     -4.039528     2.377294     1.533241
O     -2.507107     2.225650    -0.892330
H     -3.144155     2.228957    -0.167614
H     -3.069503     2.371277    -1.663328
6
BHMC Sample 1382
O     -4.548145     1.597921     1.785164
H     -4.020867     1.241561     2.509536
H     -4.039528     2.377294     1.533241
O     -2.560403    -0.049601     0.319487
H     -3.197451    -0.046295     1.044204
H     -3.122799     0.096025    -0.451510
6
BHMC Sample 1383
O     -0.345298    -0.141004    -0.157483
H      0.181980    -0.497364     0.566889
H      0.163318     0.638369    -0.409406
O      1.634582    -1.305298    -2.038489
H      0.986133    -0.601336    -1.915976
H      1.087481    -2.099806    -2.001452
6
BHMC Sample 1384
O     -0.345298    -0.141004    -0.157483
H      0.181980    -0.497364     0.566889
H      0.163318     0.638369    -0.409406
O      1.572300    -1.375693    -2.055013
H      0.981344    -0.626364    -1.912421
H      0.961065    -2.122845    -2.064477
6
BHMC Sample 1385
O     -0.345298    -0.141004    -0.157483
H      0.181980    -0.497364     0.566889
H      0.163318     0.638369    -0.409406
O     -1.503014     1.830883     1.725269
H     -1.294577     1.640984     0.802475
H     -2.151004     1.147149     1.936340
6
BHMC Sample 1386
O     -0.325972    -2.619455     0.515369
H      0.614504    -2.737868     0.692035
H     -0.653556    -2.321620     1.371851
O      0.146518     0.291211     0.237241
H      0.354955     0.101312    -0.685553
H     -0.501473    -0.392523     0.448312
6
BHMC Sample 1387
O      1.304234    -1.680676    -1.645511
H      1.831511    -2.037036    -0.921139
H      1.812850    -0.901303    -1.897434
O      0.146518     0.291211     0.237241
H      0.354955     0.101312    -0.685553
H     -0.501473    -0.392523     0.448312
6
BHMC Sample 1388
O      1.304234    -1.680676    -1.645511
H      1.831511    -2.037036    -0.921139
H      1.812850    -0.901303    -1.897434
O      0.169559     0.271434     0.235680
H     -0.013721    -0.667397     0.108947
H     -0.498504     0.690087    -0.321416
6
BHMC Sample 1389
O      0.395662     1.091710    -2.561388
H      0.473761     1.995949    -2.235841
H      1.297952     0.766255    -2.463767
O      0.283781     0.173393     0.227943
H      0.100501    -0.765438     0.101210
H     -0.384282     0.592045    -0.329153
6
BHMC Sample 1390
O     -2.145653    -3.634146     2.551108
H     -2.750510    -4.088731     1.953421
H     -2.242163    -4.148197     3.361056
O      2.763648    -0.834607    -2.211580
H      2.915002    -0.525216    -3.112927
H      2.842501    -0.021431    -1.697323
6
BHMC Sample 1391
O     -2.145653    -3.634146     2.551108
H     -2.750510    -4.088731     1.953421
H     -2.242163    -4.148197     3.361056
O      2.747862    -0.496578    -2.009640
H      2.905377    -0.151424    -2.896834
H      2.786559     0.300953    -1.467070
6
BHMC Sample 1392
O     -2.067176    -3.503353     2.720884
H     -1.600736    -3.480124     3.564461
H     -2.988957    -3.516013     3.003263
O      2.747862    -0.496578    -2.009640
H      2.905377    -0.151424    -2.896834
H      2.786559     0.300953    -1.467070
6
BHMC Sample 1393
O      2.784319    -0.433232    -2.091924
H      3.250759    -0.410003    -1.248347
H      1.862538    -0.445892    -1.809544
O     -2.103633    -3.566699     2.803168
H     -1.946118    -3.221545     1.915973
H     -2.064936    -2.769168     3.345738
6
BHMC Sample 1394
O      2.784319    -0.433232    -2.091924
H      3.250759    -0.410003    -1.248347
H      1.862538    -0.445892    -1.809544
O     -2.227157     2.901381     2.536074
H     -2.008929     2.137419     1.988538
H     -2.348383     3.598903     1.879795
6
BHMC Sample 1395
O      2.784319    -0.433232    -2.091924
H      3.250759    -0.410003    -1.248347
H      1.862538    -0.445892    -1.809544
O     -2.179910     2.950700     2.464410
H     -3.033213     2.817333     2.034128
H     -2.074009     2.136197     2.971662
6
BHMC Sample 1396
O     -2.196252     2.897072     2.405716
H     -1.729811     2.920301     3.249293
H     -3.118033     2.884412     2.688095
O      2.800661    -0.379604    -2.033229
H      1.947357    -0.512971    -2.463512
H      2.906562    -1.194107    -1.525978
6
BHMC Sample 1397
O     -2.769764     4.301829     1.816180
H     -2.303323     4.325059     2.659757
H     -3.691545     4.289169     2.098560
O      2.800661    -0.379604    -2.033229
H      1.947357    -0.512971    -2.463512
H      2.906562    -1.194107    -1.525978
6
BHMC Sample 1398
O     -2.769764     4.301829     1.816180
H     -2.303323     4.325059     2.659757
H     -3.691545     4.289169     2.098560
O      2.740510    -0.448117    -1.965639
H      2.185009    -0.177465    -2.706735
H      3.623615    -0.442169    -2.355544
6
BHMC Sample 1399
O     -2.769764     4.301829     1.816180
H     -2.303323     4.325059     2.659757
H     -3.691545     4.289169     2.098560
O      2.554948    -1.297463    -2.598591
H      1.999447    -1.026811    -3.339686
H      3.438052    -1.291514    -2.988495
6
BHMC Sample 1400
O     -2.769764     4.301829     1.816180
H     -2.303323     4.325059     2.659757
H     -3.691545     4.289169     2.098560
O      1.478033    -3.532527    -3.531007
H      0.922532    -3.261875    -4.272102
H      2.361137    -3.526578    -3.920911
6
BHMC Sample 1401
O     -2.769764     4.301829     1.816180
H     -2.303323     4.325059     2.659757
H     -3.691545     4.289169     2.098560
O      1.639167    -3.458134    -3.508511
H      1.132556    -3.155213    -4.271820
H      2.543315    -3.458721    -3.846815
6
BHMC Sample 1402
O     -2.769764     4.301829     1.816180
H     -2.303323     4.325059     2.659757
H     -3.691545     4.289169     2.098560
O      2.535082    -2.851518    -3.040514
H      2.028471    -2.548597    -3.803822
H      3.439231    -2.852105    -3.378817
6
BHMC Sample 1403
O     -2.235777     3.113741     0.479534
H     -1.769336     3.136970     1.323112
H     -3.157558     3.101081     0.761914
O      2.535082    -2.851518    -3.040514
H      2.028471    -2.548597    -3.803822
H      3.439231    -2.852105    -3.378817
6
BHMC Sample 1404
O      2.582803    -2.835193    -3.165154
H      3.049244    -2.811964    -2.321576
H      1.661022    -2.847853    -2.882774
O     -2.283499     3.097416     0.604174
H     -2.790109     3.400337    -0.159134
H     -1.379350     3.096829     0.265871
6
BHMC Sample 1405
O      2.582803    -2.835193    -3.165154
H      3.049244    -2.811964    -2.321576
H      1.661022    -2.847853    -2.882774
O     -0.982653     2.722788     1.864784
H     -1.489263     3.025709     1.101475
H     -0.078504     2.722201     1.526480
6
BHMC Sample 1406
O      2.289903    -4.304082    -2.963439
H      2.756344    -4.280852    -2.119862
H      1.368122    -4.316742    -2.681060
O     -0.982653     2.722788     1.864784
H     -1.489263     3.025709     1.101475
H     -0.078504     2.722201     1.526480
6
BHMC Sample 1407
O      1.960328    -2.872776    -2.328457
H      2.426769    -2.849547    -1.484880
H      1.038547    -2.885436    -2.046077
O     -0.982653     2.722788     1.864784
H     -1.489263     3.025709     1.101475
H     -0.078504     2.722201     1.526480
6
BHMC Sample 1408
O      0.495930    -1.693743    -3.802276
H      0.962371    -1.670514    -2.958699
H     -0.425851    -1.706403    -3.519896
O     -0.982653     2.722788     1.864784
H     -1.489263     3.025709     1.101475
H     -0.078504     2.722201     1.526480
6
BHMC Sample 1409
O     -0.934931     2.739113     1.740144
H     -0.468490     2.762342     2.583721
H     -1.856712     2.726453     2.022524
O      0.448209    -1.710069    -3.677636
H     -0.058402    -1.407147    -4.440945
H      1.352358    -1.710655    -4.015939
6
BHMC Sample 1410
O      0.495930    -1.693743    -3.802276
H      0.962371    -1.670514    -2.958699
H     -0.425851    -1.706403    -3.519896
O     -0.982653     2.722788     1.864784
H     -1.489263     3.025709     1.101475
H     -0.078504     2.722201     1.526480
6
BHMC Sample 1411
O      0.495930    -1.693743    -3.802276
H      0.962371    -1.670514    -2.958699
H     -0.425851    -1.706403    -3.519896
O     -2.715427    -3.865070     2.437331
H     -2.019900    -3.234751     2.660930
H     -2.235669    -4.531874     1.930243
6
BHMC Sample 1412
O      0.495930    -1.693743    -3.802276
H      0.962371    -1.670514    -2.958699
H     -0.425851    -1.706403    -3.519896
O     -2.089289     4.741317    -1.489199
H     -1.125157     4.778647    -1.478558
H     -2.273174     3.974297    -0.932602
6
BHMC Sample 1413
O      0.595618    -0.319934    -4.740424
H      1.062059    -0.296704    -3.896847
H     -0.326163    -0.332594    -4.458045
O     -2.089289     4.741317    -1.489199
H     -1.125157     4.778647    -1.478558
H     -2.273174     3.974297    -0.932602
6
BHMC Sample 1414
O     -0.380387     0.353228    -4.506977
H      0.086054     0.376458    -3.663400
H     -1.302168     0.340568    -4.224597
O     -2.089289     4.741317    -1.489199
H     -1.125157     4.778647    -1.478558
H     -2.273174     3.974297    -0.932602
6
BHMC Sample 1415
O      0.151780    -0.003523    -0.375319
H      0.618221     0.019706     0.468258
H     -0.770001    -0.016183    -0.092939
O      0.745520     4.331100    -3.052443
H      1.446363     4.374543    -2.390637
H      0.995130     3.554013    -3.567969
6
BHMC Sample 1416
O      0.151780    -0.003523    -0.375319
H      0.618221     0.019706     0.468258
H     -0.770001    -0.016183    -0.092939
O      0.911073    -4.401266    -2.903521
H      1.612632    -4.395538    -2.241072
H      1.131392    -3.633304    -3.445396
6
BHMC Sample 1417
O     -0.683800     0.447167     0.913199
H     -0.217360     0.470396     1.756776
H     -1.605581     0.434507     1.195578
O      0.911073    -4.401266    -2.903521
H      1.612632    -4.395538    -2.241072
H      1.131392    -3.633304    -3.445396
6
BHMC Sample 1418
O      0.151780    -0.003523    -0.375319
H      0.618221     0.019706     0.468258
H     -0.770001    -0.016183    -0.092939
O     -1.689234    -4.772177     4.305611
H     -0.724387    -4.772562     4.316896
H     -1.902411    -3.994149     4.835859
6
BHMC Sample 1419
O      0.151780    -0.003523    -0.375319
H      0.618221     0.019706     0.468258
H     -0.770001    -0.016183    -0.092939
O     -1.871633     4.848726     4.141536
H     -0.907501     4.886056     4.152177
H     -2.055518     4.081705     4.698133
6
BHMC Sample 1420
O      0.151780    -0.003523    -0.375319
H      0.618221     0.019706     0.468258
H     -0.770001    -0.016183    -0.092939
O      1.564255     4.768946    -4.356114
H      2.265099     4.812389    -3.694308
H      1.813865     3.991860    -4.871639
6
BHMC Sample 1421
O      0.151780    -0.003523    -0.375319
H      0.618221     0.019706     0.468258
H     -0.770001    -0.016183    -0.092939
O     -1.871633     4.848726     4.141536
H     -0.907501     4.886056     4.152177
H     -2.055518     4.081705     4.698133
6
BHMC Sample 1422
O      0.151780    -0.003523    -0.375319
H      0.618221     0.019706     0.468258
H     -0.770001    -0.016183    -0.092939
O     -0.432752     3.553118     3.182506
H      0.531379     3.590448     3.193147
H     -0.616637     2.786098     3.739103
6
BHMC Sample 1423
O      2.046311     0.074443     0.573548
H      2.512752     0.097673     1.417125
H      1.124530     0.061783     0.855927
O     -0.432752     3.553118     3.182506
H      0.531379     3.590448     3.193147
H     -0.616637     2.786098     3.739103
6
BHMC Sample 1424
O      2.046311     0.074443     0.573548
H      2.512752     0.097673     1.417125
H      1.124530     0.061783     0.855927
O     -2.135974     1.152700     3.118209
H     -1.574088     0.453164     3.473159
H     -2.518594     0.734707     2.336660
6
BHMC Sample 1425
O     -2.100466     1.089579     3.031338
H     -1.634025     1.112809     3.874915
H     -3.022247     1.076919     3.313718
O      2.010803     0.137564     0.660419
H      2.572689    -0.561972     1.015369
H      1.628182    -0.280429    -0.121130
6
BHMC Sample 1426
O     -2.100466     1.089579     3.031338
H     -1.634025     1.112809     3.874915
H     -3.022247     1.076919     3.313718
O      3.573538    -0.687304     0.521284
H      4.135424    -1.386840     0.876235
H      3.190917    -1.105297    -0.260264
6
BHMC Sample 1427
O      3.609046    -0.750425     0.434413
H      4.075487    -0.727196     1.277990
H      2.687265    -0.763085     0.716793
O     -2.135974     1.152700     3.118209
H     -1.574088     0.453164     3.473159
H     -2.518594     0.734707     2.336660
6
BHMC Sample 1428
O     -2.100466     1.089579     3.031338
H     -1.634025     1.112809     3.874915
H     -3.022247     1.076919     3.313718
O      3.573538    -0.687304     0.521284
H      4.135424    -1.386840     0.876235
H      3.190917    -1.105297    -0.260264
6
BHMC Sample 1429
O     -2.100466     1.089579     3.031338
H     -1.634025     1.112809     3.874915
H     -3.022247     1.076919     3.313718
O      2.463871     1.925506     1.299520
H      3.025757     1.225970     1.654471
H      2.081250     1.507513     0.517972
6
BHMC Sample 1430
O     -3.546482     0.130028     3.450068
H     -3.080041     0.153257     4.293645
H     -4.468263     0.117368     3.732447
O      2.463871     1.925506     1.299520
H      3.025757     1.225970     1.654471
H      2.081250     1.507513     0.517972
6
BHMC Sample 1431
O     -2.752572    -2.203135     1.631914
H     -3.142005    -1.417945     2.033845
H     -3.532207    -2.738619     1.444819
O      2.463871     1.925506     1.299520
H      3.025757     1.225970     1.654471
H      2.081250     1.507513     0.517972
6
BHMC Sample 1432
O      2.539315     1.849004     1.263630
H      2.149883     2.634194     1.665561
H      1.759680     1.313520     1.076534
O     -2.828016    -2.126634     1.667804
H     -2.266130    -2.826170     2.022755
H     -3.210637    -2.544627     0.886256
6
BHMC Sample 1433
O      3.590808     1.865080     1.972674
H      3.201376     2.650269     2.374605
H      2.811173     1.329595     1.785578
O     -2.828016    -2.126634     1.667804
H     -2.266130    -2.826170     2.022755
H     -3.210637    -2.544627     0.886256
6
BHMC Sample 1434
O      3.590808     1.865080     1.972674
H      3.201376     2.650269     2.374605
H      2.811173     1.329595     1.785578
O     -1.437683    -2.121356     2.544637
H     -0.875797    -2.820892     2.899587
H     -1.820303    -2.539349     1.763088
6
BHMC Sample 1435
O      0.859868     3.816227     3.324119
H      0.334819     4.081535     4.088098
H      0.371941     3.048772     3.003933
O     -1.437683    -2.121356     2.544637
H     -0.875797    -2.820892     2.899587
H     -1.820303    -2.539349     1.763088
6
BHMC Sample 1436
O     -1.370973    -2.155788     2.495935
H     -1.896022    -1.890480     3.259914
H     -1.858900    -2.923243     2.175749
O      0.793158     3.850659     3.372820
H      1.355044     3.151123     3.727771
H      0.410538     3.432667     2.591272
6
BHMC Sample 1437
O     -1.370973    -2.155788     2.495935
H     -1.896022    -1.890480     3.259914
H     -1.858900    -2.923243     2.175749
O      0.429696     4.854621     2.846407
H      0.991582     4.155084     3.201357
H      0.047076     4.436628     2.064858
6
BHMC Sample 1438
O     -2.929646    -2.695085     2.887401
H     -3.454695    -2.429777     3.651380
H     -3.417574    -3.462539     2.567215
O      0.429696     4.854621     2.846407
H      0.991582     4.155084     3.201357
H      0.047076     4.436628     2.064858
6
BHMC Sample 1439
O     -1.676705    -1.506666     1.641214
H     -2.201754    -1.241358     2.405193
H     -2.164633    -2.274120     1.321028
O      0.429696     4.854621     2.846407
H      0.991582     4.155084     3.201357
H      0.047076     4.436628     2.064858
6
BHMC Sample 1440
O     -1.676705    -1.506666     1.641214
H     -2.201754    -1.241358     2.405193
H     -2.164633    -2.274120     1.321028
O      0.384794     4.824555     2.799979
H      1.078599     4.386014     2.292660
H      0.672740     4.682898     3.710449
6
BHMC Sample 1441
O     -1.693632    -1.525122     1.720318
H     -2.655329    -1.492865     1.658453
H     -1.442387    -1.729675     0.812236
O      0.384794     4.824555     2.799979
H      1.078599     4.386014     2.292660
H      0.672740     4.682898     3.710449
6
BHMC Sample 1442
O     -1.037662    -0.014426     1.816038
H     -1.999359     0.017831     1.754173
H     -0.786417    -0.218979     0.907956
O      0.384794     4.824555     2.799979
H      1.078599     4.386014     2.292660
H      0.672740     4.682898     3.710449
6
BHMC Sample 1443
O     -2.560662    -4.052659     1.706610
H     -3.409729    -4.102751     1.252402
H     -2.830896    -3.875937     2.615082
O     -0.327250     0.193399    -0.134383
H      0.366555    -0.245142    -0.641703
H     -0.039305     0.051742     0.776086
6
BHMC Sample 1444
O     -2.560662    -4.052659     1.706610
H     -3.409729    -4.102751     1.252402
H     -2.830896    -3.875937     2.615082
O     -3.899198     0.744997     0.266874
H     -3.050564     1.167895     0.445855
H     -4.241595     0.583336     1.154885
6
BHMC Sample 1445
O     -2.560662    -4.052659     1.706610
H     -3.409729    -4.102751     1.252402
H     -2.830896    -3.875937     2.615082
O     -1.721776     0.195627    -0.539077
H     -0.873142     0.618525    -0.360096
H     -2.064173     0.033966     0.348935
6
BHMC Sample 1446
O     -2.560662    -4.052659     1.706610
H     -3.409729    -4.102751     1.252402
H     -2.830896    -3.875937     2.615082
O     -2.772683     1.129567    -0.961248
H     -1.924049     1.552464    -0.782267
H     -3.115081     0.967906    -0.073237
6
BHMC Sample 1447
O     -2.664272    -4.096622     1.713775
H     -2.111966    -4.012448     2.499651
H     -2.484154    -3.268459     1.254120
O     -2.772683     1.129567    -0.961248
H     -1.924049     1.552464    -0.782267
H     -3.115081     0.967906    -0.073237
6
BHMC Sample 1448
O      1.697638     4.696865    -2.944718
H      1.184139     4.657161    -3.759869
H      1.264846     4.026262    -2.403829
O     -0.168746    -0.087079    -0.355664
H      0.679888     0.335819    -0.176683
H     -0.511143    -0.248740     0.532347
6
BHMC Sample 1449
O      4.143436     3.606043    -1.855336
H      4.483469     4.004137    -1.045628
H      3.345190     3.166084    -1.540984
O     -0.168746    -0.087079    -0.355664
H      0.679888     0.335819    -0.176683
H     -0.511143    -0.248740     0.532347
6
BHMC Sample 1450
O      0.152738     0.013955    -0.374687
H      0.492771     0.412049     0.435022
H     -0.645509    -0.426004    -0.060335
O     -2.094689    -3.490683    -3.940843
H     -1.373579    -3.079427    -3.448984
H     -1.715426    -3.586467    -4.823407
6
BHMC Sample 1451
O     -2.007481    -3.470689    -4.025599
H     -1.667449    -3.072595    -3.215891
H     -2.805728    -3.910648    -3.711247
O      0.065530    -0.006040    -0.289931
H      0.786640     0.405217     0.201929
H      0.444793    -0.101823    -1.172495
6
BHMC Sample 1452
O     -2.007481    -3.470689    -4.025599
H     -1.667449    -3.072595    -3.215891
H     -2.805728    -3.910648    -3.711247
O      0.944734    -3.112385     0.610692
H      1.755896    -3.194903     1.126699
H      1.269932    -2.778526    -0.234719
6
BHMC Sample 1453
O     -2.007481    -3.470689    -4.025599
H     -1.667449    -3.072595    -3.215891
H     -2.805728    -3.910648    -3.711247
O      0.532098    -4.391804     3.142805
H      1.343260    -4.474322     3.658812
H      0.857295    -4.057945     2.297395
6
BHMC Sample 1454
O     -2.007481    -3.470689    -4.025599
H     -1.667449    -3.072595    -3.215891
H     -2.805728    -3.910648    -3.711247
O     -1.003738     3.721451    -1.706038
H     -0.422072     4.282119    -1.178428
H     -0.480432     2.916486    -1.806623
6
BHMC Sample 1455
O     -2.007481    -3.470689    -4.025599
H     -1.667449    -3.072595    -3.215891
H     -2.805728    -3.910648    -3.711247
O     -2.562445     3.077705    -0.125985
H     -2.304632     3.503245     0.700759
H     -1.994581     2.297213    -0.143247
6
BHMC Sample 1456
O     -2.007481    -3.470689    -4.025599
H     -1.667449    -3.072595    -3.215891
H     -2.805728    -3.910648    -3.711247
O     -2.553449     3.006602    -0.056808
H     -2.815154     3.714860    -0.657589
H     -1.626840     3.214149     0.117129
6
BHMC Sample 1457
O     -2.007481    -3.470689    -4.025599
H     -1.667449    -3.072595    -3.215891
H     -2.805728    -3.910648    -3.711247
O      2.937363     0.969751    -0.347680
H      3.089627     0.615212     0.536726
H      2.411074     1.758610    -0.166975
6
BHMC Sample 1458
O     -2.007481    -3.470689    -4.025599
H     -1.667449    -3.072595    -3.215891
H     -2.805728    -3.910648    -3.711247
O      3.978364    -0.382080    -0.760026
H      4.130628    -0.736619     0.124380
H      3.452075     0.406780    -0.579321
6
BHMC Sample 1459
O     -2.007481    -3.470689    -4.025599
H     -1.667449    -3.072595    -3.215891
H     -2.805728    -3.910648    -3.711247
O      3.951184    -0.298982    -0.667503
H      4.365166    -1.117853    -0.368965
H      3.648939    -0.530924    -1.554512
6
BHMC Sample 1460
O      3.983075    -0.355436    -0.763325
H      4.323107     0.042659     0.046384
H      3.184828    -0.795394    -0.448973
O     -2.039372    -3.414235    -3.929777
H     -1.625390    -4.233107    -3.631239
H     -2.341617    -3.646177    -4.816786
6
BHMC Sample 1461
O      3.983075    -0.355436    -0.763325
H      4.323107     0.042659     0.046384
H      3.184828    -0.795394    -0.448973
O     -1.213385    -1.716211    -3.729367
H     -0.799404    -2.535083    -3.430829
H     -1.515631    -1.948153    -4.616376
6
BHMC Sample 1462
O     -1.181495    -1.772665    -3.825189
H     -0.841462    -1.374571    -3.015480
H     -1.979742    -2.212624    -3.510837
O      3.951184    -0.298982    -0.667503
H      4.365166    -1.117853    -0.368965
H      3.648939    -0.530924    -1.554512
6
BHMC Sample 1463
O     -1.157853    -1.796555    -3.803835
H     -1.745525    -1.038277    -3.900704
H     -1.450927    -2.169731    -2.964534
O      3.951184    -0.298982    -0.667503
H      4.365166    -1.117853    -0.368965
H      3.648939    -0.530924    -1.554512
6
BHMC Sample 1464
O     -1.157853    -1.796555    -3.803835
H     -1.745525    -1.038277    -3.900704
H     -1.450927    -2.169731    -2.964534
O      4.159701    -0.322618    -1.032407
H      4.606528    -1.144424    -0.795686
H      3.791448    -0.529520    -1.900460
6
BHMC Sample 1465
O     -0.783789    -3.484529    -2.990480
H     -1.605091    -2.992045    -2.878004
H     -0.741851    -3.991578    -2.171504
O      4.159701    -0.322618    -1.032407
H      4.606528    -1.144424    -0.795686
H      3.791448    -0.529520    -1.900460
6
BHMC Sample 1466
O     -1.749933    -1.456862     0.228623
H     -1.909018    -1.605532     1.167941
H     -1.622388    -2.355545    -0.096462
O      4.159701    -0.322618    -1.032407
H      4.606528    -1.144424    -0.795686
H      3.791448    -0.529520    -1.900460
6
BHMC Sample 1467
O     -0.789697    -0.096185     0.685357
H     -0.948783    -0.244856     1.624675
H     -0.662152    -0.994868     0.360272
O      4.159701    -0.322618    -1.032407
H      4.606528    -1.144424    -0.795686
H      3.791448    -0.529520    -1.900460
6
BHMC Sample 1468
O     -0.789697    -0.096185     0.685357
H     -0.948783    -0.244856     1.624675
H     -0.662152    -0.994868     0.360272
O      2.444681    -0.463713    -1.297545
H      2.891508    -1.285519    -1.060823
H      2.076429    -0.670615    -2.165598
6
BHMC Sample 1469
O      0.010514     0.349118    -0.204744
H     -0.148572     0.200447     0.734574
H      0.138058    -0.549565    -0.529829
O     -2.235912    -0.436550    -3.182071
H     -2.611389    -1.321091    -3.094547
H     -1.561488    -0.563904    -3.860943
6
BHMC Sample 1470
O     -2.742261    -3.242955    -0.586724
H     -3.242945    -3.214325     0.236820
H     -3.443791    -3.213320    -1.247448
O     -2.235912    -0.436550    -3.182071
H     -2.611389    -1.321091    -3.094547
H     -1.561488    -0.563904    -3.860943
6
BHMC Sample 1471
O     -2.742261    -3.242955    -0.586724
H     -3.242945    -3.214325     0.236820
H     -3.443791    -3.213320    -1.247448
O     -2.280478    -0.503731    -3.241842
H     -1.453515    -0.292653    -3.691992
H     -2.012014    -0.526049    -2.314823
6
BHMC Sample 1472
O     -2.151917    -0.496429    -3.224270
H     -2.652601    -0.467799    -2.400725
H     -2.853448    -0.466794    -3.884993
O     -2.870822    -3.250257    -0.604296
H     -2.043859    -3.039179    -1.054446
H     -2.602358    -3.272575     0.322722
6
BHMC Sample 1473
O      1.301825    -1.841667    -3.162609
H      0.881975    -2.199498    -2.371778
H      0.648237    -2.041245    -3.842735
O     -0.365142    -0.062920    -0.158956
H      0.461821     0.148158    -0.609106
H     -0.096679    -0.085238     0.768062
6
BHMC Sample 1474
O      2.067553     2.939010    -1.475137
H      1.155614     2.924846    -1.162254
H      1.952572     3.115051    -2.416077
O     -0.365142    -0.062920    -0.158956
H      0.461821     0.148158    -0.609106
H     -0.096679    -0.085238     0.768062
6
BHMC Sample 1475
O      0.342307    -0.053959     0.209352
H     -0.569632    -0.068123     0.522235
H      0.227326     0.122082    -0.731587
O     -1.830794     2.502719     2.533776
H     -1.018995     2.389092     2.024730
H     -1.576621     2.174404     3.405292
6
BHMC Sample 1476
O      0.342307    -0.053959     0.209352
H     -0.569632    -0.068123     0.522235
H      0.227326     0.122082    -0.731587
O     -2.090388    -3.055889     1.525533
H     -1.263425    -2.844811     1.075383
H     -1.821925    -3.078207     2.452552
6
BHMC Sample 1477
O     -1.971636    -3.054385     1.587357
H     -2.883575    -3.068548     1.900240
H     -2.086617    -2.878344     0.646418
O      0.223554    -0.055463     0.147528
H      1.050517     0.155614    -0.302622
H      0.492018    -0.077781     1.074547
6
BHMC Sample 1478
O     -3.057017    -1.110328     1.050482
H     -3.968956    -1.124492     1.363364
H     -3.171998    -0.934287     0.109542
O      0.223554    -0.055463     0.147528
H      1.050517     0.155614    -0.302622
H      0.492018    -0.077781     1.074547
6
BHMC Sample 1479
O     -3.057017    -1.110328     1.050482
H     -3.968956    -1.124492     1.363364
H     -3.171998    -0.934287     0.109542
O      1.508292     0.321763     0.653732
H      2.335254     0.532841     0.203582
H      1.776755     0.299445     1.580751
6
BHMC Sample 1480
O     -1.404271    -3.374209    -3.639188
H     -1.711449    -3.677222    -4.501483
H     -2.056401    -3.765597    -3.046633
O     -0.365142    -0.062920    -0.158956
H      0.461821     0.148158    -0.609106
H     -0.096679    -0.085238     0.768062
6
BHMC Sample 1481
O     -1.404271    -3.374209    -3.639188
H     -1.711449    -3.677222    -4.501483
H     -2.056401    -3.765597    -3.046633
O     -0.319440    -0.099055    -0.178714
H     -0.748398     0.747695    -0.005320
H      0.388151    -0.111242     0.477869
6
BHMC Sample 1482
O     -1.404271    -3.374209    -3.639188
H     -1.711449    -3.677222    -4.501483
H     -2.056401    -3.765597    -3.046633
O      1.493079    -2.546376     0.205604
H      1.786825    -1.692588     0.545922
H      1.939545    -3.168533     0.793416
6
BHMC Sample 1483
O      1.588173    -2.494561     0.272629
H      1.280995    -2.797574    -0.589667
H      0.936043    -2.885949     0.865183
O     -1.499365    -3.426024    -3.706213
H     -1.205619    -2.572236    -3.365894
H     -1.052899    -4.048181    -3.118400
6
BHMC Sample 1484
O      2.289108    -2.810773    -0.662943
H      1.981930    -3.113786    -1.525239
H      1.636978    -3.202160    -0.070389
O     -1.499365    -3.426024    -3.706213
H     -1.205619    -2.572236    -3.365894
H     -1.052899    -4.048181    -3.118400
6
BHMC Sample 1485
O      2.289108    -2.810773    -0.662943
H      1.981930    -3.113786    -1.525239
H      1.636978    -3.202160    -0.070389
O     -0.998446    -2.494432    -3.898246
H     -0.704700    -1.640644    -3.557927
H     -0.551980    -3.116589    -3.310433
6
BHMC Sample 1486
O      2.471516    -1.797238     1.019611
H      2.164338    -2.100251     0.157315
H      1.819386    -2.188625     1.612165
O     -0.998446    -2.494432    -3.898246
H     -0.704700    -1.640644    -3.557927
H     -0.551980    -3.116589    -3.310433
6
BHMC Sample 1487
O      3.760669     0.604374     4.183748
H      2.982121     0.315052     3.693967
H      4.473193     0.173349     3.697841
O     -0.246737    -0.077210    -0.309377
H      0.047009     0.776577     0.030941
H      0.199729    -0.699367     0.278435
6
BHMC Sample 1488
O     -0.201626    -0.023944    -0.202852
H     -0.980173    -0.313266    -0.692633
H      0.510899    -0.454969    -0.688758
O      3.715557     0.551107     4.077223
H      4.009303     1.404895     4.417541
H      4.162023    -0.071050     4.665035
6
BHMC Sample 1489
O     -2.586425     0.626796    -0.482679
H     -3.364973     0.337474    -0.972460
H     -1.873901     0.195771    -0.968585
O      3.715557     0.551107     4.077223
H      4.009303     1.404895     4.417541
H      4.162023    -0.071050     4.665035
6
BHMC Sample 1490
O      3.760669     0.604374     4.183748
H      2.982121     0.315052     3.693967
H      4.473193     0.173349     3.697841
O     -2.631537     0.573529    -0.589204
H     -2.337791     1.427317    -0.248885
H     -2.185071    -0.048628    -0.001391
6
BHMC Sample 1491
O      3.760669     0.604374     4.183748
H      2.982121     0.315052     3.693967
H      4.473193     0.173349     3.697841
O      0.704532     1.487561    -3.144485
H      1.646556     1.286511    -3.087687
H      0.500640     1.780400    -2.247485
6
BHMC Sample 1492
O      3.760669     0.604374     4.183748
H      2.982121     0.315052     3.693967
H      4.473193     0.173349     3.697841
O     -1.736450     1.061914    -2.628660
H     -0.794426     0.860864    -2.571863
H     -1.940342     1.354753    -1.731661
6
BHMC Sample 1493
O      3.760669     0.604374     4.183748
H      2.982121     0.315052     3.693967
H      4.473193     0.173349     3.697841
O     -4.144789     0.059208    -2.423433
H     -3.202765    -0.141842    -2.366636
H     -4.348680     0.352046    -1.526434
6
BHMC Sample 1494
O      3.760669     0.604374     4.183748
H      2.982121     0.315052     3.693967
H      4.473193     0.173349     3.697841
O     -4.153642     0.096119    -2.402549
H     -4.175158    -0.351648    -1.548091
H     -3.235772    -0.024003    -2.676449
6
BHMC Sample 1495
O      1.478840     0.619187     4.327683
H      0.700293     0.329865     3.837902
H      2.191365     0.188162     3.841777
O     -4.153642     0.096119    -2.402549
H     -4.175158    -0.351648    -1.548091
H     -3.235772    -0.024003    -2.676449
6
BHMC Sample 1496
O      1.478840     0.619187     4.327683
H      0.700293     0.329865     3.837902
H      2.191365     0.188162     3.841777
O     -4.469842    -0.399986    -3.457586
H     -4.491359    -0.847752    -2.603129
H     -3.551973    -0.520107    -3.731487
6
BHMC Sample 1497
O     -0.364290    -0.078454     3.584945
H     -1.142837    -0.367775     3.095164
H      0.348235    -0.509478     3.099039
O     -4.469842    -0.399986    -3.457586
H     -4.491359    -0.847752    -2.603129
H     -3.551973    -0.520107    -3.731487
6
BHMC Sample 1498
O     -0.330659    -0.072821     3.496959
H     -0.131481    -0.997648     3.683376
H     -1.196905     0.030990     3.907348
O     -4.469842    -0.399986    -3.457586
H     -4.491359    -0.847752    -2.603129
H     -3.551973    -0.520107    -3.731487
6
BHMC Sample 1499
O     -0.330659    -0.072821     3.496959
H     -0.131481    -0.997648     3.683376
H     -1.196905     0.030990     3.907348
O     -4.026644     4.779895    -1.794402
H     -4.242779     3.978954    -1.301619
H     -3.208169     4.532884    -2.242753
6
BHMC Sample 1500
O     -0.329207    -0.148388     3.577650
H     -0.666941    -0.514937     2.752237
H     -0.684497     0.747688     3.557757
O     -4.026644     4.779895    -1.794402
H     -4.242779     3.978954    -1.301619
H     -3.208169     4.532884    -2.242753
6
BHMC Sample 1501
O     -0.329207    -0.148388     3.577650
H     -0.666941    -0.514937     2.752237
H     -0.684497     0.747688     3.557757
O     -3.483887     4.099237    -0.013071
H     -3.700023     3.298295     0.479712
H     -2.665412     3.852225    -0.461421
6
BHMC Sample 1502
O     -4.788903    -3.598546     0.909034
H     -4.223569    -3.456487     1.677114
H     -4.393830    -3.006452     0.258710
O     -0.200780     0.349318    -0.014811
H     -0.416915    -0.451624     0.477972
H      0.617695     0.102306    -0.463161
6
BHMC Sample 1503
O     -4.790031    -3.253409     1.832663
H     -4.106354    -3.106178     2.496469
H     -4.469298    -2.721711     1.095096
O     -0.200780     0.349318    -0.014811
H     -0.416915    -0.451624     0.477972
H      0.617695     0.102306    -0.463161
6
BHMC Sample 1504
O     -4.790031    -3.253409     1.832663
H     -4.106354    -3.106178     2.496469
H     -4.469298    -2.721711     1.095096
O     -2.489277     2.149633     0.145677
H     -2.497287     1.489663     0.849546
H     -1.571729     2.449605     0.153240
6
BHMC Sample 1505
O     -4.790031    -3.253409     1.832663
H     -4.106354    -3.106178     2.496469
H     -4.469298    -2.721711     1.095096
O     -1.934420     1.228496    -1.182898
H     -2.325574     0.981334    -0.336160
H     -1.169942     1.752563    -0.912969
6
BHMC Sample 1506
O      3.783618     3.870537    -2.737608
H      3.109382     3.797774    -3.423057
H      3.353631     3.441386    -1.988930
O     -0.124441    -0.092302    -0.372222
H     -0.515595    -0.339464     0.474516
H      0.640037     0.431766    -0.102293
6
BHMC Sample 1507
O      4.010320    -4.541061     0.295674
H      4.398322    -3.945423     0.947133
H      3.349239    -3.976641    -0.121436
O     -0.124441    -0.092302    -0.372222
H     -0.515595    -0.339464     0.474516
H      0.640037     0.431766    -0.102293
6
BHMC Sample 1508
O      0.091026    -0.386686    -0.078116
H      0.479029     0.208952     0.573343
H     -0.570055     0.177734    -0.495226
O      0.551962     4.197932     3.934650
H     -0.294431     3.937311     4.317733
H      0.281316     4.691398     3.150319
6
BHMC Sample 1509
O      0.504740     4.146051     3.899086
H      0.892742     4.741689     4.550546
H     -0.156342     4.710471     3.481977
O      0.138249    -0.334805    -0.042553
H     -0.708144    -0.595425     0.340531
H     -0.132397     0.158662    -0.826884
6
BHMC Sample 1510
O      0.091026    -0.386686    -0.078116
H      0.479029     0.208952     0.573343
H     -0.570055     0.177734    -0.495226
O      0.551962     4.197932     3.934650
H     -0.294431     3.937311     4.317733
H      0.281316     4.691398     3.150319
6
BHMC Sample 1511
O      0.504740     4.146051     3.899086
H      0.892742     4.741689     4.550546
H     -0.156342     4.710471     3.481977
O      0.138249    -0.334805    -0.042553
H     -0.708144    -0.595425     0.340531
H     -0.132397     0.158662    -0.826884
6
BHMC Sample 1512
O      0.444981     4.178314     3.872519
H      1.240470     4.662560     3.622655
H      0.444412     4.277517     4.831548
O      0.138249    -0.334805    -0.042553
H     -0.708144    -0.595425     0.340531
H     -0.132397     0.158662    -0.826884
6
BHMC Sample 1513
O      0.031268    -0.354423    -0.104684
H      0.826757     0.129824    -0.354548
H      0.030698    -0.255220     0.854345
O      0.551962     4.197932     3.934650
H     -0.294431     3.937311     4.317733
H      0.281316     4.691398     3.150319
6
BHMC Sample 1514
O      0.031268    -0.354423    -0.104684
H      0.826757     0.129824    -0.354548
H      0.030698    -0.255220     0.854345
O     -0.829573     3.653330     2.657751
H     -1.675966     3.392710     3.040834
H     -1.100219     4.146797     1.873420
6
BHMC Sample 1515
O      0.097281    -0.262295    -0.089840
H      0.612638    -1.036268     0.165313
H     -0.802939    -0.551376     0.098881
O     -0.829573     3.653330     2.657751
H     -1.675966     3.392710     3.040834
H     -1.100219     4.146797     1.873420
6
BHMC Sample 1516
O      0.128288     0.354351    -0.147958
H      0.643644    -0.419622     0.107195
H     -0.771932     0.065271     0.040763
O     -2.404341    -0.166313     4.451964
H     -2.847589     0.686840     4.370002
H     -3.075945    -0.780578     4.130156
6
BHMC Sample 1517
O      0.128288     0.354351    -0.147958
H      0.643644    -0.419622     0.107195
H     -0.771932     0.065271     0.040763
O     -3.050796    -1.518380     4.875965
H     -3.494043    -0.665227     4.794003
H     -3.722400    -2.132645     4.554157
6
BHMC Sample 1518
O      0.128288     0.354351    -0.147958
H      0.643644    -0.419622     0.107195
H     -0.771932     0.065271     0.040763
O      3.137201     1.791234    -4.726237
H      3.581476     0.935776    -4.683021
H      3.800726     2.388204    -4.358410
6
BHMC Sample 1519
O      1.996063     1.852000     0.113081
H      2.511420     1.078027     0.368234
H      1.095843     1.562919     0.301802
O      3.137201     1.791234    -4.726237
H      3.581476     0.935776    -4.683021
H      3.800726     2.388204    -4.358410
6
BHMC Sample 1520
O     -1.781878    -1.661321     4.298778
H     -1.087412    -1.242270     4.820163
H     -2.575103    -1.237723     4.646539
O     -0.369267     0.086163    -0.137014
H      0.075008    -0.769295    -0.093798
H      0.294259     0.683132     0.230812
6
BHMC Sample 1521
O     -2.254512    -1.484482     4.179833
H     -1.643022    -1.012050     4.756562
H     -3.097614    -1.074491     4.404919
O     -0.369267     0.086163    -0.137014
H      0.075008    -0.769295    -0.093798
H      0.294259     0.683132     0.230812
6
BHMC Sample 1522
O     -0.294322     0.022325    -0.158879
H      0.317168     0.494758     0.417850
H     -1.137424     0.432316     0.066207
O     -2.329456    -1.420644     4.201698
H     -1.885182    -2.276102     4.244914
H     -1.665931    -0.823675     4.569524
6
BHMC Sample 1523
O     -0.294322     0.022325    -0.158879
H      0.317168     0.494758     0.417850
H     -1.137424     0.432316     0.066207
O     -0.870451    -0.211503     3.085802
H     -0.426177    -1.066961     3.129018
H     -0.206926     0.385466     3.453629
6
BHMC Sample 1524
O     -0.294322     0.022325    -0.158879
H      0.317168     0.494758     0.417850
H     -1.137424     0.432316     0.066207
O     -0.134405    -1.520570     2.771842
H      0.309869    -2.376028     2.815058
H      0.529120    -0.923601     3.139669
6
BHMC Sample 1525
O     -1.495265    -0.012591    -0.070442
H     -0.883776     0.459842     0.506287
H     -2.338368     0.397400     0.154644
O     -0.134405    -1.520570     2.771842
H      0.309869    -2.376028     2.815058
H      0.529120    -0.923601     3.139669
6
BHMC Sample 1526
O      3.651009     0.340628    -0.982320
H      3.062036     1.092704    -0.851091
H      4.242619     0.416409    -0.224801
O     -0.369267     0.086163    -0.137014
H      0.075008    -0.769295    -0.093798
H      0.294259     0.683132     0.230812
6
BHMC Sample 1527
O      3.651009     0.340628    -0.982320
H      3.062036     1.092704    -0.851091
H      4.242619     0.416409    -0.224801
O     -0.341431     0.016411    -0.095114
H     -0.598932     0.942836    -0.014576
H      0.526392     0.078109    -0.513457
6
BHMC Sample 1528
O     -0.000878    -0.275952    -0.296249
H     -0.589852     0.476124    -0.165021
H      0.590731    -0.200171     0.461270
O      0.314575    -3.693324     1.707755
H      0.791202    -3.425802     2.502937
H      0.447690    -2.937480     1.122166
6
BHMC Sample 1529
O     -0.000878    -0.275952    -0.296249
H     -0.589852     0.476124    -0.165021
H      0.590731    -0.200171     0.461270
O     -3.830629    -1.319261    -0.491790
H     -4.280151    -0.521310    -0.188044
H     -2.938925    -0.997881    -0.674853
6
BHMC Sample 1530
O     -0.000878    -0.275952    -0.296249
H     -0.589852     0.476124    -0.165021
H      0.590731    -0.200171     0.461270
O     -3.175952    -2.146343    -1.909719
H     -3.625473    -1.348392    -1.605973
H     -2.284247    -1.824962    -2.092782
6
BHMC Sample 1531
O      0.018627    -0.285858    -0.279420
H     -0.867863    -0.008098    -0.021131
H      0.559146     0.441277     0.050266
O     -3.175952    -2.146343    -1.909719
H     -3.625473    -1.348392    -1.605973
H     -2.284247    -1.824962    -2.092782
6
BHMC Sample 1532
O      0.115324    -0.334965    -0.195992
H     -0.771167    -0.057205     0.062297
H      0.655843     0.392170     0.133695
O      2.959334     2.649754     1.363193
H      3.410864     1.797008     1.363885
H      2.044962     2.400278     1.546549
6
BHMC Sample 1533
O      0.115324    -0.334965    -0.195992
H     -0.771167    -0.057205     0.062297
H      0.655843     0.392170     0.133695
O      3.896652     1.520177     1.029880
H      4.107896     0.662489     0.641544
H      3.038092     1.356340     1.439717
6
BHMC Sample 1534
O      0.115324    -0.334965    -0.195992
H     -0.771167    -0.057205     0.062297
H      0.655843     0.392170     0.133695
O      4.456475    -0.241629     0.135353
H      4.220796    -1.039180    -0.353957
H      3.710455    -0.141224     0.739759
6
BHMC Sample 1535
O      0.115324    -0.334965    -0.195992
H     -0.771167    -0.057205     0.062297
H      0.655843     0.392170     0.133695
O      2.595347    -1.206321     1.920788
H      2.359668    -2.003872     1.431477
H      1.849327    -1.105915     2.525194
6
BHMC Sample 1536
O      0.115324    -0.334965    -0.195992
H     -0.771167    -0.057205     0.062297
H      0.655843     0.392170     0.133695
O      1.423887    -1.257852     2.388537
H      1.188208    -2.055403     1.899227
H      0.677867    -1.157447     2.992944
6
BHMC Sample 1537
O     -1.580160     2.211900    -1.337095
H     -2.023912     1.708451    -2.029448
H     -0.707127     2.352315    -1.721380
O      0.327233     0.232382    -0.038365
H      0.091554    -0.565169    -0.527675
H     -0.418787     0.332787     0.566041
6
BHMC Sample 1538
O     -1.580160     2.211900    -1.337095
H     -2.023912     1.708451    -2.029448
H     -0.707127     2.352315    -1.721380
O      0.220733    -0.280639    -1.396323
H     -0.014946    -1.078189    -1.885633
H     -0.525287    -0.180233    -0.791917
6
BHMC Sample 1539
O     -1.580160     2.211900    -1.337095
H     -2.023912     1.708451    -2.029448
H     -0.707127     2.352315    -1.721380
O      0.186394    -0.371605    -1.351717
H     -0.329317     0.401659    -1.092558
H      0.334112    -0.216266    -2.292984
6
BHMC Sample 1540
O     -0.007728     0.748524    -2.715056
H     -0.948763     0.708708    -2.508666
H      0.305823     1.410563    -2.088183
O      0.122664    -0.309534     0.227370
H     -0.393046     0.463729     0.486528
H      0.270382    -0.154195    -0.713898
6
BHMC Sample 1541
O     -0.007728     0.748524    -2.715056
H     -0.948763     0.708708    -2.508666
H      0.305823     1.410563    -2.088183
O     -0.513655    -2.200322    -1.973071
H      0.136894    -2.401959    -2.656581
H     -0.597714    -1.241197    -2.043415
6
BHMC Sample 1542
O     -1.834516     0.460801    -3.833076
H     -2.775551     0.420986    -3.626686
H     -1.520965     1.122840    -3.206204
O     -0.513655    -2.200322    -1.973071
H      0.136894    -2.401959    -2.656581
H     -0.597714    -1.241197    -2.043415
6
BHMC Sample 1543
O     -1.834516     0.460801    -3.833076
H     -2.775551     0.420986    -3.626686
H     -1.520965     1.122840    -3.206204
O     -0.445836    -2.215085    -2.012126
H     -0.451616    -1.540698    -2.702217
H     -1.085626    -1.868143    -1.377906
6
BHMC Sample 1544
O      0.209161    -0.207408    -0.277754
H     -0.731874    -0.247223    -0.071364
H      0.522712     0.454631     0.349118
O      0.391654     2.002899    -3.013791
H      0.723264     1.310537    -2.429218
H     -0.270284     2.439560    -2.463246
6
BHMC Sample 1545
O      0.209161    -0.207408    -0.277754
H     -0.731874    -0.247223    -0.071364
H      0.522712     0.454631     0.349118
O      2.437972    -2.880790    -0.483403
H      1.690600    -2.411759    -0.092890
H      2.913993    -2.172694    -0.934998
6
BHMC Sample 1546
O      0.035683    -0.860057     1.004225
H     -0.835414    -1.128813     1.318376
H      0.397562    -0.413556     1.778344
O      2.437972    -2.880790    -0.483403
H      1.690600    -2.411759    -0.092890
H      2.913993    -2.172694    -0.934998
6
BHMC Sample 1547
O      2.451282    -2.824871    -0.547713
H      1.580185    -3.093627    -0.233562
H      2.813161    -2.378371     0.226405
O      0.022373    -0.915976     1.068535
H     -0.724999    -0.446944     1.459048
H      0.498394    -0.207880     0.616940
6
BHMC Sample 1548
O     -1.676054    -3.116698     1.291091
H     -1.039162    -3.092359     0.567554
H     -1.202971    -2.648583     1.988687
O      0.090450    -0.392376     0.020361
H     -0.656922     0.076656     0.410874
H      0.566471     0.315720    -0.431235
6
BHMC Sample 1549
O      0.013161    -0.354066     0.018394
H      0.650052    -0.329727    -0.705143
H      0.486243     0.114048     0.715991
O     -1.598764    -3.155008     1.293057
H     -2.346136    -2.685976     1.683570
H     -1.122743    -2.446911     0.841462
6
BHMC Sample 1550
O      0.013161    -0.354066     0.018394
H      0.650052    -0.329727    -0.705143
H      0.486243     0.114048     0.715991
O     -0.065649    -3.677341     0.627138
H     -0.813021    -3.208309     1.017651
H      0.410372    -2.969245     0.175542
6
BHMC Sample 1551
O     -0.369991    -0.164151     0.008647
H      0.266900    -0.139812    -0.714890
H      0.103091     0.303963     0.706243
O     -2.822188     1.761365    -1.295214
H     -3.120050     1.236296    -0.542461
H     -1.901574     1.486235    -1.388533
6
BHMC Sample 1552
O     -0.369991    -0.164151     0.008647
H      0.266900    -0.139812    -0.714890
H      0.103091     0.303963     0.706243
O     -2.818456     1.718963    -1.318372
H     -3.183233     1.889659    -0.441527
H     -1.897627     1.505869    -1.121904
6
BHMC Sample 1553
O     -0.369991    -0.164151     0.008647
H      0.266900    -0.139812    -0.714890
H      0.103091     0.303963     0.706243
O     -3.603422     0.886090    -0.426685
H     -3.968199     1.056786     0.450160
H     -2.682594     0.672996    -0.230217
6
BHMC Sample 1554
O     -0.369991    -0.164151     0.008647
H      0.266900    -0.139812    -0.714890
H      0.103091     0.303963     0.706243
O     -1.797099    -3.108628     1.028948
H     -2.150969    -2.962052     1.914582
H     -1.350387    -2.273203     0.843347
6
BHMC Sample 1555
O     -2.447901    -0.088899     2.090504
H     -2.568622    -0.716889     2.812158
H     -2.497869     0.756370     2.551594
O     -0.030947    -0.327334    -0.233344
H     -0.384817    -0.180758     0.652290
H      0.415764     0.508091    -0.418946
6
BHMC Sample 1556
O     -1.913923     1.301715     2.059099
H     -2.328412     0.876800     2.818952
H     -1.494384     2.069332     2.464474
O     -0.030947    -0.327334    -0.233344
H     -0.384817    -0.180758     0.652290
H      0.415764     0.508091    -0.418946
6
BHMC Sample 1557
O     -0.944049     0.100715     2.586767
H     -1.358538    -0.324200     3.346619
H     -0.524510     0.868333     2.992141
O     -0.030947    -0.327334    -0.233344
H     -0.384817    -0.180758     0.652290
H      0.415764     0.508091    -0.418946
6
BHMC Sample 1558
O     -0.480253     0.718292     2.549562
H     -0.667424     0.465330     3.460993
H     -0.140263     1.614049     2.657291
O     -0.030947    -0.327334    -0.233344
H     -0.384817    -0.180758     0.652290
H      0.415764     0.508091    -0.418946
6
BHMC Sample 1559
O     -0.050939    -0.214265    -0.339720
H     -0.238111    -0.467227     0.571711
H      0.289050     0.681492    -0.231991
O     -0.199330    -2.562371    -2.211637
H     -0.210203    -1.668348    -1.848787
H     -0.384475    -3.103869    -1.434182
6
BHMC Sample 1560
O     -0.050939    -0.214265    -0.339720
H     -0.238111    -0.467227     0.571711
H      0.289050     0.681492    -0.231991
O     -1.212756    -2.165923    -2.309722
H     -0.663593    -1.490983    -1.892669
H     -1.573284    -2.638812    -1.549242
6
BHMC Sample 1561
O      1.640207     1.451607     1.565030
H      1.460270     1.192861     2.476294
H      2.441987     1.978199     1.662127
O     -0.062878    -0.067351    -0.392511
H      0.486284     0.607589     0.024542
H     -0.423406    -0.540239     0.367969
6
BHMC Sample 1562
O     -0.207281    -0.089282    -0.336121
H     -0.387217    -0.348028     0.575144
H      0.594499     0.437310    -0.239023
O     -2.516962    -0.709609    -2.158280
H     -1.632585    -0.531267    -1.816041
H     -2.982468    -1.026981    -1.374370
6
BHMC Sample 1563
O      2.434754     0.073967     1.145977
H      2.318208    -0.178948     2.069113
H      3.394491     0.059200     1.055066
O     -0.139624     0.046343    -0.375383
H      0.744753     0.224685    -0.033144
H     -0.605130    -0.271029     0.408527
6
BHMC Sample 1564
O     -0.281064     0.089227    -0.277409
H     -0.397610    -0.163687     0.645728
H      0.678674     0.074460    -0.368319
O     -2.812029     1.099226    -1.509007
H     -1.951747     0.701658    -1.327594
H     -3.268395     1.000310    -0.664093
6
BHMC Sample 1565
O     -2.077490    -0.783270     0.713714
H     -1.133683    -0.980642     0.714636
H     -2.418317    -1.437165     1.334871
O     -2.812029     1.099226    -1.509007
H     -1.951747     0.701658    -1.327594
H     -3.268395     1.000310    -0.664093
6
BHMC Sample 1566
O      0.532371    -1.701662     1.914576
H     -0.038776    -1.554914     2.677456
H      0.965307    -2.531317     2.146564
O     -0.134639     0.165495    -0.342109
H      0.725643    -0.232074    -0.160696
H     -0.591005     0.066579     0.502805
6
BHMC Sample 1567
O      0.532371    -1.701662     1.914576
H     -0.038776    -1.554914     2.677456
H      0.965307    -2.531317     2.146564
O     -0.049712     0.010947    -0.482673
H      0.801628    -0.378439    -0.248887
H     -0.532232    -0.028955     0.352502
6
BHMC Sample 1568
O      2.057075    -2.059431    -0.121920
H      1.763836    -2.896276     0.256801
H      2.927996    -2.290405    -0.465031
O     -0.049712     0.010947    -0.482673
H      0.801628    -0.378439    -0.248887
H     -0.532232    -0.028955     0.352502
6
BHMC Sample 1569
O      2.716675    -0.016027     0.519135
H      2.956219     0.536655     1.272057
H      3.580956    -0.264320     0.171360
O     -0.122940     0.143096    -0.356320
H      0.728400    -0.246290    -0.122534
H     -0.605460     0.103194     0.478855
6
BHMC Sample 1570
O      2.716675    -0.016027     0.519135
H      2.956219     0.536655     1.272057
H      3.580956    -0.264320     0.171360
O      2.801508     1.303128    -2.205695
H      2.547910     0.695803    -1.500074
H      2.156690     2.014919    -2.108242
6
BHMC Sample 1571
O     -1.057217     2.530189     0.630310
H     -0.818747     2.868649     1.501118
H     -0.322904     2.840551     0.088057
O      0.299472    -0.034822    -0.267691
H      0.045874    -0.642147     0.437929
H     -0.345346     0.676969    -0.170238
6
BHMC Sample 1572
O     -2.218172     1.640443    -0.552736
H     -3.034811     1.170275    -0.757115
H     -1.803460     1.705865    -1.420672
O      0.299472    -0.034822    -0.267691
H      0.045874    -0.642147     0.437929
H     -0.345346     0.676969    -0.170238
6
BHMC Sample 1573
O      0.133976     0.134915     0.357438
H     -0.682664    -0.335253     0.153059
H      0.548688     0.200338    -0.510497
O      0.046519     3.125645     0.211497
H     -0.807528     3.340887     0.605616
H      0.197435     2.224534     0.523198
6
BHMC Sample 1574
O      0.133976     0.134915     0.357438
H     -0.682664    -0.335253     0.153059
H      0.548688     0.200338    -0.510497
O      1.113697     2.549017     1.763684
H      0.710523     2.464826     2.636278
H      1.058760     1.647758     1.422144
6
BHMC Sample 1575
O      0.857130    -2.469138    -0.842122
H      1.324313    -3.231663    -0.481530
H      1.243161    -2.397185    -1.722679
O      0.152703     0.328483    -0.177018
H     -0.250470     0.244292     0.695576
H      0.097767    -0.572775    -0.518558
6
BHMC Sample 1576
O     -1.307435    -2.333813    -0.620012
H     -2.203035    -2.689412    -0.585678
H     -0.992692    -2.668314    -1.467730
O      0.152703     0.328483    -0.177018
H     -0.250470     0.244292     0.695576
H      0.097767    -0.572775    -0.518558
6
BHMC Sample 1577
O      0.360021    -2.717650     0.158895
H      0.746144    -3.359398     0.766183
H      0.641166    -3.059718    -0.697566
O      0.152703     0.328483    -0.177018
H     -0.250470     0.244292     0.695576
H      0.097767    -0.572775    -0.518558
6
BHMC Sample 1578
O     -1.324126    -2.334130    -0.582247
H     -2.221826    -2.683521    -0.539930
H     -1.014301    -2.682729    -1.426087
O      0.152703     0.328483    -0.177018
H     -0.250470     0.244292     0.695576
H      0.097767    -0.572775    -0.518558
6
BHMC Sample 1579
O      0.195958     0.232664     0.267174
H     -0.701741    -0.116728     0.309491
H      0.505783    -0.115936    -0.576665
O      0.138073     2.894425     1.798947
H      1.091448     2.810987     1.675778
H     -0.170653     1.993026     1.643699
6
BHMC Sample 1580
O      2.242780    -0.780983    -1.378557
H      2.927240    -0.106821    -1.296413
H      2.463732    -1.187078    -2.224634
O     -0.214883     0.328279     0.092806
H      0.738492     0.244841    -0.030364
H     -0.523609    -0.573120    -0.062442
6
BHMC Sample 1581
O     -0.229473     0.258175     0.119972
H      0.454987     0.932338     0.202117
H     -0.008521    -0.147920    -0.726105
O      2.257370    -0.710879    -1.405724
H      3.210745    -0.794317    -1.528893
H      1.948644    -1.612278    -1.560971
6
BHMC Sample 1582
O     -0.229473     0.258175     0.119972
H      0.454987     0.932338     0.202117
H     -0.008521    -0.147920    -0.726105
O      2.322862    -0.709635    -1.444529
H      2.516783    -1.204977    -0.639490
H      1.603119    -1.221361    -1.834454
6
BHMC Sample 1583
O      1.131003     1.068410     0.775758
H      1.815463     1.742572     0.857903
H      1.351955     0.662315    -0.070319
O      2.322862    -0.709635    -1.444529
H      2.516783    -1.204977    -0.639490
H      1.603119    -1.221361    -1.834454
6
BHMC Sample 1584
O      1.131003     1.068410     0.775758
H      1.815463     1.742572     0.857903
H      1.351955     0.662315    -0.070319
O      2.001137    -0.904234    -1.420303
H      2.536760    -1.177273    -0.665575
H      1.336947    -1.603249    -1.466812
6
BHMC Sample 1585
O      2.606535    -0.731059    -1.572299
H      3.287098    -0.053460    -1.486145
H      1.805241    -0.235801    -1.366814
O      0.042856     0.324018    -0.236073
H      0.578479     0.050979     0.518655
H     -0.621335    -0.374997    -0.282582
6
BHMC Sample 1586
O      0.957418    -1.315225    -2.674721
H      0.393760    -1.078365    -3.420319
H      0.777475    -0.599865    -2.053867
O      0.042856     0.324018    -0.236073
H      0.578479     0.050979     0.518655
H     -0.621335    -0.374997    -0.282582
6
BHMC Sample 1587
O      2.606535    -0.731059    -1.572299
H      3.287098    -0.053460    -1.486145
H      1.805241    -0.235801    -1.366814
O      0.042856     0.324018    -0.236073
H      0.578479     0.050979     0.518655
H     -0.621335    -0.374997    -0.282582
6
BHMC Sample 1588
O      0.042417     0.204003    -0.212764
H      0.722980     0.881602    -0.126610
H     -0.758877     0.699261    -0.007278
O      2.606974    -0.611044    -1.595608
H      3.142597    -0.884083    -0.840881
H      1.942783    -1.310060    -1.642117
6
BHMC Sample 1589
O      2.518281    -1.166213    -1.126826
H      1.826473    -1.828817    -1.236764
H      3.313311    -1.672989    -1.328529
O      0.042856     0.324018    -0.236073
H      0.578479     0.050979     0.518655
H     -0.621335    -0.374997    -0.282582
6
BHMC Sample 1590
O      2.518281    -1.166213    -1.126826
H      1.826473    -1.828817    -1.236764
H      3.313311    -1.672989    -1.328529
O     -0.086609    -1.635344     0.412240
H      0.584900    -1.213159     0.961686
H      0.002776    -2.565700     0.653865
6
BHMC Sample 1591
O     -1.091774    -3.622409     3.443128
H     -1.623009    -2.863954     3.711950
H     -1.645334    -4.361560     3.720265
O      2.763648    -0.834607    -2.211580
H      2.915002    -0.525216    -3.112927
H      2.842501    -0.021431    -1.697323
6
BHMC Sample 1592
O     -1.091774    -3.622409     3.443128
H     -1.623009    -2.863954     3.711950
H     -1.645334    -4.361560     3.720265
O      1.495286    -0.833098    -2.644243
H      1.646640    -0.523706    -3.545590
H      1.574139    -0.019921    -2.129986
6
BHMC Sample 1593
O     -1.091774    -3.622409     3.443128
H     -1.623009    -2.863954     3.711950
H     -1.645334    -4.361560     3.720265
O      2.766847     0.309318    -3.764535
H      2.918201     0.618709    -4.665881
H      2.845700     1.122494    -3.250278
6
BHMC Sample 1594
O      2.840426     0.371049    -3.816742
H      2.309191     1.129503    -3.547920
H      2.286866    -0.368102    -3.539605
O     -1.165353    -3.684140     3.495335
H     -1.013999    -3.374749     2.593989
H     -1.086500    -2.870963     4.009592
6
BHMC Sample 1595
O      2.840426     0.371049    -3.816742
H      2.309191     1.129503    -3.547920
H      2.286866    -0.368102    -3.539605
O     -1.106387    -3.670738     3.469780
H     -1.524222    -3.176160     2.754334
H     -1.512187    -3.282272     4.254862
6
BHMC Sample 1596
O     -1.091774    -3.622409     3.443128
H     -1.623009    -2.863954     3.711950
H     -1.645334    -4.361560     3.720265
O      2.825813     0.322720    -3.790090
H      2.407978     0.817298    -4.505536
H      2.420013     0.711186    -3.005008
6
BHMC Sample 1597
O      2.840426     0.371049    -3.816742
H      2.309191     1.129503    -3.547920
H      2.286866    -0.368102    -3.539605
O     -1.106387    -3.670738     3.469780
H     -1.524222    -3.176160     2.754334
H     -1.512187    -3.282272     4.254862
6
BHMC Sample 1598
O     -1.091774    -3.622409     3.443128
H     -1.623009    -2.863954     3.711950
H     -1.645334    -4.361560     3.720265
O      2.825813     0.322720    -3.790090
H      2.407978     0.817298    -4.505536
H      2.420013     0.711186    -3.005008
6
BHMC Sample 1599
O     -1.091774    -3.622409     3.443128
H     -1.623009    -2.863954     3.711950
H     -1.645334    -4.361560     3.720265
O      3.919353    -0.721772    -2.572500
H      3.501518    -0.227194    -3.287946
H      3.513553    -0.333306    -1.787418
6
BHMC Sample 1600
O     -1.101329    -3.590889     3.440867
H     -1.513882    -4.444283     3.264095
H     -1.602806    -3.281507     4.204006
O      3.919353    -0.721772    -2.572500
H      3.501518    -0.227194    -3.287946
H      3.513553    -0.333306    -1.787418
6
BHMC Sample 1601
O     -1.101329    -3.590889     3.440867
H     -1.513882    -4.444283     3.264095
H     -1.602806    -3.281507     4.204006
O      4.074013    -0.494187    -1.467861
H      3.656178     0.000391    -2.183307
H      3.668213    -0.105722    -0.682779
6
BHMC Sample 1602
O     -0.069615    -3.823926     2.507549
H     -0.482168    -4.677320     2.330777
H     -0.571092    -3.514543     3.270689
O      4.074013    -0.494187    -1.467861
H      3.656178     0.000391    -2.183307
H      3.668213    -0.105722    -0.682779
6
BHMC Sample 1603
O     -0.069615    -3.823926     2.507549
H     -0.482168    -4.677320     2.330777
H     -0.571092    -3.514543     3.270689
O     -4.747488    -0.709232    -1.154804
H     -4.565959     0.219573    -1.343018
H     -3.978617    -1.151938    -1.535307
6
BHMC Sample 1604
O      3.889217    -3.517828     4.134260
H      4.394251    -3.902369     3.408451
H      4.375962    -2.703501     4.306098
O     -0.316800    -0.162033     0.189572
H     -0.135271     0.766772     0.001359
H      0.452071    -0.604739    -0.190931
6
BHMC Sample 1605
O      3.889217    -3.517828     4.134260
H      4.394251    -3.902369     3.408451
H      4.375962    -2.703501     4.306098
O     -0.023051     0.668059     0.710041
H     -0.116639     1.573801     1.029303
H      0.919170     0.616399     0.506359
6
BHMC Sample 1606
O     -0.031060     0.691800     0.747505
H      0.473973     0.307259     0.021695
H      0.455685     1.506127     0.919343
O      3.897227    -3.541569     4.096796
H      3.803638    -2.635827     4.416058
H      4.839447    -3.593229     3.893115
6
BHMC Sample 1607
O      0.031481     0.716611     0.784098
H     -0.756092     0.537112     0.257564
H      0.693091     0.882465     0.102669
O      3.897227    -3.541569     4.096796
H      3.803638    -2.635827     4.416058
H      4.839447    -3.593229     3.893115
6
BHMC Sample 1608
O      3.951759    -3.493017     4.170853
H      3.164185    -3.672515     3.644319
H      4.613368    -3.327163     3.489425
O     -0.023051     0.668059     0.710041
H     -0.116639     1.573801     1.029303
H      0.919170     0.616399     0.506359
6
BHMC Sample 1609
O      4.001346    -4.134578     3.464357
H      4.238096    -3.283865     3.077101
H      3.938072    -4.697773     2.684366
O     -0.282877    -0.284694    -0.038527
H     -0.376466     0.621048     0.280735
H      0.659343    -0.336354    -0.242208
6
BHMC Sample 1610
O      3.691932    -4.445770     3.422285
H      2.904359    -4.625269     2.895752
H      4.353541    -4.279916     2.740857
O     -0.282877    -0.284694    -0.038527
H     -0.376466     0.621048     0.280735
H      0.659343    -0.336354    -0.242208
6
BHMC Sample 1611
O      3.691932    -4.445770     3.422285
H      2.904359    -4.625269     2.895752
H      4.353541    -4.279916     2.740857
O     -0.199885    -0.227387     0.024763
H     -0.477125    -1.056842    -0.382911
H     -0.557252     0.431947    -0.583104
6
BHMC Sample 1612
O      2.697046    -2.792432     2.052599
H      1.909473    -2.971931     1.526065
H      3.358655    -2.626579     1.371171
O     -0.199885    -0.227387     0.024763
H     -0.477125    -1.056842    -0.382911
H     -0.557252     0.431947    -0.583104
6
BHMC Sample 1613
O     -0.228345    -0.236142     0.035530
H     -1.015919    -0.415641    -0.491004
H      0.433264    -0.070288    -0.645898
O      2.725506    -2.783677     2.041833
H      2.448266    -3.613132     1.634159
H      2.368140    -2.124344     1.433965
6
BHMC Sample 1614
O     -0.164628     2.528090    -3.265816
H     -0.294035     2.329148    -4.200377
H     -1.061138     2.739975    -2.981294
O      0.211536     0.056707     0.338514
H     -0.065705    -0.772748    -0.069160
H     -0.145831     0.716041    -0.269354
6
BHMC Sample 1615
O      0.233431     0.046464     0.318063
H      0.104024    -0.152478    -0.616498
H     -0.663080     0.258349     0.602584
O     -0.186523     2.538333    -3.245365
H     -0.463763     1.708878    -3.653039
H     -0.543890     3.197666    -3.853233
6
BHMC Sample 1616
O     -0.548401     0.034350     1.192991
H     -0.677808    -0.164593     0.258430
H     -1.444911     0.246235     1.477513
O     -0.186523     2.538333    -3.245365
H     -0.463763     1.708878    -3.653039
H     -0.543890     3.197666    -3.853233
6
BHMC Sample 1617
O     -0.548401     0.034350     1.192991
H     -0.677808    -0.164593     0.258430
H     -1.444911     0.246235     1.477513
O     -3.064153     2.879828    -2.261490
H     -3.517022     2.061880    -2.500084
H     -3.735604     3.549157    -2.443382
6
BHMC Sample 1618
O      0.975079     1.539268     0.624755
H      0.845673     1.340325    -0.309806
H      0.078569     1.751153     0.909276
O     -3.064153     2.879828    -2.261490
H     -3.517022     2.061880    -2.500084
H     -3.735604     3.549157    -2.443382
6
BHMC Sample 1619
O     -3.069659     2.870788    -2.248645
H     -3.199066     2.671845    -3.183207
H     -3.966169     3.082673    -1.964124
O      0.980585     1.548307     0.611911
H      0.527717     0.730360     0.373316
H      0.309134     2.217637     0.430018
6
BHMC Sample 1620
O     -3.062322     2.891105    -2.278426
H     -3.854972     3.433071    -2.366216
H     -3.426708     1.998972    -2.308433
O      0.980585     1.548307     0.611911
H      0.527717     0.730360     0.373316
H      0.309134     2.217637     0.430018
6
BHMC Sample 1621
O     -3.844485     3.780319    -3.047927
H     -4.637135     4.322286    -3.135717
H     -4.208870     2.888186    -3.077934
O      0.980585     1.548307     0.611911
H      0.527717     0.730360     0.373316
H      0.309134     2.217637     0.430018
6
BHMC Sample 1622
O      0.982416     1.559585     0.594974
H      0.189766     2.101551     0.507184
H      0.618030     0.667452     0.564967
O     -3.846315     3.769042    -3.030990
H     -4.299184     2.951094    -3.269585
H     -4.517767     4.438372    -3.212883
6
BHMC Sample 1623
O      0.982416     1.559585     0.594974
H      0.189766     2.101551     0.507184
H      0.618030     0.667452     0.564967
O     -3.868589     2.665221    -0.933493
H     -4.321457     1.847273    -1.172087
H     -4.540040     3.334551    -1.115386
6
BHMC Sample 1624
O      0.982416     1.559585     0.594974
H      0.189766     2.101551     0.507184
H      0.618030     0.667452     0.564967
O     -0.921962     2.531859    -4.115074
H     -0.845897     1.735813    -4.655057
H     -1.302154     3.167064    -4.734673
6
BHMC Sample 1625
O      1.085014     1.165018     0.454624
H      0.334410     1.769672     0.427868
H      0.651025     0.306071     0.395942
O     -0.921962     2.531859    -4.115074
H     -0.845897     1.735813    -4.655057
H     -1.302154     3.167064    -4.734673
6
BHMC Sample 1626
O      0.806949     2.772509     4.732432
H      0.543855     1.846630     4.789509
H     -0.040889     3.212837     4.602583
O      0.101376     0.053614     0.386527
H      0.177441    -0.742432    -0.153456
H     -0.278817     0.688819    -0.233072
6
BHMC Sample 1627
O      0.806949     2.772509     4.732432
H      0.543855     1.846630     4.789509
H     -0.040889     3.212837     4.602583
O      0.090238     0.108213     0.299263
H      0.041677    -0.709778    -0.210236
H      0.033733    -0.210434     1.208771
6
BHMC Sample 1628
O      0.806949     2.772509     4.732432
H      0.543855     1.846630     4.789509
H     -0.040889     3.212837     4.602583
O      0.345031    -1.235266     0.255320
H      0.296470    -2.053257    -0.254178
H      0.288526    -1.553913     1.164829
6
BHMC Sample 1629
O      0.599731     2.040180    -4.764362
H      1.186426     2.059821    -3.999423
H     -0.062289     2.698821    -4.524571
O      0.345031    -1.235266     0.255320
H      0.296470    -2.053257    -0.254178
H      0.288526    -1.553913     1.164829
6
BHMC Sample 1630
O      0.269077     1.038206    -2.514387
H      0.855771     1.057847    -1.749447
H     -0.392943     1.696847    -2.274596
O      0.345031    -1.235266     0.255320
H      0.296470    -2.053257    -0.254178
H      0.288526    -1.553913     1.164829
6
BHMC Sample 1631
O      0.025108    -0.226094    -0.334910
H      0.611803    -0.206453     0.430030
H     -0.636912     0.432547    -0.095119
O      2.542979     2.320428     0.578921
H      3.288226     1.974323     0.073080
H      2.876959     3.173814     0.882444
6
BHMC Sample 1632
O      0.025108    -0.226094    -0.334910
H      0.611803    -0.206453     0.430030
H     -0.636912     0.432547    -0.095119
O      0.167279     3.467751    -0.327279
H     -0.407204     3.638676    -1.083460
H      0.312212     4.353833     0.027386
6
BHMC Sample 1633
O      1.749446    -2.311863     2.825285
H      1.517712    -3.104043     2.326807
H      0.921877    -1.817434     2.809517
O      0.143183    -0.352336     0.133839
H     -0.431300    -0.181411    -0.622342
H      0.288117     0.533747     0.488503
6
BHMC Sample 1634
O     -3.422546     0.496859     1.075965
H     -3.499792    -0.408778     1.397811
H     -3.011494     0.367347     0.213502
O      0.143183    -0.352336     0.133839
H     -0.431300    -0.181411    -0.622342
H      0.288117     0.533747     0.488503
6
BHMC Sample 1635
O     -3.422546     0.496859     1.075965
H     -3.499792    -0.408778     1.397811
H     -3.011494     0.367347     0.213502
O      1.759800     0.388267     0.150798
H      1.185317     0.559192    -0.605383
H      1.904734     1.274349     0.505462
6
BHMC Sample 1636
O     -0.111269     0.345049     0.180206
H     -0.188514    -0.560587     0.502051
H      0.299783     0.215538    -0.682257
O      4.233664     2.833585     0.611223
H      3.641049     3.060744    -0.115594
H      4.858539     2.231192     0.188626
6
BHMC Sample 1637
O      4.216791     2.870510     0.577159
H      4.139546     1.964873     0.899005
H      4.627843     2.740998    -0.285304
O     -0.094396     0.308125     0.214270
H     -0.687012     0.535284    -0.512547
H      0.530479    -0.294268    -0.208327
6
BHMC Sample 1638
O     -0.111269     0.345049     0.180206
H     -0.188514    -0.560587     0.502051
H      0.299783     0.215538    -0.682257
O     -2.827299     0.317195    -4.051400
H     -3.745442     0.027126    -3.988717
H     -2.349695    -0.519195    -4.116823
6
BHMC Sample 1639
O     -0.111269     0.345049     0.180206
H     -0.188514    -0.560587     0.502051
H      0.299783     0.215538    -0.682257
O     -3.242694     1.605487    -3.378672
H     -4.142705     1.259183    -3.345354
H     -3.245031     2.257572    -2.666833
6
BHMC Sample 1640
O      1.275302     2.890279    -2.052764
H      1.843187     2.165505    -1.766516
H      1.240392     2.751332    -3.006207
O     -3.242694     1.605487    -3.378672
H     -4.142705     1.259183    -3.345354
H     -3.245031     2.257572    -2.666833
6
BHMC Sample 1641
O      1.275302     2.890279    -2.052764
H      1.843187     2.165505    -1.766516
H      1.240392     2.751332    -3.006207
O     -3.349888     1.606559    -3.370260
H     -2.704411     1.019577    -2.958108
H     -2.981943     2.480161    -3.187585
6
BHMC Sample 1642
O      4.357093     0.822780     1.176797
H      4.609221     1.753109     1.202250
H      4.328636     0.650008     0.228684
O     -0.337807    -0.095540    -0.198275
H      0.307669    -0.682522     0.213876
H      0.030138     0.778062    -0.015601
6
BHMC Sample 1643
O      4.357093     0.822780     1.176797
H      4.609221     1.753109     1.202250
H      4.328636     0.650008     0.228684
O     -0.376144     0.535649    -0.359243
H      0.301943    -0.150569    -0.340272
H     -0.018737     1.197015     0.246389
6
BHMC Sample 1644
O      3.112956    -1.544065     2.522218
H      3.891039    -0.974577     2.521957
H      3.146268    -1.927201     1.638094
O     -0.376144     0.535649    -0.359243
H      0.301943    -0.150569    -0.340272
H     -0.018737     1.197015     0.246389
6
BHMC Sample 1645
O      3.112956    -1.544065     2.522218
H      3.891039    -0.974577     2.521957
H      3.146268    -1.927201     1.638094
O      0.101201     2.074082     4.032505
H      0.420448     1.610684     3.248668
H      0.852053     2.003579     4.635153
6
BHMC Sample 1646
O     -0.270465    -0.062118     0.294795
H      0.507618     0.507371     0.294534
H     -0.237153    -0.445253    -0.589329
O     -3.085506     2.678438    -3.159471
H     -2.192739     2.591753    -2.803789
H     -3.435934     1.784428    -3.060076
6
BHMC Sample 1647
O     -0.270465    -0.062118     0.294795
H      0.507618     0.507371     0.294534
H     -0.237153    -0.445253    -0.589329
O      2.268589    -4.635229     0.211635
H      2.404162    -3.687591     0.090564
H      1.345960    -4.747615    -0.049246
6
BHMC Sample 1648
O     -0.270465    -0.062118     0.294795
H      0.507618     0.507371     0.294534
H     -0.237153    -0.445253    -0.589329
O      1.399923    -4.834776     1.158359
H      1.102379    -3.986631     1.509322
H      1.070112    -4.810982     0.251389
6
BHMC Sample 1649
O     -0.270465    -0.062118     0.294795
H      0.507618     0.507371     0.294534
H     -0.237153    -0.445253    -0.589329
O      2.050661    -4.648241     0.033311
H      1.400519    -4.071414     0.452409
H      2.189174    -4.218790    -0.820105
6
BHMC Sample 1650
O     -3.469385     3.276112    -0.298215
H     -4.000417     2.878175    -0.997772
H     -2.647520     3.475713    -0.761113
O      0.170543    -0.335426     0.144773
H     -0.479599     0.241401     0.563871
H      0.309056     0.094025    -0.708644
6
BHMC Sample 1651
O     -3.469385     3.276112    -0.298215
H     -4.000417     2.878175    -0.997772
H     -2.647520     3.475713    -0.761113
O      1.395618     0.733817    -0.597595
H      0.745476     1.310644    -0.178497
H      1.534131     1.163268    -1.451012
6
BHMC Sample 1652
O     -3.424478     3.321936    -0.339622
H     -4.121378     3.220863    -0.998291
H     -3.239325     2.405705    -0.103366
O      1.395618     0.733817    -0.597595
H      0.745476     1.310644    -0.178497
H      1.534131     1.163268    -1.451012
6
BHMC Sample 1653
O     -1.524868    -3.895436     3.058682
H     -1.843540    -4.740709     2.721501
H     -2.122258    -3.271935     2.629787
O      0.170543    -0.335426     0.144773
H     -0.479599     0.241401     0.563871
H      0.309056     0.094025    -0.708644
6
BHMC Sample 1654
O      0.193172    -0.266712     0.163336
H     -0.125500    -1.111985    -0.173845
H     -0.404218     0.356789    -0.265558
O     -1.547497    -3.964150     3.040119
H     -2.197639    -3.387323     3.459216
H     -1.408984    -3.534699     2.186702
6
BHMC Sample 1655
O     -1.524868    -3.895436     3.058682
H     -1.843540    -4.740709     2.721501
H     -2.122258    -3.271935     2.629787
O      0.170543    -0.335426     0.144773
H     -0.479599     0.241401     0.563871
H      0.309056     0.094025    -0.708644
6
BHMC Sample 1656
O     -3.587668    -2.936788    -1.754627
H     -4.019325    -2.719583    -2.589027
H     -3.741597    -2.138115    -1.236934
O      0.170543    -0.335426     0.144773
H     -0.479599     0.241401     0.563871
H      0.309056     0.094025    -0.708644
6
BHMC Sample 1657
O      3.723698     2.466254     2.150921
H      4.074872     3.261966     1.734690
H      2.791346     2.689679     2.252800
O      0.170543    -0.335426     0.144773
H     -0.479599     0.241401     0.563871
H      0.309056     0.094025    -0.708644
6
BHMC Sample 1658
O      0.193726    -0.339712     0.104784
H      0.544900     0.456000    -0.311447
H     -0.738626    -0.116287     0.206663
O     -3.872806    -2.241030    -2.179095
H     -3.865946    -2.816456    -1.404567
H     -3.241515    -2.675815    -2.765925
6
BHMC Sample 1659
O      0.834566    -1.032008    -3.518734
H      0.981879    -0.084777    -3.622567
H      0.439336    -1.077009    -2.640470
O     -3.872806    -2.241030    -2.179095
H     -3.865946    -2.816456    -1.404567
H     -3.241515    -2.675815    -2.765925
6
BHMC Sample 1660
O      3.582798     2.988792    -1.669775
H      4.500019     2.717627    -1.547691
H      3.224501     2.885346    -0.780674
O     -0.212717     0.336737    -0.062566
H     -0.205857    -0.238689     0.711962
H      0.418574    -0.098048    -0.649396
6
BHMC Sample 1661
O     -0.782163     3.725516    -3.494915
H     -0.095157     4.369583    -3.702110
H     -0.830060     3.787574    -2.533960
O     -0.212717     0.336737    -0.062566
H     -0.205857    -0.238689     0.711962
H      0.418574    -0.098048    -0.649396
6
BHMC Sample 1662
O     -0.863550     3.666027    -3.538391
H     -1.327425     3.468852    -4.360383
H     -1.472873     3.317707    -2.877349
O     -0.212717     0.336737    -0.062566
H     -0.205857    -0.238689     0.711962
H      0.418574    -0.098048    -0.649396
6
BHMC Sample 1663
O     -0.863550     3.666027    -3.538391
H     -1.327425     3.468852    -4.360383
H     -1.472873     3.317707    -2.877349
O      0.314264     0.633723    -1.382703
H      0.321124     0.058297    -0.608174
H      0.945555     0.198938    -1.969532
6
BHMC Sample 1664
O      0.410020     0.607720    -1.363195
H     -0.053855     0.410545    -2.185187
H     -0.199304     0.259400    -0.702153
O     -0.959305     3.692029    -3.557899
H     -0.952446     3.116603    -2.783371
H     -0.328015     3.257244    -4.144729
6
BHMC Sample 1665
O      0.840902    -2.978339     1.963489
H      1.527908    -2.334272     1.756294
H      0.793005    -2.916282     2.924443
O     -0.212717     0.336737    -0.062566
H     -0.205857    -0.238689     0.711962
H      0.418574    -0.098048    -0.649396
6
BHMC Sample 1666
O      0.840902    -2.978339     1.963489
H      1.527908    -2.334272     1.756294
H      0.793005    -2.916282     2.924443
O      0.795543    -1.362252    -1.369149
H      0.802402    -1.937678    -0.594621
H      1.426833    -1.797037    -1.955979
6
BHMC Sample 1667
O      0.834700    -2.890231     1.983393
H      1.798711    -2.909726     1.977841
H      0.620644    -3.739274     2.386984
O      0.795543    -1.362252    -1.369149
H      0.802402    -1.937678    -0.594621
H      1.426833    -1.797037    -1.955979
6
BHMC Sample 1668
O      0.834700    -2.890231     1.983393
H      1.798711    -2.909726     1.977841
H      0.620644    -3.739274     2.386984
O     -1.117799    -3.649953    -1.059946
H     -0.499395    -3.623147    -0.319734
H     -0.531971    -3.789069    -1.814524
6
BHMC Sample 1669
O      0.834700    -2.890231     1.983393
H      1.798711    -2.909726     1.977841
H      0.620644    -3.739274     2.386984
O     -0.717761     0.353904     2.710836
H     -0.348835    -0.458124     2.342650
H     -0.365734     1.029160     2.117506
6
BHMC Sample 1670
O      0.834700    -2.890231     1.983393
H      1.798711    -2.909726     1.977841
H      0.620644    -3.739274     2.386984
O     -1.899560    -0.558009     1.294451
H     -1.220281    -1.243282     1.300505
H     -1.778530    -0.153855     0.426150
6
BHMC Sample 1671
O      1.766957    -2.936656     0.553760
H      1.932328    -3.752063     0.066428
H      2.245900    -3.095067     1.375404
O     -0.266770     0.093706     0.287416
H      0.412510    -0.591566     0.293470
H     -0.145740     0.497860    -0.580885
6
BHMC Sample 1672
O     -0.541386     1.562564    -3.052545
H     -0.650425     1.282012    -3.968585
H     -0.634655     2.519460    -3.124864
O     -0.266770     0.093706     0.287416
H      0.412510    -0.591566     0.293470
H     -0.145740     0.497860    -0.580885
6
BHMC Sample 1673
O      0.067436    -0.225448     0.329453
H     -0.041603    -0.506000    -0.586587
H     -0.025833     0.731448     0.257134
O      1.000044    -1.637407     3.573665
H      0.475534    -2.426776     3.754891
H      0.572140    -1.280721     2.785243
6
BHMC Sample 1674
O      1.001759    -1.042245     0.722980
H      0.892720    -1.322797    -0.193061
H      0.908489    -0.085350     0.650660
O      1.000044    -1.637407     3.573665
H      0.475534    -2.426776     3.754891
H      0.572140    -1.280721     2.785243
6
BHMC Sample 1675
O      1.001759    -1.042245     0.722980
H      0.892720    -1.322797    -0.193061
H      0.908489    -0.085350     0.650660
O      0.999361    -1.672521     3.580846
H      0.088213    -1.452538     3.809913
H      0.970297    -1.697621     2.616242
6
BHMC Sample 1676
O      0.067436    -0.225448     0.329453
H     -0.041603    -0.506000    -0.586587
H     -0.025833     0.731448     0.257134
O      0.967480    -0.469361     3.120766
H      1.850833    -0.086013     3.059214
H      0.735113    -0.604508     2.193579
6
BHMC Sample 1677
O      0.067436    -0.225448     0.329453
H     -0.041603    -0.506000    -0.586587
H     -0.025833     0.731448     0.257134
O      0.938488    -2.749741     1.566418
H      1.815719    -2.847867     1.176683
H      0.719490    -1.833404     1.355941
6
BHMC Sample 1678
O      2.100766    -0.697306    -1.560227
H      1.672253    -0.682648    -2.423876
H      3.034346    -0.689273    -1.800940
O     -0.219411    -0.272737     0.200070
H      0.657820    -0.370863    -0.189664
H     -0.438409     0.643600    -0.010406
6
BHMC Sample 1679
O      2.662431    -0.295903    -0.397070
H      2.994884     0.262593     0.315171
H      3.443987    -0.396517    -0.952611
O     -0.219411    -0.272737     0.200070
H      0.657820    -0.370863    -0.189664
H     -0.438409     0.643600    -0.010406
6
BHMC Sample 1680
O     -0.371336    -0.152627    -0.052233
H     -0.038884     0.405868     0.660008
H      0.410220    -0.253241    -0.607775
O     -2.425180    -1.343966    -1.791399
H     -1.929633    -0.882238    -1.104160
H     -2.469755    -0.683472    -2.494034
6
BHMC Sample 1681
O     -2.056989     0.871572    -3.706585
H     -2.345315     1.603800    -4.263757
H     -1.265290     0.570546    -4.167209
O     -2.425180    -1.343966    -1.791399
H     -1.929633    -0.882238    -1.104160
H     -2.469755    -0.683472    -2.494034
6
BHMC Sample 1682
O     -2.428112    -1.305301    -1.735312
H     -2.716438    -0.573073    -2.292483
H     -1.636413    -1.606327    -2.195935
O     -2.054057     0.832907    -3.762673
H     -1.558510     1.294635    -3.075434
H     -2.098632     1.493401    -4.465307
6
BHMC Sample 1683
O     -2.056989     0.871572    -3.706585
H     -2.345315     1.603800    -4.263757
H     -1.265290     0.570546    -4.167209
O     -2.425180    -1.343966    -1.791399
H     -1.929633    -0.882238    -1.104160
H     -2.469755    -0.683472    -2.494034
6
BHMC Sample 1684
O     -1.846575     1.079028    -3.385936
H     -2.072421     1.866826    -3.893968
H     -0.989709     0.840813    -3.758245
O     -2.425180    -1.343966    -1.791399
H     -1.929633    -0.882238    -1.104160
H     -2.469755    -0.683472    -2.494034
6
BHMC Sample 1685
O     -2.435254    -1.311925    -1.743003
H     -2.661101    -0.524126    -2.251034
H     -1.578389    -1.550140    -2.115311
O     -1.836501     1.046987    -3.434333
H     -1.340954     1.508714    -2.747094
H     -1.881076     1.707481    -4.136967
6
BHMC Sample 1686
O     -1.333253    -1.679804    -2.382935
H     -1.880735    -0.927466    -2.635879
H     -0.533785    -1.527042    -2.899745
O     -1.836501     1.046987    -3.434333
H     -1.340954     1.508714    -2.747094
H     -1.881076     1.707481    -4.136967
6
BHMC Sample 1687
O     -1.629345    -1.852319    -2.878057
H     -2.085100    -1.004640    -2.936850
H     -0.886722    -1.721264    -3.478819
O     -1.836501     1.046987    -3.434333
H     -1.340954     1.508714    -2.747094
H     -1.881076     1.707481    -4.136967
6
BHMC Sample 1688
O     -1.629345    -1.852319    -2.878057
H     -2.085100    -1.004640    -2.936850
H     -0.886722    -1.721264    -3.478819
O     -1.834030     0.967564    -3.761352
H     -1.302420     1.500649    -3.157806
H     -1.905404     1.539964    -4.535432
6
BHMC Sample 1689
O     -0.720784    -3.139556    -0.822132
H     -0.969411    -2.304975    -0.408141
H      0.226838    -3.021465    -0.954970
O     -0.153412    -0.368495     0.056844
H      0.378198     0.164590     0.660391
H     -0.224786     0.203905    -0.717235
6
BHMC Sample 1690
O     -0.232998    -0.317557    -0.093718
H     -0.481625     0.517024     0.320273
H      0.714624    -0.199466    -0.226555
O      0.405423     2.293716     1.150051
H      0.787028     3.164157     0.983419
H      0.663053     2.126193     2.065199
6
BHMC Sample 1691
O     -0.232998    -0.317557    -0.093718
H     -0.481625     0.517024     0.320273
H      0.714624    -0.199466    -0.226555
O     -0.865500     2.508345     0.443637
H     -1.052758     3.142520     1.146355
H     -1.447881     2.807231    -0.265894
6
BHMC Sample 1692
O      1.397825    -2.703053     1.287088
H      0.881814    -2.096489     0.743450
H      2.266766    -2.652059     0.872454
O      0.256546    -0.311020     0.002271
H      0.069288     0.323155     0.704989
H     -0.325834    -0.012134    -0.707260
6
BHMC Sample 1693
O      2.897243    -1.524788     0.444984
H      2.123774    -1.100956     0.055315
H      2.589723    -2.430977     0.562590
O      0.256546    -0.311020     0.002271
H      0.069288     0.323155     0.704989
H     -0.325834    -0.012134    -0.707260
6
BHMC Sample 1694
O      0.360330     0.160786     0.090688
H     -0.413139     0.584617    -0.298981
H      0.052809    -0.745403     0.208293
O     -0.706227    -1.870910     1.792855
H     -0.223934    -1.815789     2.626768
H     -1.077415    -2.761426     1.826562
6
BHMC Sample 1695
O      0.380533     0.401626     0.440473
H     -0.361531     1.009811     0.344646
H     -0.058988    -0.455823     0.406099
O     -0.706227    -1.870910     1.792855
H     -0.223934    -1.815789     2.626768
H     -1.077415    -2.761426     1.826562
6
BHMC Sample 1696
O      0.393861     0.083088     0.043400
H     -0.348202     0.691273    -0.052427
H     -0.045659    -0.774361     0.009027
O     -0.369926    -2.241496    -1.435566
H      0.287952    -2.214671    -2.140925
H     -0.727679    -3.134177    -1.519643
6
BHMC Sample 1697
O      0.393861     0.083088     0.043400
H     -0.348202     0.691273    -0.052427
H     -0.045659    -0.774361     0.009027
O     -1.837763     1.553480     1.196382
H     -2.164194     1.044608     1.948411
H     -2.446599     2.302278     1.172845
6
BHMC Sample 1698
O      0.190878    -0.212784     0.077208
H     -0.737869    -0.000724     0.226168
H      0.431864    -0.644410     0.904978
O     -1.837763     1.553480     1.196382
H     -2.164194     1.044608     1.948411
H     -2.446599     2.302278     1.172845
6
BHMC Sample 1699
O      0.755571     2.419736    -0.822458
H     -0.173175     2.631796    -0.673498
H      0.996558     1.988110     0.005312
O     -1.837763     1.553480     1.196382
H     -2.164194     1.044608     1.948411
H     -2.446599     2.302278     1.172845
6
BHMC Sample 1700
O      0.755571     2.419736    -0.822458
H     -0.173175     2.631796    -0.673498
H      0.996558     1.988110     0.005312
O     -1.856880     1.571240     1.178336
H     -2.548445     0.950268     1.437542
H     -1.758917     2.114731     1.970141
6
BHMC Sample 1701
O      0.970989     2.407035    -0.517054
H      0.047911     2.669787    -0.424224
H      1.112469     1.890042     0.284370
O     -1.856880     1.571240     1.178336
H     -2.548445     0.950268     1.437542
H     -1.758917     2.114731     1.970141
6
BHMC Sample 1702
O     -1.846361     1.581130     1.187107
H     -2.769439     1.843882     1.279937
H     -1.704881     1.064137     1.988531
O      0.960470     2.397145    -0.525825
H      0.268905     1.776173    -0.266619
H      1.058433     2.940636     0.265980
6
BHMC Sample 1703
O      1.288152    -0.193011     2.755207
H      1.084367    -0.163472     3.697187
H      2.112639    -0.692716     2.745374
O      0.197868     0.025827    -0.350337
H     -0.493698    -0.595145    -0.091131
H      0.295830     0.569318     0.441468
6
BHMC Sample 1704
O      1.288152    -0.193011     2.755207
H      1.084367    -0.163472     3.697187
H      2.112639    -0.692716     2.745374
O      0.554369     1.298046     0.428671
H     -0.137196     0.677075     0.687878
H      0.652332     1.841537     1.220476
6
BHMC Sample 1705
O      0.486425     1.320018     0.435322
H      0.282639     1.349558     1.377303
H      1.310911     0.820314     0.425489
O      1.356097    -0.214984     2.748556
H      0.664531    -0.835955     3.007762
H      1.454059     0.328508     3.540361
6
BHMC Sample 1706
O      2.675874    -1.143182    -1.230833
H      1.836740    -0.764300    -1.517245
H      2.460733    -1.456793    -0.344864
O      0.197868     0.025827    -0.350337
H     -0.493698    -0.595145    -0.091131
H      0.295830     0.569318     0.441468
6
BHMC Sample 1707
O     -0.995041     2.542971    -1.209262
H     -1.205537     1.648920    -0.915847
H     -0.094780     2.437922    -1.538008
O      0.197868     0.025827    -0.350337
H     -0.493698    -0.595145    -0.091131
H      0.295830     0.569318     0.441468
6
BHMC Sample 1708
O     -0.997092     2.614739    -0.977385
H     -1.207599     1.704569    -0.738625
H     -0.113501     2.523068    -1.352140
O      0.197868     0.025827    -0.350337
H     -0.493698    -0.595145    -0.091131
H      0.295830     0.569318     0.441468
6
BHMC Sample 1709
O      1.666665     1.125327    -2.543305
H      0.780720     0.995682    -2.185503
H      2.160586     0.417605    -2.113478
O      0.197868     0.025827    -0.350337
H     -0.493698    -0.595145    -0.091131
H      0.295830     0.569318     0.441468
6
BHMC Sample 1710
O      0.186589     0.068345    -0.335600
H     -0.699357    -0.061300     0.022202
H      0.680510    -0.639376     0.094227
O      1.677944     1.082808    -2.558042
H      0.986379     0.461837    -2.298836
H      1.775907     1.626300    -1.766237
6
BHMC Sample 1711
O      0.186589     0.068345    -0.335600
H     -0.699357    -0.061300     0.022202
H      0.680510    -0.639376     0.094227
O      1.871294     2.235031    -1.152426
H      1.576365     1.342214    -1.369108
H      1.239346     2.503059    -0.473650
6
BHMC Sample 1712
O      1.841367     2.246925    -1.170641
H      0.955422     2.117281    -0.812839
H      2.335288     1.539204    -0.740814
O      0.216515     0.056450    -0.317385
H     -0.078414    -0.836366    -0.534068
H     -0.415433     0.324479     0.361391
6
BHMC Sample 1713
O      0.186589     0.068345    -0.335600
H     -0.699357    -0.061300     0.022202
H      0.680510    -0.639376     0.094227
O      1.871294     2.235031    -1.152426
H      1.576365     1.342214    -1.369108
H      1.239346     2.503059    -0.473650
6
BHMC Sample 1714
O      0.186589     0.068345    -0.335600
H     -0.699357    -0.061300     0.022202
H      0.680510    -0.639376     0.094227
O      1.815048     2.266938    -1.136058
H      2.423615     1.637534    -1.541710
H      1.284830     1.701309    -0.560848
6
BHMC Sample 1715
O      0.186589     0.068345    -0.335600
H     -0.699357    -0.061300     0.022202
H      0.680510    -0.639376     0.094227
O      2.194437     1.740550    -1.476384
H      2.799805     0.989166    -1.473491
H      1.496653     1.446847    -0.877409
6
BHMC Sample 1716
O      2.211201     1.728927    -1.486778
H      1.325256     1.599282    -1.128976
H      2.705122     1.021206    -1.056951
O      0.169824     0.079968    -0.325206
H      0.775192    -0.671416    -0.322313
H     -0.527959    -0.213736     0.273769
6
BHMC Sample 1717
O      0.186589     0.068345    -0.335600
H     -0.699357    -0.061300     0.022202
H      0.680510    -0.639376     0.094227
O      2.194437     1.740550    -1.476384
H      2.799805     0.989166    -1.473491
H      1.496653     1.446847    -0.877409
6
BHMC Sample 1718
O      0.130675     0.279122    -0.262543
H     -0.755270     0.149477     0.095259
H      0.624596    -0.428599     0.167284
O      0.021326     2.838567    -1.514055
H     -0.935486     2.741837    -1.592864
H      0.245810     2.158375    -0.866846
6
BHMC Sample 1719
O     -1.232939     0.126799    -0.761012
H     -2.118884    -0.002846    -0.403210
H     -0.739018    -0.580922    -0.331185
O      0.021326     2.838567    -1.514055
H     -0.935486     2.741837    -1.592864
H      0.245810     2.158375    -0.866846
6
BHMC Sample 1720
O      0.130675     0.279122    -0.262543
H     -0.755270     0.149477     0.095259
H      0.624596    -0.428599     0.167284
O      1.251785     3.046691    -1.022550
H      1.857153     2.295307    -1.019657
H      0.554001     2.752987    -0.423575
6
BHMC Sample 1721
O      2.201409    -1.411105     0.718899
H      2.203872    -2.126605     1.365260
H      2.856069    -1.717050     0.080623
O      0.030805     0.348362    -0.200623
H      0.636173    -0.403021    -0.197730
H     -0.666978     0.054659     0.398352
6
BHMC Sample 1722
O      1.138610    -2.273768    -0.942223
H      0.930457    -3.160222    -0.625048
H      2.081578    -2.345696    -1.129883
O      0.030805     0.348362    -0.200623
H      0.636173    -0.403021    -0.197730
H     -0.666978     0.054659     0.398352
6
BHMC Sample 1723
O     -0.244939     0.319461    -0.043172
H     -0.453091    -0.566994     0.274004
H      0.698029     0.247533    -0.230832
O     -1.851127     2.589049     0.916965
H     -1.331534     1.776991     0.957470
H     -1.168603     3.271733     0.910688
6
BHMC Sample 1724
O      1.646703     1.853134    -1.099316
H      1.634826     2.781472    -0.838978
H      2.581996     1.710237    -1.284753
O     -0.400705     0.043125    -0.011409
H      0.118887    -0.768934     0.029096
H      0.281818     0.725809    -0.017687
6
BHMC Sample 1725
O      2.297534     2.336017     0.206274
H      2.285657     3.264355     0.466611
H      3.232827     2.193120     0.020836
O     -0.400705     0.043125    -0.011409
H      0.118887    -0.768934     0.029096
H      0.281818     0.725809    -0.017687
6
BHMC Sample 1726
O     -0.307805    -0.261814    -0.024967
H     -0.319682     0.666524     0.235371
H      0.627487    -0.404710    -0.210404
O     -3.006205    -2.554418    -0.243681
H     -2.584852    -3.190822    -0.834028
H     -2.298219    -1.917264    -0.086444
6
BHMC Sample 1727
O     -0.307805    -0.261814    -0.024967
H     -0.319682     0.666524     0.235371
H      0.627487    -0.404710    -0.210404
O     -2.228158    -2.690511    -1.192763
H     -1.806805    -3.326914    -1.783109
H     -1.520171    -2.053357    -1.035525
6
BHMC Sample 1728
O     -0.275535     2.426648     2.009536
H     -0.094295     3.355178     2.195854
H     -1.094916     2.282017     2.496645
O     -0.376447    -0.000250     0.144370
H      0.044906    -0.636654    -0.445977
H      0.331540     0.636904     0.301607
6
BHMC Sample 1729
O     -0.275535     2.426648     2.009536
H     -0.094295     3.355178     2.195854
H     -1.094916     2.282017     2.496645
O      2.285200     1.484793     3.467284
H      3.210034     1.209604     3.464276
H      2.082894     1.541967     2.525085
6
BHMC Sample 1730
O      0.212714    -0.261299    -0.224476
H      0.393954     0.667230    -0.038157
H     -0.606667    -0.405930     0.262633
O     -0.151694     0.267522    -3.250535
H      0.185434     0.287815    -4.154410
H      0.576100    -0.142931    -2.767029
6
BHMC Sample 1731
O      0.212714    -0.261299    -0.224476
H      0.393954     0.667230    -0.038157
H     -0.606667    -0.405930     0.262633
O      2.773449    -1.203155     1.233272
H      3.698283    -1.478344     1.230264
H      2.571143    -1.145981     0.291073
6
BHMC Sample 1732
O      2.849583    -1.259215     1.142704
H      3.030823    -0.330686     1.329022
H      2.030202    -1.403846     1.629813
O      0.136580    -0.205239    -0.133908
H      1.061414    -0.480428    -0.136916
H     -0.065726    -0.148065    -1.076106
6
BHMC Sample 1733
O      0.212714    -0.261299    -0.224476
H      0.393954     0.667230    -0.038157
H     -0.606667    -0.405930     0.262633
O      0.778805    -1.811964     2.289824
H      0.952718    -1.038779     1.739374
H      1.538914    -1.817945     2.884915
6
BHMC Sample 1734
O      0.212714    -0.261299    -0.224476
H      0.393954     0.667230    -0.038157
H     -0.606667    -0.405930     0.262633
O      2.432810    -0.038479     1.792484
H      1.563501    -0.383876     1.555719
H      2.679765    -0.594682     2.541874
6
BHMC Sample 1735
O     -2.401800     0.668612    -1.621022
H     -1.667762     0.757763    -2.239866
H     -2.738688    -0.208645    -1.836675
O      0.207452     0.300533    -0.170875
H     -0.661858    -0.044864    -0.407640
H      0.454406    -0.255670     0.578515
6
BHMC Sample 1736
O     -2.401800     0.668612    -1.621022
H     -1.667762     0.757763    -2.239866
H     -2.738688    -0.208645    -1.836675
O      0.209565     0.205501    -0.107146
H      0.321439     1.161420    -0.176126
H     -0.562434     0.046410    -0.664499
6
BHMC Sample 1737
O     -1.180836    -0.941844    -2.056575
H     -0.446797    -0.852692    -2.675419
H     -1.517723    -1.819100    -2.272228
O      0.209565     0.205501    -0.107146
H      0.321439     1.161420    -0.176126
H     -0.562434     0.046410    -0.664499
6
BHMC Sample 1738
O     -2.195904    -1.194918    -0.382387
H     -2.558348    -0.872649     0.450983
H     -2.629415    -2.051632    -0.470070
O      0.220042    -0.265610     0.208777
H      0.331916     0.690310     0.139798
H     -0.551957    -0.424701    -0.348575
6
BHMC Sample 1739
O     -1.170359    -1.412954    -1.740651
H     -0.436321    -1.323802    -2.359495
H     -1.507247    -2.290210    -1.956304
O      0.220042    -0.265610     0.208777
H      0.331916     0.690310     0.139798
H     -0.551957    -0.424701    -0.348575
6
BHMC Sample 1740
O     -0.132384     0.262702     0.278166
H      0.601655     0.351853    -0.340679
H     -0.469271    -0.614555     0.062513
O     -0.472057    -0.151505     2.878753
H     -1.383161    -0.118916     3.194798
H     -0.522482     0.340691     2.049817
6
BHMC Sample 1741
O     -0.132384     0.262702     0.278166
H      0.601655     0.351853    -0.340679
H     -0.469271    -0.614555     0.062513
O     -2.588363     1.229389     0.567443
H     -3.050971     0.969333     1.373309
H     -1.663510     1.085214     0.803651
6
BHMC Sample 1742
O     -0.037808     1.301899    -0.105294
H      0.761622     1.799897     0.101196
H     -0.269180     1.648236    -0.974832
O     -2.588363     1.229389     0.567443
H     -3.050971     0.969333     1.373309
H     -1.663510     1.085214     0.803651
6
BHMC Sample 1743
O     -0.037808     1.301899    -0.105294
H      0.761622     1.799897     0.101196
H     -0.269180     1.648236    -0.974832
O     -2.217231     0.027046    -0.883549
H     -2.976313    -0.330350    -0.406980
H     -1.682911     0.400931    -0.171758
6
BHMC Sample 1744
O      0.011596     1.329530    -0.079756
H      0.026142     0.824414    -0.900960
H     -0.317838     2.185152    -0.378024
O     -2.217231     0.027046    -0.883549
H     -2.976313    -0.330350    -0.406980
H     -1.682911     0.400931    -0.171758
6
BHMC Sample 1745
O     -2.296933    -1.303673    -0.424456
H     -1.661916    -1.458051    -1.133434
H     -2.774685    -0.531893    -0.749550
O      0.074921    -0.005496    -0.396120
H     -0.684161    -0.362892     0.080449
H      0.609240     0.368389     0.315671
6
BHMC Sample 1746
O     -0.052422    -0.205801     0.344691
H      0.582595    -0.360179    -0.364288
H     -0.530174     0.565980     0.019597
O      0.904850     2.269901     0.860812
H      0.836687     1.337371     1.099135
H      1.463845     2.623245     1.564095
6
BHMC Sample 1747
O     -0.052422    -0.205801     0.344691
H      0.582595    -0.360179    -0.364288
H     -0.530174     0.565980     0.019597
O     -2.180047    -0.545390    -1.289243
H     -1.598600    -0.885084    -0.598168
H     -2.804195    -1.271788    -1.410566
6
BHMC Sample 1748
O      2.146209     0.692064     1.438936
H      1.664984     1.279077     2.033552
H      2.103893     1.174634     0.605322
O      0.014234     0.355364    -0.189917
H      0.595680     0.015670     0.501157
H     -0.609914    -0.371034    -0.311240
6
BHMC Sample 1749
O      2.076341     0.713914     1.464660
H      1.934491     1.606804     1.129466
H      2.943343     0.500095     1.101112
O      0.014234     0.355364    -0.189917
H      0.595680     0.015670     0.501157
H     -0.609914    -0.371034    -0.311240
6
BHMC Sample 1750
O      1.939493    -0.334944     1.758487
H      2.349605     0.446925     1.370907
H      1.751961    -0.037223     2.656136
O      0.014234     0.355364    -0.189917
H      0.595680     0.015670     0.501157
H     -0.609914    -0.371034    -0.311240
6
BHMC Sample 1751
O     -0.074194    -0.359863    -0.170023
H      0.335919     0.422006    -0.557603
H     -0.261725    -0.062143     0.727626
O      2.220395    -1.894694    -0.273343
H      1.381045    -1.461151    -0.076905
H      2.158222    -2.709356     0.240850
6
BHMC Sample 1752
O      2.157498    -1.976425    -0.262121
H      2.567610    -1.194557    -0.649701
H      1.969967    -1.678705     0.635527
O     -0.011296    -0.278131    -0.181245
H     -0.850646     0.155412     0.015193
H     -0.073469    -1.092793     0.332948
6
BHMC Sample 1753
O     -0.074194    -0.359863    -0.170023
H      0.335919     0.422006    -0.557603
H     -0.261725    -0.062143     0.727626
O      2.220395    -1.894694    -0.273343
H      1.381045    -1.461151    -0.076905
H      2.158222    -2.709356     0.240850
6
BHMC Sample 1754
O     -0.074194    -0.359863    -0.170023
H      0.335919     0.422006    -0.557603
H     -0.261725    -0.062143     0.727626
O      1.738204    -2.414848    -0.377342
H      1.050204    -1.782323    -0.137290
H      1.518153    -3.178421     0.170806
6
BHMC Sample 1755
O     -0.074194    -0.359863    -0.170023
H      0.335919     0.422006    -0.557603
H     -0.261725    -0.062143     0.727626
O      2.595578    -1.028184     1.095921
H      1.861166    -0.734391     0.543308
H      3.312074    -1.121943     0.455782
6
BHMC Sample 1756
O     -2.695051     4.197061    -3.059781
H     -2.493155     4.822323    -2.354080
H     -3.154607     4.756726    -3.696305
O      2.763648    -0.834607    -2.211580
H      2.915002    -0.525216    -3.112927
H      2.842501    -0.021431    -1.697323
6
BHMC Sample 1757
O     -2.695051     4.197061    -3.059781
H     -2.493155     4.822323    -2.354080
H     -3.154607     4.756726    -3.696305
O      3.917806     1.306413    -1.057695
H      3.717973     0.821747    -1.867770
H      3.923205     2.223030    -1.360546
6
BHMC Sample 1758
O     -2.695051     4.197061    -3.059781
H     -2.493155     4.822323    -2.354080
H     -3.154607     4.756726    -3.696305
O      4.369074     2.824030    -1.956269
H      4.169241     2.339365    -2.766345
H      4.374472     3.740647    -2.259121
6
BHMC Sample 1759
O     -2.756024     4.246963    -3.009197
H     -1.896613     4.667237    -2.888737
H     -2.783383     4.119781    -3.964526
O      4.369074     2.824030    -1.956269
H      4.169241     2.339365    -2.766345
H      4.374472     3.740647    -2.259121
6
BHMC Sample 1760
O      1.978586    -3.990274    -0.958919
H      1.682498    -3.082906    -1.095830
H      2.078139    -4.306065    -1.864427
O      4.369074     2.824030    -1.956269
H      4.169241     2.339365    -2.766345
H      4.374472     3.740647    -2.259121
6
BHMC Sample 1761
O      4.369192     2.815099    -1.960214
H      4.073104     3.722467    -2.097125
H      4.468744     2.499307    -2.865722
O      1.978468    -3.981342    -0.954974
H      1.778635    -4.466008    -1.765049
H      1.983867    -3.064725    -1.257825
6
BHMC Sample 1762
O      4.369192     2.815099    -1.960214
H      4.073104     3.722467    -2.097125
H      4.468744     2.499307    -2.865722
O      2.025438    -3.922239    -1.020910
H      1.775731    -4.728682    -1.488192
H      1.241267    -3.740135    -0.488137
6
BHMC Sample 1763
O      1.978586    -3.990274    -0.958919
H      1.682498    -3.082906    -1.095830
H      2.078139    -4.306065    -1.864427
O      4.416044     2.883133    -2.022206
H      4.166337     2.076690    -2.489487
H      3.631872     3.065237    -1.489432
6
BHMC Sample 1764
O      1.978586    -3.990274    -0.958919
H      1.682498    -3.082906    -1.095830
H      2.078139    -4.306065    -1.864427
O      4.344671     2.908319    -2.046523
H      4.604817     2.708836    -1.139006
H      4.326228     2.033335    -2.453949
6
BHMC Sample 1765
O      4.369192     2.815099    -1.960214
H      4.073104     3.722467    -2.097125
H      4.468744     2.499307    -2.865722
O      1.954065    -3.897053    -1.045228
H      2.214211    -4.096536    -0.137711
H      1.935623    -4.772038    -1.452654
6
BHMC Sample 1766
O      1.978586    -3.990274    -0.958919
H      1.682498    -3.082906    -1.095830
H      2.078139    -4.306065    -1.864427
O      4.344671     2.908319    -2.046523
H      4.604817     2.708836    -1.139006
H      4.326228     2.033335    -2.453949
6
BHMC Sample 1767
O      4.369192     2.815099    -1.960214
H      4.073104     3.722467    -2.097125
H      4.468744     2.499307    -2.865722
O      1.954065    -3.897053    -1.045228
H      2.214211    -4.096536    -0.137711
H      1.935623    -4.772038    -1.452654
6
BHMC Sample 1768
O      4.369192     2.815099    -1.960214
H      4.073104     3.722467    -2.097125
H      4.468744     2.499307    -2.865722
O      1.996523    -4.001625    -1.059283
H      2.406578    -3.280318    -0.566711
H      1.069351    -3.928491    -0.800560
6
BHMC Sample 1769
O      4.369192     2.815099    -1.960214
H      4.073104     3.722467    -2.097125
H      4.468744     2.499307    -2.865722
O      2.008434    -3.942062    -1.069050
H      1.316929    -4.613265    -1.020444
H      1.969952    -3.540919    -0.191817
6
BHMC Sample 1770
O      4.394137     2.791909    -2.031117
H      3.837971     3.303798    -2.629763
H      4.307942     3.286043    -1.207721
O      2.008434    -3.942062    -1.069050
H      1.316929    -4.613265    -1.020444
H      1.969952    -3.540919    -0.191817
6
BHMC Sample 1771
O      2.003531    -4.013463    -1.029821
H      1.447365    -3.501574    -1.628467
H      1.917336    -3.519329    -0.206426
O      4.399040     2.863310    -2.070345
H      3.707535     2.192107    -2.021739
H      4.360558     3.264453    -1.193112
6
BHMC Sample 1772
O      4.394137     2.791909    -2.031117
H      3.837971     3.303798    -2.629763
H      4.307942     3.286043    -1.207721
O      2.008434    -3.942062    -1.069050
H      1.316929    -4.613265    -1.020444
H      1.969952    -3.540919    -0.191817
6
BHMC Sample 1773
O      4.394137     2.791909    -2.031117
H      3.837971     3.303798    -2.629763
H      4.307942     3.286043    -1.207721
O      1.944371    -3.934552    -1.076656
H      1.905522    -3.509699    -0.211181
H      2.398175    -4.763686    -0.880358
6
BHMC Sample 1774
O      2.003531    -4.013463    -1.029821
H      1.447365    -3.501574    -1.628467
H      1.917336    -3.519329    -0.206426
O      4.334977     2.870820    -2.077951
H      4.296128     3.295674    -1.212476
H      4.788781     2.041686    -1.881653
6
BHMC Sample 1775
O      4.394137     2.791909    -2.031117
H      3.837971     3.303798    -2.629763
H      4.307942     3.286043    -1.207721
O      1.944371    -3.934552    -1.076656
H      1.905522    -3.509699    -0.211181
H      2.398175    -4.763686    -0.880358
6
BHMC Sample 1776
O      4.394137     2.791909    -2.031117
H      3.837971     3.303798    -2.629763
H      4.307942     3.286043    -1.207721
O      3.135078    -2.340530    -1.156555
H      3.096230    -1.915676    -0.291080
H      3.588883    -3.169664    -0.960257
6
BHMC Sample 1777
O      2.806242     3.624155     3.082065
H      2.859249     3.542216     4.041339
H      2.357793     4.471418     2.979023
O     -0.138318     0.134760    -0.353924
H     -0.177167     0.559614     0.511550
H      0.315486    -0.694374    -0.157626
6
BHMC Sample 1778
O      1.979107     3.055261     1.709841
H      2.032114     2.973321     2.669114
H      1.530658     3.902523     1.606798
O     -0.138318     0.134760    -0.353924
H     -0.177167     0.559614     0.511550
H      0.315486    -0.694374    -0.157626
6
BHMC Sample 1779
O     -3.183656     1.892515     1.821929
H     -4.082423     1.676076     1.547886
H     -3.159768     2.847328     1.690243
O     -0.138318     0.134760    -0.353924
H     -0.177167     0.559614     0.511550
H      0.315486    -0.694374    -0.157626
6
BHMC Sample 1780
O     -0.066148     0.070825    -0.271813
H     -0.964915    -0.145615    -0.545856
H     -0.042260     1.025637    -0.403499
O     -3.255826     1.956451     1.739818
H     -3.294675     2.381304     2.605292
H     -2.802022     1.127317     1.936116
6
BHMC Sample 1781
O      0.291627    -0.246124     0.135243
H     -0.607141    -0.462564    -0.138800
H      0.315514     0.708688     0.003557
O     -0.605524     1.139775    -3.745663
H     -0.032153     1.270482    -4.510657
H     -0.362232     0.252433    -3.453485
6
BHMC Sample 1782
O     -1.063276    -0.311914    -1.869821
H     -1.962044    -0.528354    -2.143864
H     -1.039388     0.642898    -2.001507
O     -0.605524     1.139775    -3.745663
H     -0.032153     1.270482    -4.510657
H     -0.362232     0.252433    -3.453485
6
BHMC Sample 1783
O     -1.077811    -1.343107     1.772259
H     -0.737836    -0.869441     2.540235
H     -1.479010    -0.631135     1.260680
O     -0.272221     0.252212     0.157606
H      0.301150     0.382919    -0.607389
H     -0.028929    -0.635130     0.449783
6
BHMC Sample 1784
O     -0.904650    -2.341162     1.636256
H     -0.564675    -1.867496     2.404232
H     -1.305849    -1.629189     1.124676
O     -0.272221     0.252212     0.157606
H      0.301150     0.382919    -0.607389
H     -0.028929    -0.635130     0.449783
6
BHMC Sample 1785
O      1.518705     2.588458    -0.596515
H      0.718837     3.103957    -0.440946
H      1.428239     1.880072     0.051238
O     -0.272221     0.252212     0.157606
H      0.301150     0.382919    -0.607389
H     -0.028929    -0.635130     0.449783
6
BHMC Sample 1786
O      0.417067    -0.797896     2.924351
H     -0.410631    -0.367946     3.168865
H      0.746491    -0.215570     2.230122
O     -0.272221     0.252212     0.157606
H      0.301150     0.382919    -0.607389
H     -0.028929    -0.635130     0.449783
6
BHMC Sample 1787
O      1.518705     2.588458    -0.596515
H      0.718837     3.103957    -0.440946
H      1.428239     1.880072     0.051238
O     -0.272221     0.252212     0.157606
H      0.301150     0.382919    -0.607389
H     -0.028929    -0.635130     0.449783
6
BHMC Sample 1788
O     -0.905206     1.250382    -2.641885
H     -1.324248     1.976108    -2.164964
H     -1.060206     0.506371    -2.048588
O     -0.272221     0.252212     0.157606
H      0.301150     0.382919    -0.607389
H     -0.028929    -0.635130     0.449783
6
BHMC Sample 1789
O     -0.873376     1.227815    -2.573944
H     -1.686847     0.868467    -2.201300
H     -1.202811     1.972193    -3.090618
O     -0.272221     0.252212     0.157606
H      0.301150     0.382919    -0.607389
H     -0.028929    -0.635130     0.449783
6
BHMC Sample 1790
O      1.474471     2.523901    -0.592759
H      1.352588     2.546332     0.363468
H      1.496585     3.462346    -0.812786
O     -0.272221     0.252212     0.157606
H      0.301150     0.382919    -0.607389
H     -0.028929    -0.635130     0.449783
6
BHMC Sample 1791
O      1.474471     2.523901    -0.592759
H      1.352588     2.546332     0.363468
H      1.496585     3.462346    -0.812786
O      0.361750     0.043078     0.585198
H      0.501980     0.296903    -0.335108
H      0.749534    -0.840373     0.617943
6
BHMC Sample 1792
O      1.474471     2.523901    -0.592759
H      1.352588     2.546332     0.363468
H      1.496585     3.462346    -0.812786
O      0.307866     0.076322     0.604908
H      0.505345     0.297655    -0.313280
H      0.698645    -0.801796     0.695099
6
BHMC Sample 1793
O      1.019439     2.335023    -1.188719
H      0.539180     2.571856    -0.386852
H      0.839030     3.090832    -1.759493
O      0.307866     0.076322     0.604908
H      0.505345     0.297655    -0.313280
H      0.698645    -0.801796     0.695099
6
BHMC Sample 1794
O     -1.278196     1.618515    -2.110496
H     -1.606389     1.928182    -1.258367
H     -1.448057     2.379376    -2.677784
O     -0.196086     0.218928     0.275999
H      0.001393     0.440262    -0.642189
H      0.194693    -0.659190     0.366190
6
BHMC Sample 1795
O     -0.570685    -2.415978     1.595287
H     -0.976620    -1.662999     2.040223
H     -0.495107    -3.054698     2.313550
O     -0.196086     0.218928     0.275999
H      0.001393     0.440262    -0.642189
H      0.194693    -0.659190     0.366190
6
BHMC Sample 1796
O      0.110119    -0.038086    -0.387733
H     -0.295816     0.714893     0.057203
H      0.185697    -0.676807     0.330530
O      2.136142    -2.176742    -0.768790
H      2.532823    -2.531215    -1.573805
H      1.911044    -1.274624    -1.028499
6
BHMC Sample 1797
O      0.110119    -0.038086    -0.387733
H     -0.295816     0.714893     0.057203
H      0.185697    -0.676807     0.330530
O      0.484718     2.596820    -1.707021
H      0.682197     2.818153    -2.625209
H      0.875497     1.718701    -1.616830
6
BHMC Sample 1798
O      1.222998    -1.556863     2.188155
H      0.664997    -0.876718     2.582829
H      1.288028    -2.200636     2.902932
O     -0.196086     0.218928     0.275999
H      0.001393     0.440262    -0.642189
H      0.194693    -0.659190     0.366190
6
BHMC Sample 1799
O     -0.570685    -2.415978     1.595287
H     -0.976620    -1.662999     2.040223
H     -0.495107    -3.054698     2.313550
O     -0.196086     0.218928     0.275999
H      0.001393     0.440262    -0.642189
H      0.194693    -0.659190     0.366190
6
BHMC Sample 1800
O     -0.570685    -2.415978     1.595287
H     -0.976620    -1.662999     2.040223
H     -0.495107    -3.054698     2.313550
O     -0.139135     0.245429     0.228250
H     -1.006416    -0.065274     0.515205
H      0.298583    -0.574276    -0.033322
6
BHMC Sample 1801
O      0.110119    -0.038086    -0.387733
H     -0.295816     0.714893     0.057203
H      0.185697    -0.676807     0.330530
O     -1.342707     1.880569    -2.216988
H     -0.697297     2.166113    -1.558985
H     -0.988013     1.028139    -2.498925
6
BHMC Sample 1802
O      0.110119    -0.038086    -0.387733
H     -0.295816     0.714893     0.057203
H      0.185697    -0.676807     0.330530
O      0.328445     2.827902     1.466128
H      1.051572     2.235484     1.226993
H     -0.337765     2.216117     1.803497
6
BHMC Sample 1803
O      0.110119    -0.038086    -0.387733
H     -0.295816     0.714893     0.057203
H      0.185697    -0.676807     0.330530
O      1.777653    -1.361139     2.289473
H      2.025548    -0.579864     1.780342
H      0.844065    -1.200047     2.474935
6
BHMC Sample 1804
O      0.110119    -0.038086    -0.387733
H     -0.295816     0.714893     0.057203
H      0.185697    -0.676807     0.330530
O      2.120966    -0.626977     2.315668
H      2.379634    -0.583967     1.387068
H      1.579422     0.165749     2.416910
6
BHMC Sample 1805
O      0.796052     1.294066     2.711916
H      1.044954     0.418944     3.031192
H      1.179312     1.299756     1.827236
O      0.094292    -0.278579     0.275786
H      0.352960    -0.235569    -0.652814
H     -0.447252     0.514147     0.377028
6
BHMC Sample 1806
O     -0.210721     0.289811     0.188468
H      0.038181    -0.585312     0.507744
H      0.172539     0.295500    -0.696212
O      2.637367     0.291573    -0.699677
H      3.079459     0.415933    -1.548291
H      2.306097     1.177558    -0.506740
6
BHMC Sample 1807
O     -0.210721     0.289811     0.188468
H      0.038181    -0.585312     0.507744
H      0.172539     0.295500    -0.696212
O      2.462964     0.699831    -1.058262
H      2.923781     0.333366    -1.822727
H      1.780075     1.244440    -1.469357
6
BHMC Sample 1808
O     -0.210721     0.289811     0.188468
H      0.038181    -0.585312     0.507744
H      0.172539     0.295500    -0.696212
O     -0.870996    -0.778825    -2.512104
H     -0.359595    -1.122856    -3.254512
H     -0.658894     0.162723    -2.532921
6
BHMC Sample 1809
O     -3.459771     0.219619    -1.488451
H     -3.797061    -0.678410    -1.390939
H     -2.546333     0.122179    -1.195678
O     -0.870996    -0.778825    -2.512104
H     -0.359595    -1.122856    -3.254512
H     -0.658894     0.162723    -2.532921
6
BHMC Sample 1810
O     -3.459771     0.219619    -1.488451
H     -3.797061    -0.678410    -1.390939
H     -2.546333     0.122179    -1.195678
O     -1.978681    -1.707122    -3.174752
H     -1.774421    -2.025510    -4.062424
H     -1.230168    -1.127760    -2.985010
6
BHMC Sample 1811
O     -2.005056     1.947687    -2.370582
H     -2.342346     1.049658    -2.273069
H     -1.091618     1.850247    -2.077808
O     -1.978681    -1.707122    -3.174752
H     -1.774421    -2.025510    -4.062424
H     -1.230168    -1.127760    -2.985010
6
BHMC Sample 1812
O     -2.005056     1.947687    -2.370582
H     -2.342346     1.049658    -2.273069
H     -1.091618     1.850247    -2.077808
O      1.212510     0.181210    -1.598523
H      2.055078     0.651458    -1.600423
H      0.668316     0.733290    -1.023201
6
BHMC Sample 1813
O     -0.192049     0.331823    -0.130095
H     -0.529339    -0.566206    -0.032583
H      0.721388     0.234383     0.162678
O      0.131606     3.393029    -0.306821
H      0.797421     3.956615     0.105631
H     -0.180472     2.862555     0.436912
6
BHMC Sample 1814
O     -0.192049     0.331823    -0.130095
H     -0.529339    -0.566206    -0.032583
H      0.721388     0.234383     0.162678
O      2.804015    -1.225027     1.503633
H      3.482729    -0.683731     1.924824
H      1.993206    -0.893669     1.909495
6
BHMC Sample 1815
O      2.524703     2.041294    -1.849869
H      3.095824     1.271866    -1.742480
H      1.668170     1.693284    -1.576339
O      0.044032    -0.290885    -0.275684
H      0.722746     0.250411     0.145507
H     -0.766778     0.040474     0.130178
6
BHMC Sample 1816
O      2.517880     2.043756    -1.846210
H      2.060289     1.342945    -2.324964
H      2.811999     1.583127    -1.051922
O      0.044032    -0.290885    -0.275684
H      0.722746     0.250411     0.145507
H     -0.766778     0.040474     0.130178
6
BHMC Sample 1817
O      2.052692     0.862532    -1.289484
H      1.595101     0.161722    -1.768238
H      2.346812     0.401903    -0.495196
O      0.044032    -0.290885    -0.275684
H      0.722746     0.250411     0.145507
H     -0.766778     0.040474     0.130178
6
BHMC Sample 1818
O      2.052692     0.862532    -1.289484
H      1.595101     0.161722    -1.768238
H      2.346812     0.401903    -0.495196
O     -0.979325    -0.995595     0.691250
H     -0.300611    -0.454299     1.112441
H     -1.790135    -0.664236     1.097112
6
BHMC Sample 1819
O      2.052692     0.862532    -1.289484
H      1.595101     0.161722    -1.768238
H      2.346812     0.401903    -0.495196
O     -1.776128     0.912908    -0.005510
H     -1.046746     1.381488     0.418153
H     -2.463091     1.590068    -0.043853
6
BHMC Sample 1820
O      0.054490     0.387146    -0.105178
H     -0.403100    -0.313664    -0.583932
H      0.348610    -0.073482     0.689110
O      2.842558    -1.458113    -2.370722
H      3.034832    -0.835660    -1.658937
H      3.411791    -1.140833    -3.082931
6
BHMC Sample 1821
O      1.868122     2.036201    -1.262720
H      1.410532     1.335391    -1.741473
H      2.162242     1.575572    -0.468432
O      2.842558    -1.458113    -2.370722
H      3.034832    -0.835660    -1.658937
H      3.411791    -1.140833    -3.082931
6
BHMC Sample 1822
O     -3.365475     0.544291     1.110478
H     -2.774995     1.136540     0.630579
H     -2.853248     0.352753     1.904527
O     -0.253836    -0.313244     0.000141
H     -0.061562     0.309209     0.711927
H      0.315398     0.004035    -0.712068
6
BHMC Sample 1823
O     -0.367569    -0.133570    -0.104717
H      0.222911     0.458679    -0.584616
H      0.144658    -0.325109     0.689333
O     -0.615281    -2.211966    -2.171913
H     -1.447117    -1.961696    -1.751829
H     -0.840106    -2.183264    -3.110296
6
BHMC Sample 1824
O     -0.481652    -1.847688     2.381857
H     -0.296617    -2.692325     1.955150
H      0.070459    -1.897879     3.170674
O      0.352220    -0.092990     0.172767
H     -0.479616     0.157279     0.592850
H      0.127395    -0.064289    -0.765617
6
BHMC Sample 1825
O      1.193752    -2.458929    -1.359340
H      0.906186    -3.131147    -0.730723
H      2.135119    -2.651133    -1.439736
O      0.352220    -0.092990     0.172767
H     -0.479616     0.157279     0.592850
H      0.127395    -0.064289    -0.765617
6
BHMC Sample 1826
O      1.786507    -0.148449     2.694639
H      2.671020    -0.265930     2.329177
H      1.708964    -0.912196     3.277954
O      0.352220    -0.092990     0.172767
H     -0.479616     0.157279     0.592850
H      0.127395    -0.064289    -0.765617
6
BHMC Sample 1827
O      1.786507    -0.148449     2.694639
H      2.671020    -0.265930     2.329177
H      1.708964    -0.912196     3.277954
O      0.348538    -0.111982     0.126179
H     -0.468570     0.013840    -0.371374
H      0.174791     0.380587     0.938043
6
BHMC Sample 1828
O      0.323526     1.553016     2.610172
H     -0.618059     1.507519     2.812845
H      0.470221     2.504494     2.557742
O      0.348538    -0.111982     0.126179
H     -0.468570     0.013840    -0.371374
H      0.174791     0.380587     0.938043
6
BHMC Sample 1829
O      0.264964    -0.301994    -0.050081
H     -0.676622    -0.347491     0.152592
H      0.411658     0.649484    -0.102511
O      1.319731    -1.860819     2.273837
H      0.776818    -1.706726     3.056498
H      0.824404    -1.401406     1.584253
6
BHMC Sample 1830
O      0.440953    -1.065190    -2.559906
H      0.976041    -1.789994    -2.216294
H      1.061857    -0.621019    -3.148777
O      0.346080    -0.204502    -0.031025
H     -0.196833    -0.050409     0.751635
H     -0.149247     0.254910    -0.720610
6
BHMC Sample 1831
O      0.411517     1.083712    -2.822574
H      0.946605     0.358907    -2.478962
H      1.032422     1.527882    -3.411445
O      0.346080    -0.204502    -0.031025
H     -0.196833    -0.050409     0.751635
H     -0.149247     0.254910    -0.720610
6
BHMC Sample 1832
O     -0.385331     0.093545     0.081753
H      0.149757    -0.631260     0.425365
H      0.235574     0.537715    -0.507118
O     -0.135228     3.093266    -0.547455
H     -0.632402     3.868901    -0.260638
H     -0.717783     2.367318    -0.291403
6
BHMC Sample 1833
O     -1.328137     0.606335    -1.710184
H     -0.793049    -0.118469    -1.366572
H     -0.707233     1.050505    -2.299055
O     -0.135228     3.093266    -0.547455
H     -0.632402     3.868901    -0.260638
H     -0.717783     2.367318    -0.291403
6
BHMC Sample 1834
O     -0.260324     3.111748    -0.503357
H      0.274764     2.386944    -0.159745
H      0.360581     3.555919    -1.092228
O     -1.203041     0.587852    -1.754282
H     -1.700215     1.363488    -1.467465
H     -1.785596    -0.138096    -1.498229
6
BHMC Sample 1835
O      0.024865     2.632289    -1.482844
H      0.043080     1.958031    -2.171883
H      0.885328     3.053033    -1.593107
O      0.359910    -0.016562    -0.180957
H     -0.137265     0.759073     0.105860
H     -0.222645    -0.742511     0.075096
6
BHMC Sample 1836
O     -1.657153    -2.514794     0.240935
H     -2.294567    -1.792143     0.275687
H     -1.895354    -2.950911    -0.585286
O      0.359910    -0.016562    -0.180957
H     -0.137265     0.759073     0.105860
H     -0.222645    -0.742511     0.075096
6
BHMC Sample 1837
O      0.315534     2.615890    -1.478496
H      0.459377     1.934113    -2.144993
H      1.183460     3.032894    -1.429609
O      0.359910    -0.016562    -0.180957
H     -0.137265     0.759073     0.105860
H     -0.222645    -0.742511     0.075096
6
BHMC Sample 1838
O     -0.337257     0.088258     0.205870
H     -0.193413    -0.593519    -0.460627
H      0.530670     0.505262     0.254757
O     -1.710621     0.849452    -2.274017
H     -1.977896     1.074777    -1.374656
H     -2.558907     0.759585    -2.725978
6
BHMC Sample 1839
O     -0.337257     0.088258     0.205870
H     -0.193413    -0.593519    -0.460627
H      0.530670     0.505262     0.254757
O     -0.292881    -2.544194     1.503409
H     -0.790055    -1.768559     1.790226
H     -0.875436    -3.270143     1.759462
6
BHMC Sample 1840
O     -0.337257     0.088258     0.205870
H     -0.193413    -0.593519    -0.460627
H      0.530670     0.505262     0.254757
O      0.954685    -0.651583     2.735500
H      0.007284    -0.558961     2.577675
H      1.041314    -0.362349     3.652437
6
BHMC Sample 1841
O      0.849910    -0.615402     2.812532
H      0.993753    -1.297179     2.146035
H      1.717836    -0.198398     2.861420
O     -0.232482     0.052077     0.128838
H     -1.179883     0.144698    -0.028987
H     -0.145852     0.341311     1.045775
6
BHMC Sample 1842
O     -0.337257     0.088258     0.205870
H     -0.193413    -0.593519    -0.460627
H      0.530670     0.505262     0.254757
O      0.002102    -2.647509     1.310285
H     -0.715400    -3.105197     1.765003
H     -0.177000    -1.722194     1.519208
6
BHMC Sample 1843
O     -1.885947    -2.150684    -0.482217
H     -1.408107    -1.976307    -1.301357
H     -1.510203    -2.995323    -0.208392
O      0.298868    -0.155876    -0.221214
H     -0.418634    -0.613564     0.233504
H      0.119766     0.769440    -0.012291
6
BHMC Sample 1844
O     -0.284528     0.223421     0.181772
H      0.193312     0.397798    -0.637369
H      0.091216    -0.621218     0.455597
O      1.721195     0.427899     2.362640
H      1.097900     0.911974     1.807455
H      1.478797     0.720457     3.250101
6
BHMC Sample 1845
O     -0.284528     0.223421     0.181772
H      0.193312     0.397798    -0.637369
H      0.091216    -0.621218     0.455597
O      2.195055     1.963481     0.232712
H      1.482844     1.587743     0.764345
H      2.155186     2.899691     0.464783
6
BHMC Sample 1846
O     -0.284528     0.223421     0.181772
H      0.193312     0.397798    -0.637369
H      0.091216    -0.621218     0.455597
O     -1.881843    -0.251560    -2.263418
H     -1.810722    -0.497870    -1.333187
H     -2.799166     0.041580    -2.330665
6
BHMC Sample 1847
O     -0.284528     0.223421     0.181772
H      0.193312     0.397798    -0.637369
H      0.091216    -0.621218     0.455597
O     -0.991275     2.244861    -1.828589
H     -1.019288     2.046853    -0.884627
H     -0.594584     3.124821    -1.844105
6
BHMC Sample 1848
O     -0.284528     0.223421     0.181772
H      0.193312     0.397798    -0.637369
H      0.091216    -0.621218     0.455597
O     -0.194577     2.787388    -1.248348
H     -0.748772     2.231066    -0.687608
H     -0.785390     2.994888    -1.983071
6
BHMC Sample 1849
O     -0.284528     0.223421     0.181772
H      0.193312     0.397798    -0.637369
H      0.091216    -0.621218     0.455597
O     -2.234884    -1.952226    -0.253960
H     -1.895217    -1.139954    -0.648797
H     -3.186139    -1.789406    -0.230801
6
BHMC Sample 1850
O     -0.284528     0.223421     0.181772
H      0.193312     0.397798    -0.637369
H      0.091216    -0.621218     0.455597
O     -2.058576    -0.189726    -2.143981
H     -1.836511    -0.553089    -1.278123
H     -3.013799    -0.066564    -2.078295
6
BHMC Sample 1851
O      1.601243    -2.197323     0.993135
H      2.095728    -1.915596     0.214775
H      2.158104    -1.873907     1.710690
O      0.244386     0.080067    -0.310515
H      0.466451    -0.283296     0.555344
H     -0.710837     0.203229    -0.244829
6
BHMC Sample 1852
O      1.601243    -2.197323     0.993135
H      2.095728    -1.915596     0.214775
H      2.158104    -1.873907     1.710690
O      0.605992     0.918817     0.610219
H      0.828056     0.555455     1.476077
H     -0.349231     1.041980     0.675905
6
BHMC Sample 1853
O      1.692001    -2.110307     1.017542
H      1.390032    -2.230476     0.109741
H      1.423274    -2.940140     1.428325
O      0.605992     0.918817     0.610219
H      0.828056     0.555455     1.476077
H     -0.349231     1.041980     0.675905
6
BHMC Sample 1854
O      1.603845    -2.198282     1.005388
H      1.704150    -1.437095     0.422068
H      2.508370    -2.337173     1.308906
O      0.605992     0.918817     0.610219
H      0.828056     0.555455     1.476077
H     -0.349231     1.041980     0.675905
6
BHMC Sample 1855
O     -1.885150    -1.743102    -2.044921
H     -1.036358    -1.291595    -2.118564
H     -2.410306    -1.290475    -2.714935
O      0.244386     0.080067    -0.310515
H      0.466451    -0.283296     0.555344
H     -0.710837     0.203229    -0.244829
6
BHMC Sample 1856
O     -1.885150    -1.743102    -2.044921
H     -1.036358    -1.291595    -2.118564
H     -2.410306    -1.290475    -2.714935
O      0.764702    -0.150386    -0.882301
H      1.057483    -0.446253    -0.011785
H     -0.133974     0.154964    -0.706016
6
BHMC Sample 1857
O     -1.885150    -1.743102    -2.044921
H     -1.036358    -1.291595    -2.118564
H     -2.410306    -1.290475    -2.714935
O      1.325856    -0.976235    -1.058332
H      1.618637    -1.272101    -0.187815
H      0.427179    -0.670884    -0.882046
6
BHMC Sample 1858
O     -1.885150    -1.743102    -2.044921
H     -1.036358    -1.291595    -2.118564
H     -2.410306    -1.290475    -2.714935
O      0.157502    -3.745796    -0.229088
H      0.413261    -3.476086     0.661361
H      0.229397    -2.920295    -0.724380
6
BHMC Sample 1859
O     -1.885150    -1.743102    -2.044921
H     -1.036358    -1.291595    -2.118564
H     -2.410306    -1.290475    -2.714935
O      0.445696    -3.446593    -0.259159
H      0.763488    -3.080731     0.575233
H      0.419081    -2.668470    -0.829905
6
BHMC Sample 1860
O     -2.782129    -3.128520    -0.914211
H     -1.933338    -2.677013    -0.987854
H     -3.307285    -2.675893    -1.584225
O      0.445696    -3.446593    -0.259159
H      0.763488    -3.080731     0.575233
H      0.419081    -2.668470    -0.829905
6
BHMC Sample 1861
O     -0.107879    -0.301378     0.247886
H      0.740913     0.150129     0.174243
H     -0.633034     0.151249    -0.422128
O     -2.790933    -0.613951    -1.663384
H     -3.616963    -0.247024    -1.325604
H     -2.354546     0.163741    -2.033110
6
BHMC Sample 1862
O     -2.830843    -0.600495    -1.623562
H     -1.982051    -0.148988    -1.697205
H     -3.355999    -0.147868    -2.293576
O     -0.067968    -0.314834     0.208063
H     -0.893999     0.052092     0.545843
H      0.368419     0.462858    -0.161662
6
BHMC Sample 1863
O     -2.751777    -1.250156    -1.248439
H     -1.830700    -1.108824    -1.496172
H     -2.995213    -1.998609    -1.805338
O      0.129881    -0.381539     0.010648
H     -0.696149    -0.014613     0.348428
H      0.566268     0.396152    -0.359077
6
BHMC Sample 1864
O     -2.751777    -1.250156    -1.248439
H     -1.830700    -1.108824    -1.496172
H     -2.995213    -1.998609    -1.805338
O     -0.470012     0.402564     0.356525
H     -1.407860     0.590233     0.484111
H     -0.146181     1.222550    -0.036781
6
BHMC Sample 1865
O     -1.303422     0.322633    -2.795732
H     -0.548044    -0.087788    -2.359055
H     -1.335988    -0.157993    -3.630906
O     -0.470012     0.402564     0.356525
H     -1.407860     0.590233     0.484111
H     -0.146181     1.222550    -0.036781
6
BHMC Sample 1866
O     -0.544813     0.508803     0.363954
H      0.210566     0.098381     0.800631
H     -0.577378     0.028176    -0.471220
O     -1.228622     0.216394    -2.803161
H     -2.166470     0.404064    -2.675575
H     -0.904790     1.036381    -3.196467
6
BHMC Sample 1867
O     -1.303422     0.322633    -2.795732
H     -0.548044    -0.087788    -2.359055
H     -1.335988    -0.157993    -3.630906
O     -0.470012     0.402564     0.356525
H     -1.407860     0.590233     0.484111
H     -0.146181     1.222550    -0.036781
6
BHMC Sample 1868
O     -0.544813     0.508803     0.363954
H      0.210566     0.098381     0.800631
H     -0.577378     0.028176    -0.471220
O     -1.228622     0.216394    -2.803161
H     -2.166470     0.404064    -2.675575
H     -0.904790     1.036381    -3.196467
6
BHMC Sample 1869
O      0.933428     1.469749     2.891254
H      1.112234     1.087111     3.758056
H      1.008703     0.700676     2.314679
O      0.204672    -0.335885     0.088573
H     -0.733176    -0.148216     0.216160
H      0.528504     0.484101    -0.304733
6
BHMC Sample 1870
O     -0.084694     0.383903    -0.096742
H      0.094112     0.001266     0.770060
H     -0.009419    -0.385169    -0.673318
O     -0.368883     0.239225     3.300965
H     -1.321460     0.371863     3.223118
H     -0.025020     1.134050     3.187035
6
BHMC Sample 1871
O     -0.084694     0.383903    -0.096742
H      0.094112     0.001266     0.770060
H     -0.009419    -0.385169    -0.673318
O     -0.188533    -0.421481     2.507609
H     -1.141111    -0.288843     2.429762
H      0.155330     0.473344     2.393679
6
BHMC Sample 1872
O     -0.703397     0.997001     2.296378
H     -0.118527     0.749189     1.570950
H     -0.195218     0.717104     3.066436
O      0.202905    -0.342488     0.063926
H     -0.749672    -0.209850    -0.013921
H      0.546768     0.552338    -0.050005
6
BHMC Sample 1873
O     -0.408751     0.266187    -2.554250
H      0.081630     0.252737    -1.724145
H      0.181930    -0.218342    -3.142389
O      0.202905    -0.342488     0.063926
H     -0.749672    -0.209850    -0.013921
H      0.546768     0.552338    -0.050005
6
BHMC Sample 1874
O     -0.408751     0.266187    -2.554250
H      0.081630     0.252737    -1.724145
H      0.181930    -0.218342    -3.142389
O      1.074998     0.964034     0.842137
H      0.122421     1.096672     0.764290
H      1.418861     1.858860     0.728206
6
BHMC Sample 1875
O      1.394238     0.529383    -3.406466
H      1.201357     0.115001    -2.557459
H      1.505198    -0.236642    -3.981334
O      0.202905    -0.342488     0.063926
H     -0.749672    -0.209850    -0.013921
H      0.546768     0.552338    -0.050005
6
BHMC Sample 1876
O      0.422978    -0.925883     3.576589
H      0.003112    -0.750814     2.726417
H     -0.278998    -0.696441     4.196399
O      0.202905    -0.342488     0.063926
H     -0.749672    -0.209850    -0.013921
H      0.546768     0.552338    -0.050005
6
BHMC Sample 1877
O      0.826764    -1.927403    -3.070788
H      0.312410    -1.517971    -2.365427
H      0.207290    -1.902592    -3.809175
O      0.202905    -0.342488     0.063926
H     -0.749672    -0.209850    -0.013921
H      0.546768     0.552338    -0.050005
6
BHMC Sample 1878
O      0.697853    -1.919568    -3.080462
H      1.444839    -2.107237    -3.660565
H      1.120950    -1.437678    -2.360497
O      0.202905    -0.342488     0.063926
H     -0.749672    -0.209850    -0.013921
H      0.546768     0.552338    -0.050005
6
BHMC Sample 1879
O      3.079515    -0.307327     2.126593
H      3.836482    -0.886374     2.272997
H      2.586336    -0.790538     1.453643
O      0.202905    -0.342488     0.063926
H     -0.749672    -0.209850    -0.013921
H      0.546768     0.552338    -0.050005
6
BHMC Sample 1880
O     -1.309477    -0.389847    -3.198734
H     -1.003382    -0.380550    -4.113037
H     -0.480076    -0.332882    -2.710443
O      0.202905    -0.342488     0.063926
H     -0.749672    -0.209850    -0.013921
H      0.546768     0.552338    -0.050005
6
BHMC Sample 1881
O     -1.309477    -0.389847    -3.198734
H     -1.003382    -0.380550    -4.113037
H     -0.480076    -0.332882    -2.710443
O     -0.005140    -1.836120    -0.179531
H     -0.459324    -2.413493    -0.805162
H     -0.735519    -1.479827     0.341561
6
BHMC Sample 1882
O     -1.065911    -2.853057     1.663652
H     -1.203202    -3.785148     1.458501
H     -0.223049    -2.675806     1.230359
O      0.394854     0.073693     0.034846
H     -0.059330    -0.503679    -0.590785
H     -0.335524     0.429986     0.555939
6
BHMC Sample 1883
O      0.289095     0.103559     0.064720
H      0.151803    -0.828532    -0.140432
H      1.131957     0.280811    -0.368574
O     -0.960152    -2.882923     1.633779
H     -1.414336    -3.460296     1.008148
H     -1.690530    -2.526631     2.154871
6
BHMC Sample 1884
O     -1.065911    -2.853057     1.663652
H     -1.203202    -3.785148     1.458501
H     -0.223049    -2.675806     1.230359
O      0.394854     0.073693     0.034846
H     -0.059330    -0.503679    -0.590785
H     -0.335524     0.429986     0.555939
6
BHMC Sample 1885
O     -1.065911    -2.853057     1.663652
H     -1.203202    -3.785148     1.458501
H     -0.223049    -2.675806     1.230359
O     -0.367747     0.373195     0.125941
H     -0.894678    -0.199698    -0.444316
H     -0.983844     0.577753     0.840444
6
BHMC Sample 1886
O     -1.864921    -1.946031     0.726818
H     -2.002212    -2.878122     0.521666
H     -1.022058    -1.768779     0.293524
O     -0.367747     0.373195     0.125941
H     -0.894678    -0.199698    -0.444316
H     -0.983844     0.577753     0.840444
6
BHMC Sample 1887
O     -0.235190     0.251613     0.212815
H     -0.372482    -0.680478     0.007663
H      0.607672     0.428865    -0.220479
O     -2.388637    -1.559937     0.461971
H     -2.022563    -1.122369    -0.316219
H     -2.532696    -0.821255     1.066561
6
BHMC Sample 1888
O     -0.214821     0.250940     0.126833
H     -0.738032    -0.400072     0.608665
H      0.649914     0.159137     0.543228
O     -2.388637    -1.559937     0.461971
H     -2.022563    -1.122369    -0.316219
H     -2.532696    -0.821255     1.066561
6
BHMC Sample 1889
O     -0.214821     0.250940     0.126833
H     -0.738032    -0.400072     0.608665
H      0.649914     0.159137     0.543228
O     -2.322798    -1.533807     0.439927
H     -3.134701    -1.744145     0.917030
H     -2.465565    -0.614220     0.183194
6
BHMC Sample 1890
O     -0.113841     0.247605    -0.299409
H     -0.637052    -0.403407     0.182423
H      0.750893     0.155802     0.116986
O     -2.475690    -0.827023     0.697466
H     -3.099941    -1.562254     0.669144
H     -2.366755    -0.611488    -0.237206
6
BHMC Sample 1891
O     -0.634817     1.064892    -0.044723
H     -1.158028     0.413879     0.437109
H      0.229917     0.973089     0.371672
O     -2.475690    -0.827023     0.697466
H     -3.099941    -1.562254     0.669144
H     -2.366755    -0.611488    -0.237206
6
BHMC Sample 1892
O     -0.466169    -1.148759     2.637425
H     -0.055973    -0.589563     1.967523
H      0.288223    -1.383627     3.189972
O      0.171772     0.173232     0.320998
H     -0.452479    -0.561999     0.292676
H      0.280707     0.388768    -0.613674
6
BHMC Sample 1893
O     -0.388196    -0.108109     0.039118
H      0.022000     0.451087    -0.630784
H      0.366196    -0.342977     0.591665
O      2.426804     0.358753     0.839008
H      2.028550     1.159179     0.476010
H      3.228249     0.697349     1.257305
6
BHMC Sample 1894
O     -0.261862    -0.344557    -0.177191
H      0.141397     0.266661    -0.804505
H      0.469659    -0.523503     0.424834
O      2.426804     0.358753     0.839008
H      2.028550     1.159179     0.476010
H      3.228249     0.697349     1.257305
6
BHMC Sample 1895
O     -0.378260    -0.144091     0.008430
H      0.025000     0.467127    -0.618885
H      0.353261    -0.323037     0.610455
O      1.848723     1.669768    -0.703325
H      1.804629     1.618284     0.259203
H      2.500842     2.367557    -0.843913
6
BHMC Sample 1896
O      1.819249     1.681744    -0.655920
H      2.222509     2.292961    -1.283235
H      2.550770     1.502797    -0.053895
O     -0.348786    -0.156066    -0.038976
H     -0.392880    -0.207550     0.923553
H      0.303333     0.541723    -0.179564
6
BHMC Sample 1897
O      1.850533     1.655453    -0.625193
H      1.637368     2.072524    -1.468011
H      2.639369     2.140518    -0.356814
O     -0.348786    -0.156066    -0.038976
H     -0.392880    -0.207550     0.923553
H      0.303333     0.541723    -0.179564
6
BHMC Sample 1898
O      1.850533     1.655453    -0.625193
H      1.637368     2.072524    -1.468011
H      2.639369     2.140518    -0.356814
O      0.604732    -0.556112     0.784530
H      0.962865    -0.536467     1.680304
H      0.957230     0.257352     0.402490
6
BHMC Sample 1899
O      1.028920    -0.552606     2.427584
H      0.823697    -1.123304     3.177195
H      1.817962    -0.093132     2.737222
O     -0.236877    -0.277703    -0.171245
H      0.121256    -0.258058     0.724529
H      0.115621     0.535761    -0.553285
6
BHMC Sample 1900
O     -0.194607     0.037075    -0.353083
H     -0.399829    -0.533623     0.396528
H      0.594435     0.496548    -0.043445
O     -0.740095    -0.783393    -3.127690
H     -0.635203    -0.479202    -2.218007
H     -1.561552    -1.288591    -3.083893
6
BHMC Sample 1901
O     -0.191409    -0.004832    -0.343583
H      0.656094    -0.154470     0.091246
H     -0.512240     0.782542     0.111047
O     -0.740095    -0.783393    -3.127690
H     -0.635203    -0.479202    -2.218007
H     -1.561552    -1.288591    -3.083893
6
BHMC Sample 1902
O     -0.175557    -0.212579    -0.296486
H      0.671946    -0.362217     0.138342
H     -0.496389     0.574796     0.158143
O     -1.805987    -2.374430    -1.448252
H     -1.343288    -1.612690    -1.078497
H     -2.003060    -2.081191    -2.346644
6
BHMC Sample 1903
O     -0.175557    -0.212579    -0.296486
H      0.671946    -0.362217     0.138342
H     -0.496389     0.574796     0.158143
O     -0.828915    -2.991190    -1.047717
H     -0.695748    -2.065182    -0.811429
H     -1.109132    -2.931637    -1.969599
6
BHMC Sample 1904
O      0.264313     2.478640     1.114761
H     -0.204127     2.414764     1.955126
H      0.875508     3.205273     1.282166
O      0.049017    -0.328520     0.228531
H      0.182183     0.597488     0.464819
H     -0.231200    -0.268968    -0.693351
6
BHMC Sample 1905
O     -0.047585    -0.220919    -0.335923
H     -0.516025    -0.284795     0.504442
H      0.563610     0.505714    -0.168518
O      1.523231    -1.720126    -2.335157
H      0.966336    -1.299444    -1.668861
H      0.891913    -1.917682    -3.038252
6
BHMC Sample 1906
O     -0.047585    -0.220919    -0.335923
H     -0.516025    -0.284795     0.504442
H      0.563610     0.505714    -0.168518
O     -0.262881    -3.028079    -1.222153
H     -0.129715    -2.102071    -0.985865
H     -0.543098    -2.968527    -2.144035
6
BHMC Sample 1907
O      0.702374     2.450091     0.979763
H      1.549877     2.300453     1.414591
H      0.381543     3.237465     1.434392
O      0.049017    -0.328520     0.228531
H      0.182183     0.597488     0.464819
H     -0.231200    -0.268968    -0.693351
6
BHMC Sample 1908
O     -0.175557    -0.212579    -0.296486
H      0.671946    -0.362217     0.138342
H     -0.496389     0.574796     0.158143
O     -2.834275    -1.563839     0.503311
H     -1.952507    -1.225430     0.305775
H     -3.004240    -2.149023    -0.245425
6
BHMC Sample 1909
O     -0.932383    -1.508791    -2.237683
H     -1.008588    -2.468797    -2.285749
H     -1.848041    -1.243258    -2.094016
O     -0.237267     0.082258     0.315424
H      0.644500     0.420668     0.117888
H     -0.407233    -0.502926    -0.433312
6
BHMC Sample 1910
O      0.330621     0.231491    -0.031867
H      0.254416    -0.728515    -0.079933
H     -0.585037     0.497024     0.111800
O      3.176880     0.717400    -0.351009
H      3.295022     1.222342    -1.164724
H      2.216549     0.636504    -0.294851
6
BHMC Sample 1911
O      0.330621     0.231491    -0.031867
H      0.254416    -0.728515    -0.079933
H     -0.585037     0.497024     0.111800
O      2.667290    -0.888930    -1.408050
H      3.367807    -0.228535    -1.343154
H      1.954663    -0.486141    -0.896330
6
BHMC Sample 1912
O      1.128359    -2.105720     0.720267
H      1.021529    -2.608054    -0.095807
H      0.362141    -2.390788     1.231368
O      2.667290    -0.888930    -1.408050
H      3.367807    -0.228535    -1.343154
H      1.954663    -0.486141    -0.896330
6
BHMC Sample 1913
O      1.128359    -2.105720     0.720267
H      1.021529    -2.608054    -0.095807
H      0.362141    -2.390788     1.231368
O      3.094833    -0.980485    -1.068632
H      3.802980    -0.355532    -0.871104
H      2.320157    -0.540046    -0.697384
6
BHMC Sample 1914
O      1.128359    -2.105720     0.720267
H      1.021529    -2.608054    -0.095807
H      0.362141    -2.390788     1.231368
O      2.729907    -1.537153    -3.426034
H      3.438055    -0.912200    -3.228506
H      1.955231    -1.096714    -3.054786
6
BHMC Sample 1915
O      1.120528    -2.104447     0.732887
H      1.230433    -2.564077    -0.107583
H      0.277538    -2.454981     1.042843
O      2.729907    -1.537153    -3.426034
H      3.438055    -0.912200    -3.228506
H      1.955231    -1.096714    -3.054786
6
BHMC Sample 1916
O     -2.748175     2.407399    -2.403666
H     -2.476405     1.483517    -2.355597
H     -3.685875     2.328505    -2.613605
O      0.022176    -0.355131    -0.189592
H      0.730323     0.269822     0.007936
H     -0.752500     0.085308     0.181656
6
BHMC Sample 1917
O      0.221976     0.334259     0.053957
H      0.493747    -0.589624     0.102025
H     -0.715723     0.255364    -0.155982
O     -3.754025     2.283588     0.828861
H     -3.455186     3.194414     0.939073
H     -3.220299     1.810199     1.479224
6
BHMC Sample 1918
O      0.221976     0.334259     0.053957
H      0.493747    -0.589624     0.102025
H     -0.715723     0.255364    -0.155982
O     -3.766578     2.115805     1.122100
H     -3.490722     3.030618     1.256554
H     -3.184129     1.633371     1.722054
6
BHMC Sample 1919
O      1.542608     0.419219     0.662279
H      1.814379    -0.504664     0.710347
H      0.604909     0.340324     0.452340
O     -3.766578     2.115805     1.122100
H     -3.490722     3.030618     1.256554
H     -3.184129     1.633371     1.722054
6
BHMC Sample 1920
O      1.438737     0.369315     0.665186
H      2.136377     0.065005     1.257151
H      1.931560     0.562721    -0.140605
O     -3.766578     2.115805     1.122100
H     -3.490722     3.030618     1.256554
H     -3.184129     1.633371     1.722054
6
BHMC Sample 1921
O      0.115068    -0.488221     2.659886
H      0.812708    -0.792531     3.251851
H      0.607892    -0.294815     1.854096
O     -3.766578     2.115805     1.122100
H     -3.490722     3.030618     1.256554
H     -3.184129     1.633371     1.722054
6
BHMC Sample 1922
O     -0.396821     0.036968     0.071275
H      0.300819    -0.267342     0.663240
H      0.096002     0.230374    -0.734515
O     -4.682306     0.003067    -2.346654
H     -4.676783    -0.847965    -2.801373
H     -4.047757    -0.139043    -1.633150
6
BHMC Sample 1923
O     -0.140260     0.280440    -0.480877
H      0.638421     0.021705     0.025522
H      0.239654     0.473237    -1.345789
O     -4.682306     0.003067    -2.346654
H     -4.676783    -0.847965    -2.801373
H     -4.047757    -0.139043    -1.633150
6
BHMC Sample 1924
O      0.101105     1.718009    -0.909538
H      0.879787     1.459274    -0.403138
H      0.481020     1.910806    -1.774450
O     -4.682306     0.003067    -2.346654
H     -4.676783    -0.847965    -2.801373
H     -4.047757    -0.139043    -1.633150
6
BHMC Sample 1925
O     -0.687525     3.463554     0.175474
H      0.091157     3.204819     0.681873
H     -0.307610     3.656351    -0.689438
O     -4.682306     0.003067    -2.346654
H     -4.676783    -0.847965    -2.801373
H     -4.047757    -0.139043    -1.633150
6
BHMC Sample 1926
O     -0.687525     3.463554     0.175474
H      0.091157     3.204819     0.681873
H     -0.307610     3.656351    -0.689438
O     -2.500242    -1.184984    -2.941428
H     -2.201244    -2.093281    -3.070476
H     -2.337756    -1.045035    -2.000180
6
BHMC Sample 1927
O     -0.687525     3.463554     0.175474
H      0.091157     3.204819     0.681873
H     -0.307610     3.656351    -0.689438
O     -3.013717    -0.269846    -1.578580
H     -2.714719    -1.178142    -1.707628
H     -2.851231    -0.129897    -0.637332
6
BHMC Sample 1928
O     -0.687525     3.463554     0.175474
H      0.091157     3.204819     0.681873
H     -0.307610     3.656351    -0.689438
O     -4.329375    -1.154891     0.640560
H     -4.030378    -2.063188     0.511512
H     -4.166889    -1.014942     1.581808
6
BHMC Sample 1929
O     -0.687525     3.463554     0.175474
H      0.091157     3.204819     0.681873
H     -0.307610     3.656351    -0.689438
O     -4.252725    -1.234620     0.660566
H     -4.522430    -0.336598     0.432810
H     -4.891431    -1.476082     1.342977
6
BHMC Sample 1930
O     -2.535184     2.978303    -0.147564
H     -1.756502     2.719569     0.358835
H     -2.155269     3.171101    -1.012476
O     -4.252725    -1.234620     0.660566
H     -4.522430    -0.336598     0.432810
H     -4.891431    -1.476082     1.342977
6
BHMC Sample 1931
O     -1.783144     2.171993     2.571204
H     -1.503454     1.546165     3.249320
H     -0.942247     2.419810     2.169885
O     -4.252725    -1.234620     0.660566
H     -4.522430    -0.336598     0.432810
H     -4.891431    -1.476082     1.342977
6
BHMC Sample 1932
O     -1.021487    -0.626837    -2.502167
H     -0.992996    -1.585132    -2.605071
H     -1.264034    -0.338355    -3.389595
O     -4.252725    -1.234620     0.660566
H     -4.522430    -0.336598     0.432810
H     -4.891431    -1.476082     1.342977
6
BHMC Sample 1933
O     -4.291576    -1.160405     0.741418
H     -4.263086    -2.118699     0.638514
H     -4.534124    -0.871923    -0.146009
O     -0.982636    -0.701052    -2.583019
H     -1.252341     0.196969    -2.810775
H     -1.621342    -0.942515    -1.900609
6
BHMC Sample 1934
O     -1.021487    -0.626837    -2.502167
H     -0.992996    -1.585132    -2.605071
H     -1.264034    -0.338355    -3.389595
O     -4.252725    -1.234620     0.660566
H     -4.522430    -0.336598     0.432810
H     -4.891431    -1.476082     1.342977
6
BHMC Sample 1935
O     -0.991448    -0.717533    -2.552976
H     -1.794709    -0.532820    -2.052593
H     -0.939098     0.048853    -3.135634
O     -4.252725    -1.234620     0.660566
H     -4.522430    -0.336598     0.432810
H     -4.891431    -1.476082     1.342977
6
BHMC Sample 1936
O     -0.399434    -0.178207    -3.235568
H     -1.202694     0.006506    -2.735185
H     -0.347084     0.588179    -3.818226
O     -4.252725    -1.234620     0.660566
H     -4.522430    -0.336598     0.432810
H     -4.891431    -1.476082     1.342977
6
BHMC Sample 1937
O      0.205524    -1.881665    -3.084345
H     -0.597736    -1.696952    -2.583963
H      0.257874    -1.115279    -3.667004
O     -4.252725    -1.234620     0.660566
H     -4.522430    -0.336598     0.432810
H     -4.891431    -1.476082     1.342977
6
BHMC Sample 1938
O      0.186273    -1.782845    -3.133902
H     -0.141200    -1.641443    -2.238080
H      0.106885    -2.739262    -3.226331
O     -4.252725    -1.234620     0.660566
H     -4.522430    -0.336598     0.432810
H     -4.891431    -1.476082     1.342977
6
BHMC Sample 1939
O      0.186273    -1.782845    -3.133902
H     -0.141200    -1.641443    -2.238080
H      0.106885    -2.739262    -3.226331
O     -4.296803    -1.166460     0.626446
H     -4.663574    -0.825836     1.451377
H     -4.050672    -2.068670     0.865969
6
BHMC Sample 1940
O      0.186273    -1.782845    -3.133902
H     -0.141200    -1.641443    -2.238080
H      0.106885    -2.739262    -3.226331
O      2.144745     3.028000    -0.514773
H      2.020461     3.778368     0.078993
H      1.928205     3.406960    -1.375839
6
BHMC Sample 1941
O      1.910888    -3.276147    -3.610799
H      1.583415    -3.134745    -2.714977
H      1.831500    -4.232564    -3.703228
O      2.144745     3.028000    -0.514773
H      2.020461     3.778368     0.078993
H      1.928205     3.406960    -1.375839
6
BHMC Sample 1942
O      1.910888    -3.276147    -3.610799
H      1.583415    -3.134745    -2.714977
H      1.831500    -4.232564    -3.703228
O      1.877587     3.302406    -1.154483
H      1.618355     4.192252    -0.886102
H      2.633429     3.471626    -1.730679
6
BHMC Sample 1943
O      1.944259    -3.322178    -3.527542
H      1.617776    -3.996792    -4.134201
H      1.267483    -2.639915    -3.605456
O      1.877587     3.302406    -1.154483
H      1.618355     4.192252    -0.886102
H      2.633429     3.471626    -1.730679
6
BHMC Sample 1944
O      1.944259    -3.322178    -3.527542
H      1.617776    -3.996792    -4.134201
H      1.267483    -2.639915    -3.605456
O      0.079388     1.703010     1.035728
H     -0.398100     2.377967     1.533217
H      0.896065     2.159616     0.798066
6
BHMC Sample 1945
O      3.779078    -1.271731     3.943246
H      3.063040    -1.112540     4.569087
H      4.336073    -1.889492     4.430797
O      2.763648    -0.834607    -2.211580
H      2.915002    -0.525216    -3.112927
H      2.842501    -0.021431    -1.697323
6
BHMC Sample 1946
O      3.779078    -1.271731     3.943246
H      3.063040    -1.112540     4.569087
H      4.336073    -1.889492     4.430797
O      2.726280    -0.800537    -2.268301
H      2.923313    -0.870898    -1.326344
H      3.427296    -0.216519    -2.583634
6
BHMC Sample 1947
O     -3.000384    -1.801671    -0.003745
H     -3.395329    -1.192225     0.630543
H     -3.778316    -2.160908    -0.445730
O      2.726280    -0.800537    -2.268301
H      2.923313    -0.870898    -1.326344
H      3.427296    -0.216519    -2.583634
6
BHMC Sample 1948
O     -3.082915    -1.727311    -0.019242
H     -2.936654    -2.566605    -0.470819
H     -2.927054    -1.966786     0.901593
O      2.726280    -0.800537    -2.268301
H      2.923313    -0.870898    -1.326344
H      3.427296    -0.216519    -2.583634
6
BHMC Sample 1949
O     -1.240188    -3.728678    -0.758446
H     -1.093927    -4.567972    -1.210023
H     -1.084327    -3.968154     0.162389
O      2.726280    -0.800537    -2.268301
H      2.923313    -0.870898    -1.326344
H      3.427296    -0.216519    -2.583634
6
BHMC Sample 1950
O      2.759624    -0.711435    -2.259496
H      2.905885    -1.550729    -2.711073
H      2.915485    -0.950911    -1.338661
O     -1.273532    -3.817780    -0.767251
H     -1.076499    -3.888142     0.174706
H     -0.572516    -3.233763    -1.082584
6
BHMC Sample 1951
O      2.759624    -0.711435    -2.259496
H      2.905885    -1.550729    -2.711073
H      2.915485    -0.950911    -1.338661
O     -1.597483    -3.202717    -0.563276
H     -2.078482    -2.435789    -0.229334
H     -0.792466    -2.804483    -0.917242
6
BHMC Sample 1952
O     -1.596258    -3.077161    -0.590653
H     -1.449997    -3.916455    -1.042231
H     -1.440396    -3.316637     0.330182
O      2.758399    -0.836991    -2.232119
H      2.277400    -0.070062    -1.898177
H      3.563416    -0.438756    -2.586085
6
BHMC Sample 1953
O     -0.646595    -1.346378     1.634604
H     -0.500333    -2.185672     1.183027
H     -0.490733    -1.585854     2.555439
O      2.758399    -0.836991    -2.232119
H      2.277400    -0.070062    -1.898177
H      3.563416    -0.438756    -2.586085
6
BHMC Sample 1954
O     -2.509077     2.707874     3.810817
H     -1.954282     3.335856     3.333773
H     -2.243653     2.861898     4.724822
O     -0.108006    -0.388388     0.006675
H     -0.589005     0.378541     0.340617
H      0.697011     0.009847    -0.347291
6
BHMC Sample 1955
O     -4.082388     3.601182     2.627491
H     -3.527593     4.229163     2.150447
H     -3.816964     3.755205     3.541497
O     -0.108006    -0.388388     0.006675
H     -0.589005     0.378541     0.340617
H      0.697011     0.009847    -0.347291
6
BHMC Sample 1956
O      3.601726    -3.480482    -3.384069
H      3.124108    -4.129031    -2.853980
H      3.196364    -3.594732    -4.251369
O     -0.108006    -0.388388     0.006675
H     -0.589005     0.378541     0.340617
H      0.697011     0.009847    -0.347291
6
BHMC Sample 1957
O      3.601726    -3.480482    -3.384069
H      3.124108    -4.129031    -2.853980
H      3.196364    -3.594732    -4.251369
O     -1.137518    -1.002908     2.232281
H     -1.618517    -0.235980     2.566224
H     -0.332502    -0.604674     1.878316
6
BHMC Sample 1958
O      2.324572    -3.849178    -2.243638
H      1.846954    -4.497727    -1.713549
H      1.919211    -3.963428    -3.110938
O     -1.137518    -1.002908     2.232281
H     -1.618517    -0.235980     2.566224
H     -0.332502    -0.604674     1.878316
6
BHMC Sample 1959
O      2.324572    -3.849178    -2.243638
H      1.846954    -4.497727    -1.713549
H      1.919211    -3.963428    -3.110938
O     -1.106403    -0.903410     2.174284
H     -0.530749    -1.054463     2.933798
H     -1.914134    -1.365429     2.431271
6
BHMC Sample 1960
O     -1.069983    -0.895032     2.250029
H     -1.547601    -1.543581     2.780118
H     -1.475344    -1.009282     1.382730
O      2.288152    -3.857556    -2.319383
H      2.863806    -4.008609    -1.559869
H      1.480421    -4.319576    -2.062396
6
BHMC Sample 1961
O     -1.069983    -0.895032     2.250029
H     -1.547601    -1.543581     2.780118
H     -1.475344    -1.009282     1.382730
O      2.325676    -3.936417    -2.269121
H      1.577037    -3.779695    -2.857368
H      2.171613    -3.296806    -1.562654
6
BHMC Sample 1962
O     -1.152929    -0.886249     2.260231
H     -0.280505    -0.887767     1.849617
H     -1.425916    -1.804504     2.151310
O      2.325676    -3.936417    -2.269121
H      1.577037    -3.779695    -2.857368
H      2.171613    -3.296806    -1.562654
6
BHMC Sample 1963
O      0.336026    -0.028092     4.442071
H      1.208450    -0.029610     4.031457
H      0.063039    -0.946347     4.333150
O      2.325676    -3.936417    -2.269121
H      1.577037    -3.779695    -2.857368
H      2.171613    -3.296806    -1.562654
6
BHMC Sample 1964
O      0.336026    -0.028092     4.442071
H      1.208450    -0.029610     4.031457
H      0.063039    -0.946347     4.333150
O      2.219844    -3.807447    -2.371673
H      1.593594    -3.450399    -3.013065
H      2.124366    -3.199273    -1.628072
6
BHMC Sample 1965
O     -1.323207     0.323308     3.690839
H     -0.450784     0.321789     3.280225
H     -1.596194    -0.594948     3.581919
O      2.219844    -3.807447    -2.371673
H      1.593594    -3.450399    -3.013065
H      2.124366    -3.199273    -1.628072
6
BHMC Sample 1966
O     -2.057700    -1.004139     3.963431
H     -1.224650    -0.765327     3.540672
H     -2.095380    -1.954680     3.806487
O      2.219844    -3.807447    -2.371673
H      1.593594    -3.450399    -3.013065
H      2.124366    -3.199273    -1.628072
6
BHMC Sample 1967
O     -2.057700    -1.004139     3.963431
H     -1.224650    -0.765327     3.540672
H     -2.095380    -1.954680     3.806487
O      2.192362    -3.787876    -2.398564
H      1.563645    -3.428325    -3.036133
H      2.100264    -3.182210    -1.652494
6
BHMC Sample 1968
O     -2.057700    -1.004139     3.963431
H     -1.224650    -0.765327     3.540672
H     -2.095380    -1.954680     3.806487
O      2.173639    -3.672019    -2.375525
H      2.691694    -4.441467    -2.641278
H      1.269386    -4.007957    -2.413030
6
BHMC Sample 1969
O     -2.057700    -1.004139     3.963431
H     -1.224650    -0.765327     3.540672
H     -2.095380    -1.954680     3.806487
O      2.194599    -3.786144    -2.386533
H      1.883446    -3.348419    -3.188180
H      1.744963    -3.289606    -1.691399
6
BHMC Sample 1970
O     -2.057700    -1.004139     3.963431
H     -1.224650    -0.765327     3.540672
H     -2.095380    -1.954680     3.806487
O      2.427727    -4.750359    -1.747851
H      2.116573    -4.312634    -2.549497
H      1.978090    -4.253821    -1.052716
6
BHMC Sample 1971
O     -0.006717    -1.332755     4.538728
H      0.826333    -1.093942     4.115968
H     -0.044398    -2.283295     4.381784
O      2.427727    -4.750359    -1.747851
H      2.116573    -4.312634    -2.549497
H      1.978090    -4.253821    -1.052716
6
BHMC Sample 1972
O     -0.985905    -0.936508     1.891445
H     -0.152855    -0.697696     1.468686
H     -1.023586    -1.887049     1.734501
O      2.427727    -4.750359    -1.747851
H      2.116573    -4.312634    -2.549497
H      1.978090    -4.253821    -1.052716
6
BHMC Sample 1973
O     -0.265123     0.237243     0.193235
H      0.567927     0.476055    -0.229525
H     -0.302804    -0.713298     0.036290
O      3.987393    -3.856673    -1.951240
H      4.556060    -3.712681    -1.185120
H      3.246966    -3.263054    -1.774270
6
BHMC Sample 1974
O     -1.133733    -0.542496    -3.299151
H     -0.785554    -1.275820    -3.819474
H     -0.602888    -0.598276    -2.496237
O      3.987393    -3.856673    -1.951240
H      4.556060    -3.712681    -1.185120
H      3.246966    -3.263054    -1.774270
6
BHMC Sample 1975
O     -1.133733    -0.542496    -3.299151
H     -0.785554    -1.275820    -3.819474
H     -0.602888    -0.598276    -2.496237
O      2.262939     1.056072     1.644939
H      2.136468     1.863019     2.158650
H      1.505555     1.070477     1.046528
6
BHMC Sample 1976
O      2.164300     1.146183     1.624388
H      2.512480     0.412859     1.104065
H      2.695145     1.090403     2.427302
O     -1.035094    -0.632607    -3.278600
H     -1.161566     0.174339    -2.764889
H     -1.792479    -0.618202    -3.877011
6
BHMC Sample 1977
O      1.966595     0.779051    -0.604297
H      2.314774     0.045728    -1.124621
H      2.497440     0.723272     0.198617
O     -1.035094    -0.632607    -3.278600
H     -1.161566     0.174339    -2.764889
H     -1.792479    -0.618202    -3.877011
6
BHMC Sample 1978
O     -0.683779     1.813875     0.242104
H      0.138559     1.331104     0.099203
H     -0.672038     1.949120     1.196645
O     -1.035094    -0.632607    -3.278600
H     -1.161566     0.174339    -2.764889
H     -1.792479    -0.618202    -3.877011
6
BHMC Sample 1979
O     -1.131218    -0.567204    -3.328753
H     -0.308880    -1.049975    -3.471654
H     -1.119477    -0.431959    -2.374212
O     -0.587655     1.748472     0.292257
H     -0.714127     2.555419     0.805968
H     -1.345040     1.762877    -0.306154
6
BHMC Sample 1980
O     -0.683779     1.813875     0.242104
H      0.138559     1.331104     0.099203
H     -0.672038     1.949120     1.196645
O     -1.035094    -0.632607    -3.278600
H     -1.161566     0.174339    -2.764889
H     -1.792479    -0.618202    -3.877011
6
BHMC Sample 1981
O     -0.683779     1.813875     0.242104
H      0.138559     1.331104     0.099203
H     -0.672038     1.949120     1.196645
O      0.678567     1.409408    -3.821843
H      0.008822     1.525686    -3.137023
H      0.183443     0.967857    -4.523141
6
BHMC Sample 1982
O      0.566719     1.410653    -3.868179
H      1.389057     0.927883    -4.011080
H      0.578461     1.545899    -2.913638
O     -0.571932     1.812630     0.288440
H     -1.241676     1.928908     0.973259
H     -1.067056     1.371079    -0.412859
6
BHMC Sample 1983
O      3.048786     3.334186    -1.418244
H      3.128795     4.295080    -1.415100
H      2.121022     3.210821    -1.186701
O     -0.571932     1.812630     0.288440
H     -1.241676     1.928908     0.973259
H     -1.067056     1.371079    -0.412859
6
BHMC Sample 1984
O      2.879809     3.856790    -1.210566
H      2.776963     4.809015    -1.322010
H      1.969998     3.574192    -1.062375
O     -0.571932     1.812630     0.288440
H     -1.241676     1.928908     0.973259
H     -1.067056     1.371079    -0.412859
6
BHMC Sample 1985
O      0.993045     2.054509    -3.730101
H      0.615276     1.433765    -4.363896
H      0.651557     1.717730    -2.893713
O     -0.571932     1.812630     0.288440
H     -1.241676     1.928908     0.973259
H     -1.067056     1.371079    -0.412859
6
BHMC Sample 1986
O     -2.100713     3.797589    -3.277804
H     -2.279269     4.739174    -3.171672
H     -1.977166     3.514127    -2.364588
O     -0.571932     1.812630     0.288440
H     -1.241676     1.928908     0.973259
H     -1.067056     1.371079    -0.412859
6
BHMC Sample 1987
O      0.805218    -0.882326     3.389287
H      1.126914    -1.734961     3.074240
H      0.370713    -0.530750     2.603680
O     -0.571932     1.812630     0.288440
H     -1.241676     1.928908     0.973259
H     -1.067056     1.371079    -0.412859
6
BHMC Sample 1988
O      0.805218    -0.882326     3.389287
H      1.126914    -1.734961     3.074240
H      0.370713    -0.530750     2.603680
O     -0.681565     1.785064     0.237354
H      0.201554     2.171852     0.197955
H     -0.770187     1.565666     1.173274
6
BHMC Sample 1989
O      0.805218    -0.882326     3.389287
H      1.126914    -1.734961     3.074240
H      0.370713    -0.530750     2.603680
O      0.965401     2.307232    -0.322830
H      1.848520     2.694021    -0.362229
H      0.876779     2.087834     0.613089
6
BHMC Sample 1990
O      0.805218    -0.882326     3.389287
H      1.126914    -1.734961     3.074240
H      0.370713    -0.530750     2.603680
O     -1.012777     1.769765    -0.311219
H     -0.383565     1.774755    -1.042740
H     -0.437848     1.656295     0.455929
6
BHMC Sample 1991
O     -2.521368     1.958681     4.297661
H     -2.956715     1.133958     4.542679
H     -2.390110     1.840652     3.349811
O     -1.012777     1.769765    -0.311219
H     -0.383565     1.774755    -1.042740
H     -0.437848     1.656295     0.455929
6
BHMC Sample 1992
O      0.101363     0.314251     0.234277
H     -0.333984    -0.510472     0.479295
H      0.232621     0.196221    -0.713572
O     -1.531442    -3.792199     2.240249
H     -1.524852    -4.563660     2.819784
H     -0.618286    -3.483878     2.295191
6
BHMC Sample 1993
O     -2.052026    -1.017472    -0.467899
H     -2.487373    -1.842195    -0.222881
H     -1.920768    -1.135501    -1.415749
O     -1.531442    -3.792199     2.240249
H     -1.524852    -4.563660     2.819784
H     -0.618286    -3.483878     2.295191
6
BHMC Sample 1994
O      0.101363     0.314251     0.234277
H     -0.333984    -0.510472     0.479295
H      0.232621     0.196221    -0.713572
O     -3.532796     1.550604    -0.462180
H     -4.284623     2.154562    -0.494515
H     -3.924158     0.752427    -0.085771
6
BHMC Sample 1995
O      0.101363     0.314251     0.234277
H     -0.333984    -0.510472     0.479295
H      0.232621     0.196221    -0.713572
O     -3.601987     1.586060    -0.393866
H     -2.972909     1.547851    -1.124521
H     -4.137661     0.796365    -0.540046
6
BHMC Sample 1996
O      0.101363     0.314251     0.234277
H     -0.333984    -0.510472     0.479295
H      0.232621     0.196221    -0.713572
O     -4.307354     2.579624    -1.206169
H     -3.678276     2.541415    -1.936824
H     -4.843027     1.789928    -1.352350
6
BHMC Sample 1997
O      0.101363     0.314251     0.234277
H     -0.333984    -0.510472     0.479295
H      0.232621     0.196221    -0.713572
O     -3.872886     2.179775     0.223144
H     -3.243808     2.141566    -0.507511
H     -4.408559     1.390079     0.076963
6
BHMC Sample 1998
O      3.762782     0.015002     2.002035
H      3.273023    -0.325579     2.759577
H      3.774325     0.962167     2.181825
O     -0.031135     0.275968     0.292279
H      0.597943     0.237759    -0.438377
H     -0.566808    -0.513728     0.146098
6
BHMC Sample 1999
O     -3.664828    -2.175659     0.049370
H     -3.816156    -1.788198    -0.820517
H     -3.275717    -3.028184    -0.177283
O     -0.031135     0.275968     0.292279
H      0.597943     0.237759    -0.438377
H     -0.566808    -0.513728     0.146098
6
BHMC Sample 2000
O     -3.664828    -2.175659     0.049370
H     -3.816156    -1.788198    -0.820517
H     -3.275717    -3.028184    -0.177283
O     -0.006463    -3.413397    -2.152969
H      0.826417    -3.385330    -1.666576
H     -0.584524    -2.867117    -1.605834
6
BHMC Sample 2001
O     -0.079261     0.155021     0.365513
H     -0.230589     0.542483    -0.504373
H      0.309850    -0.697504     0.138860
O     -3.290063     0.399498     2.524297
H     -4.180441     0.491994     2.164119
H     -2.796453     0.053179     1.770410
6
BHMC Sample 2002
O     -0.079261     0.155021     0.365513
H     -0.230589     0.542483    -0.504373
H      0.309850    -0.697504     0.138860
O     -2.103824    -1.876098    -3.067633
H     -3.031853    -1.667253    -3.229504
H     -1.967351    -1.535293    -2.174794
6
BHMC Sample 2003
O      1.555128    -4.310040    -3.011989
H      1.400433    -3.529402    -2.467560
H      1.321168    -3.989577    -3.890707
O     -2.103824    -1.876098    -3.067633
H     -3.031853    -1.667253    -3.229504
H     -1.967351    -1.535293    -2.174794
6
BHMC Sample 2004
O      0.129552    -0.367034     0.111429
H     -0.025143     0.413604     0.655859
H     -0.104409    -0.046571    -0.767288
O      1.899635     1.659704    -3.220040
H      2.585870     1.826964    -3.877429
H      1.551832     2.544744    -3.053690
6
BHMC Sample 2005
O      1.011290    -1.824181    -0.299492
H      0.856595    -1.043543     0.244937
H      0.777329    -1.503718    -1.178209
O      1.899635     1.659704    -3.220040
H      2.585870     1.826964    -3.877429
H      1.551832     2.544744    -3.053690
6
BHMC Sample 2006
O      1.940318     1.656973    -3.228810
H      1.785623     2.437611    -2.684381
H      1.706357     1.977436    -4.107528
O      0.970607    -1.821450    -0.290721
H      1.656842    -1.654190    -0.948111
H      0.622804    -0.936410    -0.124371
6
BHMC Sample 2007
O      0.005203     3.717758    -2.095736
H      0.918482     3.758446    -2.402320
H     -0.459688     4.198221    -2.790438
O     -0.112811    -0.350767     0.163680
H      0.573425    -0.183507    -0.493710
H     -0.460614     0.534273     0.330030
6
BHMC Sample 2008
O      0.063542     3.781296    -2.103479
H      0.401069     3.123525    -2.722464
H     -0.868233     3.824657    -2.347394
O     -0.112811    -0.350767     0.163680
H      0.573425    -0.183507    -0.493710
H     -0.460614     0.534273     0.330030
6
BHMC Sample 2009
O      1.281006     3.282942     0.064392
H      1.618533     2.625170    -0.554592
H      0.349231     3.326303    -0.179522
O     -0.112811    -0.350767     0.163680
H      0.573425    -0.183507    -0.493710
H     -0.460614     0.534273     0.330030
6
BHMC Sample 2010
O      1.281006     3.282942     0.064392
H      1.618533     2.625170    -0.554592
H      0.349231     3.326303    -0.179522
O     -0.964570     0.757029     1.279840
H     -0.278335     0.924290     0.622450
H     -1.312373     1.642069     1.446189
6
BHMC Sample 2011
O      1.260206     3.311227     0.039281
H      0.656849     3.030408    -0.658451
H      1.641051     2.472123     0.322903
O     -0.964570     0.757029     1.279840
H     -0.278335     0.924290     0.622450
H     -1.312373     1.642069     1.446189
6
BHMC Sample 2012
O      1.260206     3.311227     0.039281
H      0.656849     3.030408    -0.658451
H      1.641051     2.472123     0.322903
O     -1.105458     1.681973     2.185747
H     -0.989073     2.409267     1.562406
H     -0.201578     1.515425     2.481038
6
BHMC Sample 2013
O      1.240320     3.252413    -0.051332
H      1.413120     2.478665     0.497470
H      1.200405     3.957360     0.605200
O     -1.105458     1.681973     2.185747
H     -0.989073     2.409267     1.562406
H     -0.201578     1.515425     2.481038
6
BHMC Sample 2014
O      1.198188     4.398107     2.691417
H      0.706873     3.926245     3.373828
H      0.499629     4.896061     2.251377
O     -1.105458     1.681973     2.185747
H     -0.989073     2.409267     1.562406
H     -0.201578     1.515425     2.481038
6
BHMC Sample 2015
O      1.226141     4.367528     1.609285
H      0.826692     4.128999     2.453840
H      0.474791     4.736300     1.130684
O     -1.105458     1.681973     2.185747
H     -0.989073     2.409267     1.562406
H     -0.201578     1.515425     2.481038
6
BHMC Sample 2016
O      2.247964     1.116853    -2.031454
H      1.975402     0.194649    -1.960898
H      1.491227     1.514650    -2.477195
O     -0.340088    -0.186915     0.109350
H     -0.223703     0.540379    -0.513991
H      0.563792    -0.353464     0.404641
6
BHMC Sample 2017
O      0.343100     0.174803     0.125062
H      0.070538    -0.747402     0.195618
H     -0.413637     0.572599    -0.320680
O      0.212235     1.254796     3.135118
H      0.129804     1.559085     2.223159
H     -0.290982     0.431020     3.125046
6
BHMC Sample 2018
O     -1.968249     0.486476    -2.030434
H     -2.607638    -0.212961    -1.852391
H     -1.531983     0.159782    -2.825746
O      0.195216     0.173162     0.307344
H      0.112785     0.477451    -0.604615
H     -0.308001    -0.650613     0.297271
6
BHMC Sample 2019
O      0.067707     0.342044     0.205756
H     -0.571681    -0.357393     0.383799
H      0.503974     0.015350    -0.589556
O      2.293925     0.050465     2.486742
H      1.336514     0.051686     2.366662
H      2.594643    -0.494851     1.749088
6
BHMC Sample 2020
O      0.067707     0.342044     0.205756
H     -0.571681    -0.357393     0.383799
H      0.503974     0.015350    -0.589556
O      2.320425    -0.728789     2.352236
H      2.245327    -0.265069     1.509396
H      1.695766    -1.456901     2.244589
6
BHMC Sample 2021
O      1.242713    -3.532514     1.032721
H      0.540259    -3.133504     0.506338
H      0.761671    -3.831214     1.813077
O      2.320425    -0.728789     2.352236
H      2.245327    -0.265069     1.509396
H      1.695766    -1.456901     2.244589
6
BHMC Sample 2022
O      1.158123    -3.461826     1.040120
H      1.505526    -3.916824     1.816018
H      1.139020    -4.169851     0.385968
O      2.320425    -0.728789     2.352236
H      2.245327    -0.265069     1.509396
H      1.695766    -1.456901     2.244589
6
BHMC Sample 2023
O      2.262902    -0.678507     2.292241
H      2.610305    -1.133505     3.068139
H      2.243799    -1.386532     1.638090
O      1.215646    -3.512108     1.100115
H      1.140547    -3.048388     0.257275
H      0.590987    -4.240220     0.992467
6
BHMC Sample 2024
O      2.242897    -0.694321     2.272234
H      2.620258    -0.756356     3.157378
H      2.551365    -1.512693     1.866409
O      1.215646    -3.512108     1.100115
H      1.140547    -3.048388     0.257275
H      0.590987    -4.240220     0.992467
6
BHMC Sample 2025
O     -0.228609     0.293469    -0.159773
H      0.148751     0.231434     0.725371
H      0.079858    -0.524903    -0.565598
O     -0.568897    -1.166371    -2.835355
H      0.341907    -1.476857    -2.906711
H     -1.022173    -1.698964    -3.500802
6
BHMC Sample 2026
O      0.581649     2.772541     1.890473
H      1.195088     3.512806     1.964163
H      0.948087     2.283712     1.144585
O     -0.152509     0.281027     0.245601
H      0.758294    -0.029459     0.174245
H     -0.605785    -0.251567    -0.419846
6
BHMC Sample 2027
O     -0.326625    -0.083812     0.224065
H      0.286813     0.656453     0.297756
H      0.039812    -0.572641    -0.521822
O     -0.088185    -2.325703    -2.087963
H     -0.322994    -2.930218    -1.373483
H     -0.367672    -2.813692    -2.872621
6
BHMC Sample 2028
O     -0.191506     2.937934    -1.892642
H      0.419964     3.683444    -1.885778
H      0.215676     2.340491    -1.254800
O      0.171432     0.364168     0.023392
H     -0.063377    -0.240347     0.737873
H     -0.108055    -0.123821    -0.761265
6
BHMC Sample 2029
O      0.085659     0.294754    -0.016608
H      0.697129     1.040264    -0.009743
H      0.492841    -0.302689     0.621235
O     -0.105733     3.007348    -1.852642
H     -0.340542     2.402833    -1.138162
H     -0.385220     2.519359    -2.637299
6
BHMC Sample 2030
O     -0.191506     2.937934    -1.892642
H      0.419964     3.683444    -1.885778
H      0.215676     2.340491    -1.254800
O      0.171432     0.364168     0.023392
H     -0.063377    -0.240347     0.737873
H     -0.108055    -0.123821    -0.761265
6
BHMC Sample 2031
O     -1.207732     2.437010    -1.448019
H     -0.596261     3.182520    -1.441155
H     -0.800549     1.839567    -0.810177
O      0.171432     0.364168     0.023392
H     -0.063377    -0.240347     0.737873
H     -0.108055    -0.123821    -0.761265
6
BHMC Sample 2032
O     -0.339551    -0.049356    -0.214902
H      0.271920     0.696155    -0.208038
H      0.067631    -0.646799     0.422940
O      1.663887     1.985180    -0.673699
H      1.667571     2.949814    -0.696619
H      1.423921     1.757217    -1.580552
6
BHMC Sample 2033
O     -0.339551    -0.049356    -0.214902
H      0.271920     0.696155    -0.208038
H      0.067631    -0.646799     0.422940
O      1.601479     2.004680    -0.684623
H      1.551216     2.228160    -1.621953
H      2.530824     2.169371    -0.481821
6
BHMC Sample 2034
O     -0.339551    -0.049356    -0.214902
H      0.271920     0.696155    -0.208038
H      0.067631    -0.646799     0.422940
O      0.973503    -2.127053     1.257030
H      0.762856    -2.958810     0.815595
H      1.851376    -2.301022     1.618981
6
BHMC Sample 2035
O     -0.940247     0.048694     0.676477
H     -0.328776     0.794205     0.683341
H     -0.533064    -0.548749     1.314319
O      0.973503    -2.127053     1.257030
H      0.762856    -2.958810     0.815595
H      1.851376    -2.301022     1.618981
6
BHMC Sample 2036
O     -0.339551    -0.049356    -0.214902
H      0.271920     0.696155    -0.208038
H      0.067631    -0.646799     0.422940
O     -0.016532    -0.940807     2.584085
H     -0.825780    -1.289275     2.977460
H      0.575777    -0.884221     3.344285
6
BHMC Sample 2037
O     -0.339551    -0.049356    -0.214902
H      0.271920     0.696155    -0.208038
H      0.067631    -0.646799     0.422940
O      1.574198    -2.225103     0.365651
H      1.363552    -3.056860    -0.075784
H      2.452071    -2.399072     0.727602
6
BHMC Sample 2038
O     -0.339196    -0.072107    -0.297834
H      0.276986     0.667683    -0.350361
H      0.080111    -0.633946     0.364056
O      1.574198    -2.225103     0.365651
H      1.363552    -3.056860    -0.075784
H      2.452071    -2.399072     0.727602
6
BHMC Sample 2039
O     -0.339196    -0.072107    -0.297834
H      0.276986     0.667683    -0.350361
H      0.080111    -0.633946     0.364056
O      2.385857    -1.916703     1.103205
H      2.175210    -2.748459     0.661770
H      3.263729    -2.090672     1.465156
6
BHMC Sample 2040
O      2.365251    -1.982933     1.064661
H      2.981433    -1.243143     1.012134
H      2.784558    -2.544773     1.726551
O     -0.318590    -0.005877    -0.259291
H     -0.529237    -0.837633    -0.700726
H      0.559283    -0.179846     0.102661
6
BHMC Sample 2041
O      3.024374    -1.178055     0.207997
H      3.180948    -0.816897     1.088212
H      3.922115    -1.345752    -0.101062
O     -0.222409     0.335242     0.026495
H     -0.433055    -0.496515    -0.414940
H      0.655464     0.161273     0.388446
6
BHMC Sample 2042
O      3.024374    -1.178055     0.207997
H      3.180948    -0.816897     1.088212
H      3.922115    -1.345752    -0.101062
O      1.270697     1.915819    -0.423498
H      1.749009     1.868084    -1.260155
H      1.439629     1.046902    -0.038299
6
BHMC Sample 2043
O     -0.351438    -0.064487    -0.190385
H     -0.194865     0.296671     0.689830
H      0.546303    -0.232184    -0.499445
O     -2.344600    -2.550713     1.510265
H     -1.889814    -3.146617     0.902710
H     -2.101058    -1.681179     1.168897
6
BHMC Sample 2044
O      2.278575    -1.186687    -2.037482
H      2.572119    -1.772263    -1.329908
H      3.079167    -0.682893    -2.224092
O     -0.232776    -0.091210     0.316308
H      0.222010    -0.687114    -0.291247
H      0.010766     0.778324    -0.025061
6
BHMC Sample 2045
O      2.278575    -1.186687    -2.037482
H      2.572119    -1.772263    -1.329908
H      3.079167    -0.682893    -2.224092
O     -0.309145     0.151995     0.091898
H      0.156429    -0.500562    -0.445193
H     -0.022260     0.986081    -0.300443
6
BHMC Sample 2046
O      0.159854    -3.111758    -1.010488
H     -0.783139    -3.270404    -0.886693
H      0.268764    -3.283971    -1.952858
O     -0.250820    -0.060510     0.309811
H      0.214754    -0.713066    -0.227281
H      0.036066     0.773576    -0.082530
6
BHMC Sample 2047
O      0.278027     0.110287     0.272858
H     -0.664965    -0.048360     0.396653
H      0.386938    -0.061927    -0.669511
O      2.390241     2.554118     0.560599
H      1.687400     1.974949     0.879400
H      2.231951     3.365735     1.058753
6
BHMC Sample 2048
O      0.121286    -0.089453     1.328757
H     -0.821707    -0.248100     1.452552
H      0.230196    -0.261667     0.386388
O      2.390241     2.554118     0.560599
H      1.687400     1.974949     0.879400
H      2.231951     3.365735     1.058753
6
BHMC Sample 2049
O      0.278027     0.110287     0.272858
H     -0.664965    -0.048360     0.396653
H      0.386938    -0.061927    -0.669511
O      3.399259    -1.612546     0.401136
H      2.513043    -1.252241     0.527060
H      3.508476    -2.171430     1.180658
6
BHMC Sample 2050
O      1.726456    -1.564632     2.479766
H      1.508643    -1.977164     3.323629
H      1.760940    -2.325797     1.888989
O      0.259000     0.066193    -0.301815
H     -0.627217     0.426498    -0.175892
H      0.368217    -0.492691     0.477707
6
BHMC Sample 2051
O      2.404730     0.839090     2.386463
H      3.155219     0.478759     2.872936
H      2.840742     1.398866     1.733683
O      0.259000     0.066193    -0.301815
H     -0.627217     0.426498    -0.175892
H      0.368217    -0.492691     0.477707
6
BHMC Sample 2052
O     -0.397031     3.423562     0.550994
H     -0.875946     4.197290     0.232068
H      0.484576     3.572301     0.190128
O      0.259000     0.066193    -0.301815
H     -0.627217     0.426498    -0.175892
H      0.368217    -0.492691     0.477707
6
BHMC Sample 2053
O      0.276942    -0.199358     3.255528
H      0.654004     0.227068     4.033804
H      0.902021    -0.916515     3.098873
O      0.259000     0.066193    -0.301815
H     -0.627217     0.426498    -0.175892
H      0.368217    -0.492691     0.477707
6
BHMC Sample 2054
O     -0.568741    -2.797896     1.601004
H     -0.805184    -3.726032     1.489705
H      0.385503    -2.849410     1.728846
O      0.259000     0.066193    -0.301815
H     -0.627217     0.426498    -0.175892
H      0.368217    -0.492691     0.477707
6
BHMC Sample 2055
O      0.175361     0.109897    -0.252078
H     -0.061082    -0.818239    -0.363377
H      1.129605     0.058383    -0.124236
O     -0.485102    -2.841600     1.551267
H     -1.371319    -2.481295     1.677190
H     -0.375885    -3.400484     2.330788
6
BHMC Sample 2056
O     -0.239267     0.326550    -0.005514
H     -0.475710    -0.601586    -0.116813
H      0.714977     0.275036     0.122328
O     -0.320758    -2.271297    -2.381255
H     -1.148065    -1.875009    -2.680545
H      0.007587    -2.696333    -3.183420
6
BHMC Sample 2057
O      1.967742     0.023589    -1.004053
H      1.598408    -0.858986    -0.884120
H      2.655464    -0.135845    -1.660710
O     -0.320758    -2.271297    -2.381255
H     -1.148065    -1.875009    -2.680545
H      0.007587    -2.696333    -3.183420
6
BHMC Sample 2058
O     -0.106130     0.347336     0.178908
H     -0.475463    -0.535239     0.298841
H      0.581592     0.187902    -0.477749
O      0.440829    -0.008379    -3.281571
H     -0.051351     0.617103    -3.827087
H      0.144497    -0.860632    -3.624771
6
BHMC Sample 2059
O      0.378894     0.037236    -3.301266
H      0.009561    -0.845339    -3.181333
H      1.066616    -0.122198    -3.957923
O     -0.044195     0.301721     0.198603
H     -0.536375     0.927203    -0.346913
H     -0.340527    -0.550532    -0.144597
6
BHMC Sample 2060
O     -0.106130     0.347336     0.178908
H     -0.475463    -0.535239     0.298841
H      0.581592     0.187902    -0.477749
O      3.440365    -1.033822    -1.132651
H      2.874889    -1.794510    -0.951968
H      3.388731    -0.536388    -0.306922
6
BHMC Sample 2061
O      1.444177    -1.580675     3.112419
H      0.767527    -2.267389     3.095145
H      1.513833    -1.346199     2.179816
O      0.205703     0.087752    -0.335471
H     -0.359773    -0.672937    -0.154787
H      0.154070     0.585185     0.490258
6
BHMC Sample 2062
O      2.791587    -2.076811    -1.471471
H      2.346084    -2.096159    -2.326388
H      2.050517    -1.976427    -0.862935
O      0.205703     0.087752    -0.335471
H     -0.359773    -0.672937    -0.154787
H      0.154070     0.585185     0.490258
6
BHMC Sample 2063
O      2.791587    -2.076811    -1.471471
H      2.346084    -2.096159    -2.326388
H      2.050517    -1.976427    -0.862935
O      0.931078    -0.911557     1.302115
H      0.363997    -0.393903     0.717726
H      0.290218    -1.375263     1.855477
6
BHMC Sample 2064
O     -2.597433    -0.769386     0.423892
H     -3.078434    -1.604891     0.441137
H     -1.680587    -1.066932     0.444848
O      0.931078    -0.911557     1.302115
H      0.363997    -0.393903     0.717726
H      0.290218    -1.375263     1.855477
6
BHMC Sample 2065
O     -3.107963     0.920863    -0.179554
H     -3.567578     1.037176     0.660061
H     -2.184459     0.919641     0.097426
O      0.402647    -0.017983     0.010342
H     -0.164434     0.499671    -0.574047
H     -0.238213    -0.481688     0.563705
6
BHMC Sample 2066
O     -0.154629    -0.038364    -0.372199
H     -0.614245     0.077949     0.467417
H      0.768874    -0.039586    -0.095218
O     -2.636264    -0.468116     2.254275
H     -2.566388    -0.004577     1.410886
H     -1.867432    -1.051587     2.234427
6
BHMC Sample 2067
O     -0.154629    -0.038364    -0.372199
H     -0.614245     0.077949     0.467417
H      0.768874    -0.039586    -0.095218
O      3.355980    -0.977209    -0.182302
H      2.788900    -0.459556    -0.766691
H      2.715121    -1.440915     0.371061
6
BHMC Sample 2068
O     -0.154629    -0.038364    -0.372199
H     -0.614245     0.077949     0.467417
H      0.768874    -0.039586    -0.095218
O      3.416334     0.661690    -0.376303
H      2.808202     0.064583    -0.828735
H      2.815573     1.286868     0.048165
6
BHMC Sample 2069
O     -0.154629    -0.038364    -0.372199
H     -0.614245     0.077949     0.467417
H      0.768874    -0.039586    -0.095218
O      3.402567     0.624008    -0.366162
H      2.637571     0.448725    -0.927510
H      3.204711     1.500814    -0.014028
6
BHMC Sample 2070
O     -1.385751     0.739242    -2.968797
H     -1.069501     1.541260    -3.400632
H     -0.672037     0.552609    -2.348024
O      0.320951    -0.233841     0.069738
H     -0.444045    -0.409124    -0.491610
H      0.123094     0.642965     0.421872
6
BHMC Sample 2071
O     -0.744224     1.522473    -2.672894
H     -0.427973     2.324491    -3.104728
H     -0.030510     1.335840    -2.052121
O      0.320951    -0.233841     0.069738
H     -0.444045    -0.409124    -0.491610
H      0.123094     0.642965     0.421872
6
BHMC Sample 2072
O     -0.744224     1.522473    -2.672894
H     -0.427973     2.324491    -3.104728
H     -0.030510     1.335840    -2.052121
O      0.350460    -0.576336    -0.200641
H     -0.434566    -0.664308    -0.754762
H      0.185992     0.255242     0.261272
6
BHMC Sample 2073
O     -0.744224     1.522473    -2.672894
H     -0.427973     2.324491    -3.104728
H     -0.030510     1.335840    -2.052121
O      0.337045    -0.515852    -0.257248
H     -0.536267    -0.184786    -0.014808
H      0.500614    -1.184281     0.419791
6
BHMC Sample 2074
O     -0.461258     2.777178    -2.196340
H     -0.517775     2.970216    -3.139352
H     -0.201681     1.848633    -2.198327
O      0.236581     0.112454    -0.306493
H     -0.636731     0.443521    -0.064053
H      0.400150    -0.555975     0.370546
6
BHMC Sample 2075
O     -0.844688     2.150779    -2.722139
H     -0.528437     2.952797    -3.153973
H     -0.130974     1.964147    -2.101366
O      0.236581     0.112454    -0.306493
H     -0.636731     0.443521    -0.064053
H      0.400150    -0.555975     0.370546
6
BHMC Sample 2076
O     -1.644028     0.823642    -2.990292
H     -1.670829     1.517456    -3.659346
H     -0.887141     1.091063    -2.456262
O      0.236581     0.112454    -0.306493
H     -0.636731     0.443521    -0.064053
H      0.400150    -0.555975     0.370546
6
BHMC Sample 2077
O     -0.243362    -0.320411     0.045008
H     -0.270163     0.373402    -0.624046
H      0.513525    -0.052991     0.579038
O      1.697493    -1.085557     2.670439
H      1.849231    -1.672545     1.919789
H      1.783494    -1.684515     3.422627
6
BHMC Sample 2078
O     -0.243362    -0.320411     0.045008
H     -0.270163     0.373402    -0.624046
H      0.513525    -0.052991     0.579038
O      2.317847     0.071958     2.411134
H      1.448791     0.270626     2.780362
H      2.767679    -0.348650     3.154555
6
BHMC Sample 2079
O     -1.141566     3.112337    -1.570440
H     -1.439703     3.078847    -2.486803
H     -0.819578     2.214029    -1.432799
O      0.139741     0.073980    -0.370883
H     -0.729315     0.272648    -0.001655
H      0.589573    -0.346628     0.372538
6
BHMC Sample 2080
O     -2.421467    -0.318389    -2.737009
H     -2.448269     0.375424    -3.406063
H     -1.664581    -0.050969    -2.202979
O      0.139741     0.073980    -0.370883
H     -0.729315     0.272648    -0.001655
H      0.589573    -0.346628     0.372538
6
BHMC Sample 2081
O     -1.374295    -3.134360    -0.094503
H     -0.808782    -3.820265     0.278939
H     -0.806576    -2.356949    -0.040580
O      0.139741     0.073980    -0.370883
H     -0.729315     0.272648    -0.001655
H      0.589573    -0.346628     0.372538
6
BHMC Sample 2082
O     -0.706284    -2.780106    -1.869225
H      0.048777    -3.365491    -1.999362
H     -0.339234    -2.109112    -1.282181
O      0.139741     0.073980    -0.370883
H     -0.729315     0.272648    -0.001655
H      0.589573    -0.346628     0.372538
6
BHMC Sample 2083
O      1.086357     0.533900    -3.202594
H      0.508182     1.105441    -3.721036
H      0.595446     0.450159    -2.377020
O      0.139741     0.073980    -0.370883
H     -0.729315     0.272648    -0.001655
H      0.589573    -0.346628     0.372538
6
BHMC Sample 2084
O      0.623394     0.570055    -3.312535
H      1.196499     1.324741    -3.490658
H      0.528411     0.613935    -2.354082
O      0.139741     0.073980    -0.370883
H     -0.729315     0.272648    -0.001655
H      0.589573    -0.346628     0.372538
6
BHMC Sample 2085
O     -0.159374    -0.266189    -0.260110
H      0.413731     0.488497    -0.438233
H     -0.254357    -0.222308     0.698343
O      1.750652     1.784284    -1.391670
H      1.393189     2.527217    -1.892995
H      2.702801     1.898073    -1.503019
6
BHMC Sample 2086
O     -0.445766    -0.103453    -0.520099
H      0.226141     0.582616    -0.607168
H     -0.555292    -0.154710     0.436434
O      1.750652     1.784284    -1.391670
H      1.393189     2.527217    -1.892995
H      2.702801     1.898073    -1.503019
6
BHMC Sample 2087
O     -2.371026    -1.697658     1.763842
H     -1.718165    -1.395113     1.121995
H     -2.523135    -2.606423     1.479963
O     -0.198229    -0.285574     0.204225
H     -0.555692     0.457359    -0.297101
H      0.753920    -0.171785     0.092876
6
BHMC Sample 2088
O     -2.371026    -1.697658     1.763842
H     -1.718165    -1.395113     1.121995
H     -2.523135    -2.606423     1.479963
O     -1.290846    -0.129269    -0.587975
H     -1.859154    -0.206236    -1.363964
H     -0.661309     0.550663    -0.858732
6
BHMC Sample 2089
O     -2.371026    -1.697658     1.763842
H     -1.718165    -1.395113     1.121995
H     -2.523135    -2.606423     1.479963
O     -1.234870    -0.137154    -0.655839
H     -2.129918    -0.205370    -1.009806
H     -1.278994     0.674939    -0.135750
6
BHMC Sample 2090
O     -0.653187    -1.633041     2.538602
H     -0.197115    -1.533667     1.694889
H      0.080831    -1.626943     3.163710
O      0.313057    -0.247959    -0.055374
H     -0.581990    -0.316175    -0.409341
H      0.268933     0.564134     0.464715
6
BHMC Sample 2091
O     -0.396696    -0.035157     0.072869
H      0.059375     0.064216    -0.770845
H      0.337321    -0.029059     0.697976
O      1.479728     1.044768     2.285067
H      0.773762     0.913158     2.929542
H      1.267998     1.913054     1.920123
6
BHMC Sample 2092
O     -1.669312    -1.524800    -2.103948
H     -1.728367    -2.464769    -1.897308
H     -0.820805    -1.287701    -1.712288
O      0.305898    -0.245559    -0.093177
H     -0.400067    -0.377168     0.551298
H      0.094169     0.622727    -0.458121
6
BHMC Sample 2093
O     -0.961577    -2.958462     0.620354
H     -0.366804    -3.405579     1.233591
H     -0.367529    -2.336684     0.184375
O      0.305898    -0.245559    -0.093177
H     -0.400067    -0.377168     0.551298
H      0.094169     0.622727    -0.458121
6
BHMC Sample 2094
O      2.564329     0.688681    -1.926494
H      2.502678     0.191094    -2.750105
H      2.092293     0.115365    -1.311620
O      0.305898    -0.245559    -0.093177
H     -0.400067    -0.377168     0.551298
H      0.094169     0.622727    -0.458121
6
BHMC Sample 2095
O      2.564329     0.688681    -1.926494
H      2.502678     0.191094    -2.750105
H      2.092293     0.115365    -1.311620
O     -0.249419    -0.446662    -1.460254
H     -1.172362    -0.643827    -1.259357
H     -0.311085     0.412734    -1.895651
6
BHMC Sample 2096
O      0.177895     0.356968     0.069579
H      0.116245    -0.140619    -0.754032
H     -0.294140    -0.216349     0.684453
O     -1.936240    -0.648984    -1.915851
H     -2.609317    -0.799937    -2.590563
H     -2.241708     0.165321    -1.496887
6
BHMC Sample 2097
O      0.177895     0.356968     0.069579
H      0.116245    -0.140619    -0.754032
H     -0.294140    -0.216349     0.684453
O     -2.635853    -0.778376     0.535819
H     -3.558795    -0.975541     0.736716
H     -2.697519     0.081020     0.100422
6
BHMC Sample 2098
O      0.177895     0.356968     0.069579
H      0.116245    -0.140619    -0.754032
H     -0.294140    -0.216349     0.684453
O     -2.678505    -0.785082     0.572803
H     -2.430193     0.145014     0.507095
H     -3.149144    -0.933085    -0.256973
6
BHMC Sample 2099
O     -0.107417    -0.194572    -1.359316
H     -0.169067    -0.692158    -2.182928
H     -0.579452    -0.767888    -0.744442
O     -2.678505    -0.785082     0.572803
H     -2.430193     0.145014     0.507095
H     -3.149144    -0.933085    -0.256973
6
BHMC Sample 2100
O      0.177895     0.356968     0.069579
H      0.116245    -0.140619    -0.754032
H     -0.294140    -0.216349     0.684453
O     -0.973539     0.029019    -2.973229
H     -0.822954     0.941041    -2.696470
H     -1.806158    -0.185931    -2.534509
6
BHMC Sample 2101
O     -1.557752     1.989975    -1.840588
H     -1.086797     1.148799    -1.821743
H     -2.474080     1.703276    -1.928481
O      0.227345    -0.232357    -0.238493
H      0.377930     0.679665     0.038266
H     -0.605275    -0.447307     0.200227
6
BHMC Sample 2102
O      0.025722     2.627481    -1.789515
H     -0.336848     1.751245    -1.614925
H     -0.647288     3.201543    -1.405993
O      0.227345    -0.232357    -0.238493
H      0.377930     0.679665     0.038266
H     -0.605275    -0.447307     0.200227
6
BHMC Sample 2103
O      0.522605     2.120088    -2.310583
H     -0.062155     1.470741    -1.902988
H      0.906984     1.614396    -3.035915
O      0.227345    -0.232357    -0.238493
H      0.377930     0.679665     0.038266
H     -0.605275    -0.447307     0.200227
6
BHMC Sample 2104
O      0.718936     2.222683    -2.149453
H      0.091882     1.570247    -1.816498
H      1.133975     1.746435    -2.877814
O      0.227345    -0.232357    -0.238493
H      0.377930     0.679665     0.038266
H     -0.605275    -0.447307     0.200227
6
BHMC Sample 2105
O      0.271318     2.679769    -1.680048
H     -0.158452     1.825876    -1.553979
H     -0.373430     3.285725    -1.297039
O      0.227345    -0.232357    -0.238493
H      0.377930     0.679665     0.038266
H     -0.605275    -0.447307     0.200227
6
BHMC Sample 2106
O      0.478820    -2.352635     2.076820
H      0.721474    -1.477818     1.751945
H      1.158164    -2.908639     1.678160
O      0.227345    -0.232357    -0.238493
H      0.377930     0.679665     0.038266
H     -0.605275    -0.447307     0.200227
6
BHMC Sample 2107
O      0.478820    -2.352635     2.076820
H      0.721474    -1.477818     1.751945
H      1.158164    -2.908639     1.678160
O     -0.229345    -0.060106     0.052526
H     -1.166774     0.168494     0.047463
H     -0.227756    -0.937398    -0.350325
6
BHMC Sample 2108
O     -0.307333    -0.106271     0.241178
H     -0.064678     0.768546    -0.083697
H      0.372011    -0.662275    -0.157481
O      0.324173    -2.201403    -2.009775
H     -0.326533    -2.911874    -2.063350
H     -0.174949    -1.438776    -2.327911
6
BHMC Sample 2109
O      1.339154     1.005511    -2.685928
H      1.463486     1.960251    -2.633574
H      1.618188     0.719905    -1.808347
O      0.383276    -0.017386     0.123903
H     -0.267430    -0.727856     0.070329
H     -0.115846     0.745242    -0.194232
6
BHMC Sample 2110
O     -0.134455    -0.223045    -0.309978
H     -0.010124     0.731696    -0.257624
H      0.144579    -0.508651     0.567603
O     -1.564969     2.557412    -0.031331
H     -2.317258     2.660954    -0.626643
H     -1.886692     1.898508     0.596582
6
BHMC Sample 2111
O     -0.134455    -0.223045    -0.309978
H     -0.010124     0.731696    -0.257624
H      0.144579    -0.508651     0.567603
O     -2.139716     1.603871    -1.356346
H     -2.461242     2.422077    -0.958581
H     -2.468652     0.933002    -0.745060
6
BHMC Sample 2112
O      1.328854    -1.674290     2.095747
H      1.552973    -0.742086     1.993294
H      2.196659    -2.092871     2.059924
O      0.216821    -0.049112    -0.336350
H     -0.104705     0.769093     0.061415
H     -0.112116    -0.719981     0.274936
6
BHMC Sample 2113
O      0.119328    -0.069607    -0.272154
H      0.343447     0.862596    -0.374607
H      0.987133    -0.488189    -0.307976
O      1.426346    -1.653795     2.031550
H      1.104821    -0.835589     2.429315
H      1.097410    -2.324664     2.642836
6
BHMC Sample 2114
O      0.119328    -0.069607    -0.272154
H      0.343447     0.862596    -0.374607
H      0.987133    -0.488189    -0.307976
O      1.290852    -1.681003     2.080940
H      0.992955    -0.846027     2.461897
H      0.916625    -2.331229     2.688471
6
BHMC Sample 2115
O     -0.363975    -0.171207     0.046092
H     -0.139856     0.760996    -0.056361
H      0.503830    -0.589789     0.010269
O      1.348897    -1.527923     2.330628
H      0.975554    -0.728441     2.721140
H      2.198347    -1.602464     2.783191
6
BHMC Sample 2116
O     -0.408226     3.340816     0.023835
H     -0.637421     3.583530    -0.880758
H      0.407518     2.843050    -0.104110
O     -0.158702    -0.241647    -0.281025
H     -0.532045     0.557835     0.109487
H      0.690748    -0.316188     0.171538
6
BHMC Sample 2117
O     -0.343279     3.345870     0.015614
H     -0.557406     3.591441    -0.891895
H      0.464195     2.832378    -0.102245
O     -0.158702    -0.241647    -0.281025
H     -0.532045     0.557835     0.109487
H      0.690748    -0.316188     0.171538
6
BHMC Sample 2118
O     -1.824654     1.092703    -2.605680
H     -1.589889     2.021036    -2.718877
H     -0.960667     0.665166    -2.623541
O     -0.158702    -0.241647    -0.281025
H     -0.532045     0.557835     0.109487
H      0.690748    -0.316188     0.171538
6
BHMC Sample 2119
O     -1.764241     1.187605    -2.625030
H     -2.447283     0.629557    -2.235460
H     -1.062148     0.550355    -2.799835
O     -0.158702    -0.241647    -0.281025
H     -0.532045     0.557835     0.109487
H      0.690748    -0.316188     0.171538
6
BHMC Sample 2120
O     -3.357964    -0.265770     0.259186
H     -3.317370     0.213786    -0.576343
H     -2.852997    -1.061753     0.056705
O     -0.158702    -0.241647    -0.281025
H     -0.532045     0.557835     0.109487
H      0.690748    -0.316188     0.171538
6
BHMC Sample 2121
O      0.807563    -3.246979     0.467653
H      1.302940    -3.092905    -0.345115
H     -0.093028    -3.037024     0.194830
O     -0.158702    -0.241647    -0.281025
H     -0.532045     0.557835     0.109487
H      0.690748    -0.316188     0.171538
6
BHMC Sample 2122
O      0.807563    -3.246979     0.467653
H      1.302940    -3.092905    -0.345115
H     -0.093028    -3.037024     0.194830
O     -0.586879    -2.931802     3.288745
H     -0.665565    -3.356056     4.151805
H      0.352591    -2.713070     3.250187
6
BHMC Sample 2123
O      0.135072    -0.121343     0.361864
H      0.630448     0.032731    -0.450904
H     -0.765520     0.088612     0.089041
O     -1.501495    -1.438634     2.725919
H     -1.527803    -1.509744     3.687848
H     -0.655644    -1.851099     2.510646
6
BHMC Sample 2124
O      3.097673     0.455266    -1.034092
H      3.901243     0.427508    -1.566289
H      3.366498    -0.024726    -0.242309
O     -0.273181     0.161192    -0.248886
H     -0.299489     0.090082     0.713044
H      0.572670    -0.251273    -0.464158
6
BHMC Sample 2125
O      0.200773     1.588519     2.882444
H     -0.024850     1.963377     3.741691
H      0.881475     0.947403     3.117381
O     -0.273181     0.161192    -0.248886
H     -0.299489     0.090082     0.713044
H      0.572670    -0.251273    -0.464158
6
BHMC Sample 2126
O      1.722304    -2.800593    -0.250073
H      2.385175    -3.486384    -0.108573
H      1.899177    -2.537472    -1.160601
O     -0.273181     0.161192    -0.248886
H     -0.299489     0.090082     0.713044
H      0.572670    -0.251273    -0.464158
6
BHMC Sample 2127
O      1.772413    -2.866876    -0.240270
H      1.103919    -2.805408    -0.932417
H      2.385094    -2.166406    -0.492349
O     -0.273181     0.161192    -0.248886
H     -0.299489     0.090082     0.713044
H      0.572670    -0.251273    -0.464158
6
BHMC Sample 2128
O     -1.106686     2.698419    -1.706439
H     -0.988585     2.896195    -0.770135
H     -1.850695     2.085476    -1.688227
O     -0.273181     0.161192    -0.248886
H     -0.299489     0.090082     0.713044
H      0.572670    -0.251273    -0.464158
6
BHMC Sample 2129
O     -1.106686     2.698419    -1.706439
H     -0.988585     2.896195    -0.770135
H     -1.850695     2.085476    -1.688227
O     -0.243254     0.085829    -0.162462
H     -0.776297     0.832831    -0.460640
H      0.574476     0.202133    -0.662187
6
BHMC Sample 2130
O     -1.106686     2.698419    -1.706439
H     -0.988585     2.896195    -0.770135
H     -1.850695     2.085476    -1.688227
O     -0.271248     0.183985    -0.194224
H     -0.242484    -0.706791     0.175569
H      0.484983     0.183827    -0.794266
6
BHMC Sample 2131
O     -0.168751     3.327043    -0.265601
H     -1.022751     2.984888    -0.554292
H     -0.179800     3.121205     0.676253
O     -0.261665     0.296978     0.076749
H     -0.232901    -0.593798     0.446543
H      0.494566     0.296821    -0.523292
6
BHMC Sample 2132
O      0.551980    -0.982286    -2.673451
H     -0.177178    -1.482136    -2.288474
H      0.143934    -0.122719    -2.829089
O     -0.261665     0.296978     0.076749
H     -0.232901    -0.593798     0.446543
H      0.494566     0.296821    -0.523292
6
BHMC Sample 2133
O      0.375900    -1.676634    -2.290612
H     -0.433909    -1.951538    -1.845228
H      0.122789    -0.819863    -2.653183
O     -0.261665     0.296978     0.076749
H     -0.232901    -0.593798     0.446543
H      0.494566     0.296821    -0.523292
6
BHMC Sample 2134
O      0.354307    -0.193955    -0.027604
H     -0.455502    -0.468860     0.417779
H      0.101196     0.662815    -0.390175
O     -1.854362    -0.462298    -2.251554
H     -1.921322    -1.257850    -1.709641
H     -0.899484    -0.352667    -2.341684
6
BHMC Sample 2135
O      0.354307    -0.193955    -0.027604
H     -0.455502    -0.468860     0.417779
H      0.101196     0.662815    -0.390175
O     -1.819222    -0.448695    -2.185450
H     -1.341162    -1.261754    -1.981857
H     -2.037390    -0.564669    -3.118664
6
BHMC Sample 2136
O      0.354307    -0.193955    -0.027604
H     -0.455502    -0.468860     0.417779
H      0.101196     0.662815    -0.390175
O     -1.867009    -0.483756    -2.206051
H     -1.130722    -0.818171    -1.679645
H     -1.489346    -0.451767    -3.093903
6
BHMC Sample 2137
O      0.354307    -0.193955    -0.027604
H     -0.455502    -0.468860     0.417779
H      0.101196     0.662815    -0.390175
O     -1.964172    -0.681355    -2.064991
H     -1.032390    -0.618195    -1.822402
H     -2.064638    -1.621737    -2.258698
6
BHMC Sample 2138
O      4.322695    -2.837024     3.452276
H      3.606658    -2.677833     4.078118
H      4.879690    -3.454785     3.939828
O      2.763648    -0.834607    -2.211580
H      2.915002    -0.525216    -3.112927
H      2.842501    -0.021431    -1.697323
6
BHMC Sample 2139
O      4.322695    -2.837024     3.452276
H      3.606658    -2.677833     4.078118
H      4.879690    -3.454785     3.939828
O      0.977117     1.115241    -1.311369
H      1.128471     1.424632    -2.212715
H      1.055970     1.928418    -0.797112
6
BHMC Sample 2140
O      1.499874    -3.016318     4.048116
H      0.783836    -2.857127     4.673957
H      2.056869    -3.634080     4.535667
O      0.977117     1.115241    -1.311369
H      1.128471     1.424632    -2.212715
H      1.055970     1.928418    -0.797112
6
BHMC Sample 2141
O      1.499874    -3.016318     4.048116
H      0.783836    -2.857127     4.673957
H      2.056869    -3.634080     4.535667
O     -1.218713     2.563966    -0.806855
H     -1.067359     2.873358    -1.708201
H     -1.139860     3.377143    -0.292598
6
BHMC Sample 2142
O      1.499874    -3.016318     4.048116
H      0.783836    -2.857127     4.673957
H      2.056869    -3.634080     4.535667
O     -0.585829     3.450441    -0.853246
H     -0.434475     3.759833    -1.754593
H     -0.506976     4.263618    -0.338989
6
BHMC Sample 2143
O      1.024351    -3.955396     3.548315
H      0.308313    -3.796205     4.174157
H      1.581346    -4.573157     4.035867
O     -0.585829     3.450441    -0.853246
H     -0.434475     3.759833    -1.754593
H     -0.506976     4.263618    -0.338989
6
BHMC Sample 2144
O      1.024351    -3.955396     3.548315
H      0.308313    -3.796205     4.174157
H      1.581346    -4.573157     4.035867
O     -0.532847     3.554945    -0.910032
H     -0.449547     2.602316    -0.781130
H     -1.332843     3.762441    -0.411148
6
BHMC Sample 2145
O     -0.564049     3.538911    -0.937203
H     -1.280087     3.698102    -0.311362
H     -0.007055     2.921150    -0.449652
O      1.055554    -3.939362     3.575487
H      1.138854    -4.891990     3.704389
H      0.255558    -3.731865     4.074371
6
BHMC Sample 2146
O     -1.996105     1.681065    -1.026272
H     -2.712143     1.840256    -0.400430
H     -1.439111     1.063304    -0.538720
O      1.055554    -3.939362     3.575487
H      1.138854    -4.891990     3.704389
H      0.255558    -3.731865     4.074371
6
BHMC Sample 2147
O     -2.121190     0.589803    -2.037264
H     -1.477742     0.270588    -2.680540
H     -1.944750     0.020242    -1.279604
O      1.055554    -3.939362     3.575487
H      1.138854    -4.891990     3.704389
H      0.255558    -3.731865     4.074371
6
BHMC Sample 2148
O      0.969577    -3.931324     3.604213
H      1.613025    -4.250539     2.960937
H      1.146017    -4.500885     4.361873
O     -2.035213     0.581766    -2.065990
H     -1.951913    -0.370863    -1.937088
H     -2.835209     0.789262    -1.567106
6
BHMC Sample 2149
O      1.533127    -4.095487     2.681598
H      2.176576    -4.414702     2.038321
H      1.709568    -4.665048     3.439257
O     -2.035213     0.581766    -2.065990
H     -1.951913    -0.370863    -1.937088
H     -2.835209     0.789262    -1.567106
6
BHMC Sample 2150
O      1.533127    -4.095487     2.681598
H      2.176576    -4.414702     2.038321
H      1.709568    -4.665048     3.439257
O     -0.876519    -2.452533    -4.320037
H     -0.888413    -3.213344    -3.726674
H     -1.725636    -2.032141    -4.135090
6
BHMC Sample 2151
O     -4.058041     2.119036     0.842234
H     -3.608250     2.651418     0.175911
H     -4.063247     2.713115     1.601590
O     -0.876519    -2.452533    -4.320037
H     -0.888413    -3.213344    -3.726674
H     -1.725636    -2.032141    -4.135090
6
BHMC Sample 2152
O     -4.049902     2.144228     0.901354
H     -4.256778     2.000415    -0.029371
H     -3.543903     2.964268     0.868509
O     -0.876519    -2.452533    -4.320037
H     -0.888413    -3.213344    -3.726674
H     -1.725636    -2.032141    -4.135090
6
BHMC Sample 2153
O      0.085424     4.376622    -1.119839
H     -0.081786     4.115960    -2.032979
H      1.035935     4.537903    -1.129622
O     -0.876519    -2.452533    -4.320037
H     -0.888413    -3.213344    -3.726674
H     -1.725636    -2.032141    -4.135090
6
BHMC Sample 2154
O      0.085424     4.376622    -1.119839
H     -0.081786     4.115960    -2.032979
H      1.035935     4.537903    -1.129622
O      2.686083    -0.623486     3.927887
H      2.346924    -0.545977     4.827898
H      1.926703    -0.979993     3.450207
6
BHMC Sample 2155
O      1.380921     3.045969    -2.874762
H      1.213711     2.785306    -3.787902
H      2.331432     3.207249    -2.884544
O      2.686083    -0.623486     3.927887
H      2.346924    -0.545977     4.827898
H      1.926703    -0.979993     3.450207
6
BHMC Sample 2156
O      2.580788    -0.633536     4.003159
H      2.413578    -0.894198     3.090018
H      3.531299    -0.472256     3.993376
O      1.486216     3.056019    -2.950033
H      1.147057     3.133527    -2.050022
H      0.726836     2.699511    -3.427714
6
BHMC Sample 2157
O      2.623678    -0.693959     3.911420
H      2.276848     0.189323     3.740394
H      2.987275    -0.596735     4.799071
O      1.486216     3.056019    -2.950033
H      1.147057     3.133527    -2.050022
H      0.726836     2.699511    -3.427714
6
BHMC Sample 2158
O      0.860208     0.258730     3.481947
H      0.513378     1.142013     3.310921
H      1.223805     0.355954     4.369598
O      1.486216     3.056019    -2.950033
H      1.147057     3.133527    -2.050022
H      0.726836     2.699511    -3.427714
6
BHMC Sample 2159
O      1.423811     2.985545    -2.966500
H      1.076981     3.868828    -3.137526
H      1.787408     3.082769    -2.078849
O      0.922613     0.329204     3.498414
H      0.583454     0.406712     4.398425
H      0.163233    -0.027303     3.020733
6
BHMC Sample 2160
O      3.524238    -3.314373    -1.891174
H      3.102211    -3.238200    -2.754782
H      3.449312    -2.414657    -1.552830
O      0.922613     0.329204     3.498414
H      0.583454     0.406712     4.398425
H      0.163233    -0.027303     3.020733
6
BHMC Sample 2161
O      3.524238    -3.314373    -1.891174
H      3.102211    -3.238200    -2.754782
H      3.449312    -2.414657    -1.552830
O      3.098634     0.680507     1.838225
H      2.759475     0.758016     2.738236
H      2.339254     0.324000     1.360544
6
BHMC Sample 2162
O      3.524238    -3.314373    -1.891174
H      3.102211    -3.238200    -2.754782
H      3.449312    -2.414657    -1.552830
O      1.642833     0.436146     1.623096
H      1.303673     0.513654     2.523107
H      0.883452     0.079639     1.145416
6
BHMC Sample 2163
O      1.609172     0.365931     1.676117
H      1.187145     0.442104     0.812509
H      1.534246     1.265647     2.014461
O      3.557899    -3.244158    -1.944195
H      3.218740    -3.166649    -1.044184
H      2.798519    -3.600665    -2.421875
6
BHMC Sample 2164
O      1.387799     1.886579     2.294203
H      0.965772     1.962752     1.430595
H      1.312874     2.786295     2.632547
O      3.557899    -3.244158    -1.944195
H      3.218740    -3.166649    -1.044184
H      2.798519    -3.600665    -2.421875
6
BHMC Sample 2165
O      1.387799     1.886579     2.294203
H      0.965772     1.962752     1.430595
H      1.312874     2.786295     2.632547
O      4.612005    -3.198043    -2.932369
H      4.272846    -3.120535    -2.032358
H      3.852625    -3.554551    -3.410049
6
BHMC Sample 2166
O      1.299434     1.944104     2.234110
H      2.017404     1.314102     2.102410
H      1.663777     2.521906     2.914535
O      4.612005    -3.198043    -2.932369
H      4.272846    -3.120535    -2.032358
H      3.852625    -3.554551    -3.410049
6
BHMC Sample 2167
O      1.299434     1.944104     2.234110
H      2.017404     1.314102     2.102410
H      1.663777     2.521906     2.914535
O      2.907085    -2.072213    -2.123419
H      2.567926    -1.994704    -1.223409
H      2.147705    -2.428720    -2.601100
6
BHMC Sample 2168
O      2.785059    -2.084903    -2.130492
H      3.503029    -2.714905    -2.262192
H      3.149402    -1.507101    -1.450067
O      1.421460     1.956794     2.241182
H      1.082301     2.034303     3.141193
H      0.662080     1.600287     1.763502
6
BHMC Sample 2169
O      2.785059    -2.084903    -2.130492
H      3.503029    -2.714905    -2.262192
H      3.149402    -1.507101    -1.450067
O      2.079265     1.521209     1.459734
H      1.740105     1.598718     2.359745
H      1.319884     1.164702     0.982054
6
BHMC Sample 2170
O      2.785059    -2.084903    -2.130492
H      3.503029    -2.714905    -2.262192
H      3.149402    -1.507101    -1.450067
O      1.079448     1.221216     1.072395
H      0.740288     1.298725     1.972406
H      0.320067     0.864709     0.594715
6
BHMC Sample 2171
O      2.785059    -2.084903    -2.130492
H      3.503029    -2.714905    -2.262192
H      3.149402    -1.507101    -1.450067
O      1.582519     1.275002    -1.545076
H      1.243359     1.352511    -0.645065
H      0.823138     0.918495    -2.022757
6
BHMC Sample 2172
O      1.460492     1.262312    -1.552149
H      2.178463     0.632310    -1.683849
H      1.824835     1.840114    -0.871724
O      2.907085    -2.072213    -2.123419
H      2.567926    -1.994704    -1.223409
H      2.147705    -2.428720    -2.601100
6
BHMC Sample 2173
O      1.064332    -2.961011     1.788896
H      1.293457    -2.134894     1.347579
H      1.608900    -2.920045     2.583468
O      0.366180     0.093000    -0.140777
H      0.027021     0.170508     0.759234
H     -0.393200    -0.263508    -0.618457
6
BHMC Sample 2174
O      1.064332    -2.961011     1.788896
H      1.293457    -2.134894     1.347579
H      1.608900    -2.920045     2.583468
O      2.122385     0.279177     0.336745
H      1.882438     0.385728     1.265254
H      1.290469     0.467678    -0.115269
6
BHMC Sample 2175
O     -0.057641    -2.688888    -0.118209
H      0.447336    -1.870969    -0.042478
H      0.557208    -3.336879     0.244624
O      2.122385     0.279177     0.336745
H      1.882438     0.385728     1.265254
H      1.290469     0.467678    -0.115269
6
BHMC Sample 2176
O     -0.373275    -0.056643    -0.146188
H      0.131702     0.761276    -0.070457
H      0.241574    -0.704633     0.216645
O      0.548475     3.376927    -0.362766
H      1.040729     3.257140    -1.183981
H     -0.355685     3.171035    -0.631166
6
BHMC Sample 2177
O      2.218998    -1.307513     2.318115
H      1.525702    -0.726381     1.984418
H      2.156849    -1.165675     3.269744
O      0.137302     0.108560     0.363205
H      0.629556    -0.011227    -0.458010
H     -0.766858    -0.097332     0.094805
6
BHMC Sample 2178
O      2.218998    -1.307513     2.318115
H      1.525702    -0.726381     1.984418
H      2.156849    -1.165675     3.269744
O     -0.059131     0.571267     1.075534
H      0.058051     0.323955     0.150244
H     -1.020150     0.601834     1.161805
6
BHMC Sample 2179
O      2.591755     2.286310     0.432414
H      1.888651     1.626489     0.429158
H      2.531260     2.637402     1.328323
O      0.281279     0.072248     0.279673
H      0.398461    -0.175064    -0.645617
H     -0.679740     0.102815     0.365944
6
BHMC Sample 2180
O      2.700621     2.100923     0.785647
H      1.952088     1.503354     0.674569
H      2.466537     2.564518     1.597967
O      0.281279     0.072248     0.279673
H      0.398461    -0.175064    -0.645617
H     -0.679740     0.102815     0.365944
6
BHMC Sample 2181
O      0.327539     0.044658    -0.233747
H     -0.420994    -0.552911    -0.344826
H      0.093455     0.508253     0.578573
O     -2.081437    -1.999164    -0.728090
H     -1.709511    -2.618708    -1.367537
H     -2.628782    -2.573059    -0.177643
6
BHMC Sample 2182
O     -0.091409     0.437096    -0.194610
H     -0.707467    -0.296572    -0.303854
H     -0.145530     0.603108     0.753593
O     -2.081437    -1.999164    -0.728090
H     -1.709511    -2.618708    -1.367537
H     -2.628782    -2.573059    -0.177643
6
BHMC Sample 2183
O      0.223393     0.189218    -0.279653
H     -0.392665    -0.544449    -0.388897
H      0.169272     0.355231     0.668550
O     -1.788734    -2.227795    -0.817764
H     -2.279543    -2.095985    -1.638001
H     -2.411324    -2.736159    -0.283085
6
BHMC Sample 2184
O      0.223393     0.189218    -0.279653
H     -0.392665    -0.544449    -0.388897
H      0.169272     0.355231     0.668550
O      0.151567     0.878998     2.834743
H      0.173971     1.832560     2.980600
H     -0.350001     0.564412     3.597239
6
BHMC Sample 2185
O      0.223393     0.189218    -0.279653
H     -0.392665    -0.544449    -0.388897
H      0.169272     0.355231     0.668550
O     -1.788734    -2.227795    -0.817764
H     -2.279543    -2.095985    -1.638001
H     -2.411324    -2.736159    -0.283085
6
BHMC Sample 2186
O      2.258619     1.932030     1.926488
H      1.688946     1.425557     1.335992
H      2.341395     2.768574     1.454342
O      0.371133     0.125518     0.095186
H     -0.119676     0.257328    -0.725051
H     -0.251457    -0.382847     0.629865
6
BHMC Sample 2187
O      2.678215     2.111356     1.034466
H      2.004248     1.473211     0.773184
H      3.426794     1.538613     1.237377
O      0.371133     0.125518     0.095186
H     -0.119676     0.257328    -0.725051
H     -0.251457    -0.382847     0.629865
6
BHMC Sample 2188
O      2.643732     1.942457     1.392235
H      1.986182     1.384723     0.960621
H      3.455069     1.677105     0.944017
O      0.371133     0.125518     0.095186
H     -0.119676     0.257328    -0.725051
H     -0.251457    -0.382847     0.629865
6
BHMC Sample 2189
O      0.871362    -2.910358    -0.992504
H      0.739849    -2.025791    -0.631983
H      1.666498    -3.198039    -0.529281
O      0.371133     0.125518     0.095186
H     -0.119676     0.257328    -0.725051
H     -0.251457    -0.382847     0.629865
6
BHMC Sample 2190
O     -1.540862     2.471636     1.315779
H     -0.961549     1.770257     0.996104
H     -1.034029     2.827198     2.054883
O      0.371133     0.125518     0.095186
H     -0.119676     0.257328    -0.725051
H     -0.251457    -0.382847     0.629865
6
BHMC Sample 2191
O     -0.362049     0.115273    -0.139810
H      0.217264    -0.586107    -0.459485
H      0.144785     0.470834     0.599294
O      1.477068    -2.337120    -1.259302
H      0.653933    -2.689924    -1.618515
H      1.688237    -1.629657    -1.881265
6
BHMC Sample 2192
O      1.131905    -1.284758     1.750321
H      1.276648    -1.607184     0.853203
H      1.861875    -1.693896     2.229205
O      1.477068    -2.337120    -1.259302
H      0.653933    -2.689924    -1.618515
H      1.688237    -1.629657    -1.881265
6
BHMC Sample 2193
O     -0.291571     0.243855     0.139411
H     -0.146828    -0.078571    -0.757707
H      0.438399    -0.165283     0.618295
O      0.119137    -0.717479    -2.892352
H      0.079328     0.017591    -3.516166
H     -0.592372    -1.291421    -3.202642
6
BHMC Sample 2194
O     -0.177645     0.873716     3.351277
H     -0.007489     0.600881     2.442246
H      0.668835     0.691930     3.775545
O      0.250439    -0.053709     0.311368
H      0.210631     0.681360    -0.312446
H     -0.461070    -0.627651     0.001077
6
BHMC Sample 2195
O     -0.338879     0.151540     0.161588
H     -0.168722    -0.121294    -0.747443
H      0.507601    -0.030246     0.585856
O      0.124703    -0.669563    -2.903588
H     -0.412512    -1.424337    -3.173350
H     -0.165023     0.019832    -3.514102
6
BHMC Sample 2196
O      0.021548    -0.647784    -2.925718
H      0.191705    -0.920618    -3.834749
H      0.868029    -0.829569    -2.501450
O     -0.235725     0.129761     0.183718
H     -0.772940    -0.625014    -0.086045
H     -0.525450     0.819156    -0.426796
6
BHMC Sample 2197
O     -0.338879     0.151540     0.161588
H     -0.168722    -0.121294    -0.747443
H      0.507601    -0.030246     0.585856
O     -3.034027     0.601263    -1.533412
H     -3.093739    -0.089302    -0.862136
H     -2.752471     1.367478    -1.018073
6
BHMC Sample 2198
O     -0.338879     0.151540     0.161588
H     -0.168722    -0.121294    -0.747443
H      0.507601    -0.030246     0.585856
O     -0.596152     0.929084     3.271024
H     -1.133367     0.174310     3.001261
H     -0.885877     1.618479     2.660509
6
BHMC Sample 2199
O      0.435401    -0.978831     0.926589
H      0.823631    -1.587165     0.287108
H      1.073028    -1.015469     1.648855
O     -0.596152     0.929084     3.271024
H     -1.133367     0.174310     3.001261
H     -0.885877     1.618479     2.660509
6
BHMC Sample 2200
O     -0.341953     0.214990    -0.027595
H      0.046278    -0.393343    -0.667076
H      0.295675     0.178353     0.694671
O     -2.269201     0.071574    -2.570330
H     -2.598858    -0.207850    -1.707599
H     -2.445532     1.020665    -2.562135
6
BHMC Sample 2201
O     -2.354913     0.145133    -2.526231
H     -1.966682    -0.463201    -3.165712
H     -1.717285     0.108495    -1.803965
O     -0.256241     0.141432    -0.071694
H     -0.585898    -0.137992     0.791037
H     -0.432572     1.090523    -0.063499
6
BHMC Sample 2202
O     -2.172260    -2.152777    -1.397907
H     -1.764973    -2.609030    -2.143345
H     -1.457842    -1.576598    -1.102603
O      0.168663    -0.223223    -0.290309
H     -0.160994    -0.502646     0.572422
H     -0.007669     0.725869    -0.282113
6
BHMC Sample 2203
O      3.009334    -1.209823     0.887434
H      3.423982    -1.664737     0.145242
H      2.176859    -0.915150     0.500482
O      0.168663    -0.223223    -0.290309
H     -0.160994    -0.502646     0.572422
H     -0.007669     0.725869    -0.282113
6
BHMC Sample 2204
O      3.009334    -1.209823     0.887434
H      3.423982    -1.664737     0.145242
H      2.176859    -0.915150     0.500482
O      0.011817    -0.721645    -0.213961
H     -0.155821    -0.449080     0.696347
H     -0.161723     0.089132    -0.708388
6
BHMC Sample 2205
O      3.009334    -1.209823     0.887434
H      3.423982    -1.664737     0.145242
H      2.176859    -0.915150     0.500482
O      0.221087    -0.287909    -0.463964
H     -0.011582    -0.057135     0.443596
H      0.198366     0.568953    -0.908042
6
BHMC Sample 2206
O      0.139276     0.053414     0.376382
H      0.553923    -0.401500    -0.365811
H     -0.693199     0.348086    -0.010571
O     -2.614214     1.043859    -0.997604
H     -2.708493     1.547501    -0.179978
H     -3.373418     0.448583    -0.963077
6
BHMC Sample 2207
O      1.971617    -2.724492    -0.169069
H      2.859512    -2.396291    -0.352523
H      1.451568    -1.912826    -0.187157
O      0.284494     0.030544    -0.284051
H      0.190215     0.534187     0.533575
H     -0.474709    -0.564731    -0.249524
6
BHMC Sample 2208
O      3.037984    -0.959901     1.089934
H      3.452632    -1.414814     0.347742
H      2.205509    -0.665228     0.702982
O      0.284494     0.030544    -0.284051
H      0.190215     0.534187     0.533575
H     -0.474709    -0.564731    -0.249524
6
BHMC Sample 2209
O      0.139276     0.053414     0.376382
H      0.553923    -0.401500    -0.365811
H     -0.693199     0.348086    -0.010571
O      1.487172    -1.421054    -2.165155
H      2.266151    -1.442236    -1.596121
H      1.298299    -2.359095    -2.292985
6
BHMC Sample 2210
O      1.828606     1.744549    -2.225128
H      1.243320     1.304356    -1.597913
H      1.209560     2.036080    -2.904371
O     -0.196702     0.319741    -0.147068
H      0.582277     0.298559     0.421966
H     -0.385575    -0.618300    -0.274898
6
BHMC Sample 2211
O     -1.544598     1.794209     2.394468
H     -1.129950     1.339295     1.652276
H     -2.377073     2.088882     2.007516
O     -0.196702     0.319741    -0.147068
H      0.582277     0.298559     0.421966
H     -0.385575    -0.618300    -0.274898
6
BHMC Sample 2212
O     -1.544598     1.794209     2.394468
H     -1.129950     1.339295     1.652276
H     -2.377073     2.088882     2.007516
O      0.077181     0.566999    -0.114049
H      0.776138     0.451291     0.541029
H     -0.114287    -0.342302    -0.375673
6
BHMC Sample 2213
O      0.139276     0.053414     0.376382
H      0.553923    -0.401500    -0.365811
H     -0.693199     0.348086    -0.010571
O      1.447597    -1.791848    -1.928434
H      2.129564    -1.941056    -1.262315
H      1.939496    -1.353738    -2.634147
6
BHMC Sample 2214
O     -0.530146    -3.322565    -0.015271
H     -0.440738    -2.367037    -0.108554
H     -1.250095    -3.515873    -0.626731
O     -0.391289    -0.096301     0.013198
H      0.290678    -0.245508     0.679317
H      0.100611     0.341809    -0.692515
6
BHMC Sample 2215
O      0.210180    -0.254073     0.234914
H      0.299589     0.701454     0.141631
H     -0.509769    -0.447381    -0.376546
O      0.827323     2.875447    -0.269179
H      1.535214     2.720996     0.368074
H      0.276515     3.524468     0.186143
6
BHMC Sample 2216
O      0.210180    -0.254073     0.234914
H      0.299589     0.701454     0.141631
H     -0.509769    -0.447381    -0.376546
O      1.066603     2.636047     0.968881
H      1.634855     2.166023     1.591154
H      1.706532     3.076385     0.395707
6
BHMC Sample 2217
O      0.210180    -0.254073     0.234914
H      0.299589     0.701454     0.141631
H     -0.509769    -0.447381    -0.376546
O      0.100116     2.846462    -0.185459
H     -0.380196     2.824344     0.651121
H      0.893522     3.346156     0.044208
6
BHMC Sample 2218
O      0.210180    -0.254073     0.234914
H      0.299589     0.701454     0.141631
H     -0.509769    -0.447381    -0.376546
O      0.336125     2.798724    -0.448250
H      1.089927     2.526979    -0.985831
H      0.746673     3.375860     0.207721
6
BHMC Sample 2219
O      0.210180    -0.254073     0.234914
H      0.299589     0.701454     0.141631
H     -0.509769    -0.447381    -0.376546
O      0.100116     2.846462    -0.185459
H     -0.380196     2.824344     0.651121
H      0.893522     3.346156     0.044208
6
BHMC Sample 2220
O      0.210180    -0.254073     0.234914
H      0.299589     0.701454     0.141631
H     -0.509769    -0.447381    -0.376546
O     -2.248595    -0.486553    -1.689335
H     -2.742904    -0.528534    -0.861716
H     -2.418785    -1.354281    -2.076656
6
BHMC Sample 2221
O      0.393071    -0.620022    -0.010735
H      0.524911     0.334803     0.014896
H     -0.391811    -0.697889    -0.565240
O     -2.248595    -0.486553    -1.689335
H     -2.742904    -0.528534    -0.861716
H     -2.418785    -1.354281    -2.076656
6
BHMC Sample 2222
O      3.181212    -0.571190     0.355930
H      3.524200    -0.180297    -0.456038
H      2.254034    -0.308315     0.327340
O      0.221500     0.303236    -0.146766
H     -0.272810     0.261255     0.680852
H      0.051310    -0.564492    -0.534087
6
BHMC Sample 2223
O     -1.612300     2.113567    -1.872532
H     -0.894646     2.700882    -2.136659
H     -1.178663     1.549221    -1.222108
O      0.221500     0.303236    -0.146766
H     -0.272810     0.261255     0.680852
H      0.051310    -0.564492    -0.534087
6
BHMC Sample 2224
O     -0.439108     1.314851    -2.992379
H      0.361708     1.847383    -3.061897
H     -0.403818     1.020946    -2.074799
O      0.221500     0.303236    -0.146766
H     -0.272810     0.261255     0.680852
H      0.051310    -0.564492    -0.534087
6
BHMC Sample 2225
O      0.248866     1.570210    -2.953202
H      1.059382     2.068524    -2.796751
H      0.069715     1.202151    -2.080266
O      0.221500     0.303236    -0.146766
H     -0.272810     0.261255     0.680852
H      0.051310    -0.564492    -0.534087
6
BHMC Sample 2226
O      0.248866     1.570210    -2.953202
H      1.059382     2.068524    -2.796751
H      0.069715     1.202151    -2.080266
O      0.252478     0.350859    -0.124659
H     -0.235080     0.319597     0.707426
H      0.085912    -0.524731    -0.495513
6
BHMC Sample 2227
O      2.715615     1.516280     1.327263
H      2.538800     2.413478     1.021486
H      2.046927     1.008820     0.853006
O      0.252478     0.350859    -0.124659
H     -0.235080     0.319597     0.707426
H      0.085912    -0.524731    -0.495513
6
BHMC Sample 2228
O     -1.008750     3.060064    -0.804098
H     -0.208343     3.535550    -0.553119
H     -0.724452     2.141350    -0.735406
O      0.218041     0.302284    -0.153744
H     -0.269517     0.271022     0.678342
H      0.051475    -0.573306    -0.524598
6
BHMC Sample 2229
O     -0.988654     3.067301    -0.809053
H     -0.186312     3.537851    -0.554967
H     -0.710325     2.146853    -0.739153
O      0.218041     0.302284    -0.153744
H     -0.269517     0.271022     0.678342
H      0.051475    -0.573306    -0.524598
6
BHMC Sample 2230
O      2.682544     1.483025     1.282551
H      2.499938     2.378621     0.975480
H      2.013886     0.971241     0.812921
O      0.218041     0.302284    -0.153744
H     -0.269517     0.271022     0.678342
H      0.051475    -0.573306    -0.524598
6
BHMC Sample 2231
O     -0.920710     3.165768    -0.360513
H     -1.269400     3.036017    -1.250069
H     -0.447946     2.339190    -0.209379
O      0.218041     0.302284    -0.153744
H     -0.269517     0.271022     0.678342
H      0.051475    -0.573306    -0.524598
6
BHMC Sample 2232
O     -1.728977     2.529996    -1.087361
H     -2.191124     1.969161    -1.721091
H     -1.020307     1.949255    -0.787185
O      0.218041     0.302284    -0.153744
H     -0.269517     0.271022     0.678342
H      0.051475    -0.573306    -0.524598
6
BHMC Sample 2233
O      2.825201     0.564677     1.507306
H      3.132410    -0.328167     1.311904
H      2.037596     0.629642     0.955005
O      0.218041     0.302284    -0.153744
H     -0.269517     0.271022     0.678342
H      0.051475    -0.573306    -0.524598
6
BHMC Sample 2234
O      2.978017     1.417477    -0.890367
H      3.326979     0.569065    -1.187270
H      2.053606     1.203674    -0.719101
O      0.218041     0.302284    -0.153744
H     -0.269517     0.271022     0.678342
H      0.051475    -0.573306    -0.524598
6
BHMC Sample 2235
O      2.740927     2.039090    -0.003387
H      2.752978     2.074005     0.960130
H      1.908384     1.584424    -0.175810
O      0.218041     0.302284    -0.153744
H     -0.269517     0.271022     0.678342
H      0.051475    -0.573306    -0.524598
6
BHMC Sample 2236
O      2.978017     1.417477    -0.890367
H      3.326979     0.569065    -1.187270
H      2.053606     1.203674    -0.719101
O      0.218041     0.302284    -0.153744
H     -0.269517     0.271022     0.678342
H      0.051475    -0.573306    -0.524598
6
BHMC Sample 2237
O      0.517051     2.479487    -2.292461
H      0.143319     1.942948    -3.001108
H      0.565050     1.846049    -1.567182
O      0.218041     0.302284    -0.153744
H     -0.269517     0.271022     0.678342
H      0.051475    -0.573306    -0.524598
6
BHMC Sample 2238
O      0.279960     3.101100    -1.405481
H     -0.430682     3.447888    -0.853707
H      0.419828     2.226798    -1.023890
O      0.218041     0.302284    -0.153744
H     -0.269517     0.271022     0.678342
H      0.051475    -0.573306    -0.524598
6
BHMC Sample 2239
O      0.279960     3.101100    -1.405481
H     -0.430682     3.447888    -0.853707
H      0.419828     2.226798    -1.023890
O      0.065610     0.295159    -0.184094
H     -0.412012     0.283627     0.654238
H     -0.158668    -0.564273    -0.562261
6
BHMC Sample 2240
O      0.810250     3.170286    -0.936395
H     -0.096424     3.390141    -1.179982
H      0.702126     2.303811    -0.527605
O      0.065610     0.295159    -0.184094
H     -0.412012     0.283627     0.654238
H     -0.158668    -0.564273    -0.562261
6
BHMC Sample 2241
O      0.810250     3.170286    -0.936395
H     -0.096424     3.390141    -1.179982
H      0.702126     2.303811    -0.527605
O      0.080179     0.287393    -0.160068
H     -0.855103     0.520091    -0.113633
H      0.053182    -0.677470    -0.175719
6
BHMC Sample 2242
O      0.083118     0.282606    -0.167590
H     -0.823557     0.502461    -0.411177
H     -0.025007    -0.583868     0.241201
O      0.807311     3.175072    -0.928874
H     -0.127970     3.407771    -0.882438
H      0.780314     2.210209    -0.944524
6
BHMC Sample 2243
O      0.083118     0.282606    -0.167590
H     -0.823557     0.502461    -0.411177
H     -0.025007    -0.583868     0.241201
O      0.803723     3.179378    -0.924886
H      0.853513     2.228363    -1.080282
H     -0.144219     3.321273    -0.809968
6
BHMC Sample 2244
O     -2.399054    -0.456844     1.307229
H     -2.355727    -1.279399     0.805976
H     -3.149758    -0.618234     1.890304
O      0.299384     0.269707     0.013492
H      0.349174    -0.681308    -0.141903
H     -0.648558     0.411601     0.128411
6
BHMC Sample 2245
O     -2.399054    -0.456844     1.307229
H     -2.355727    -1.279399     0.805976
H     -3.149758    -0.618234     1.890304
O      0.639569     0.795934     1.114718
H      0.689359    -0.155081     0.959322
H     -0.308373     0.937829     1.229636
6
BHMC Sample 2246
O      0.235792     0.327982    -0.027274
H      0.279119    -0.494574    -0.528527
H     -0.514912     0.166592     0.555801
O      1.725499     2.550798    -1.945503
H      1.416647     1.824389    -2.500478
H      1.467710     2.260471    -1.061654
6
BHMC Sample 2247
O     -1.378932    -2.544901    -0.366496
H     -1.286375    -2.950834     0.503206
H     -2.162935    -2.988094    -0.710732
O      0.188881     0.338912    -0.109625
H     -0.119972    -0.387497    -0.664600
H     -0.068909     0.048585     0.774224
6
BHMC Sample 2248
O      0.230482     0.283042    -0.175155
H      0.323039    -0.122891     0.694547
H     -0.553521    -0.160151    -0.519391
O      3.249779     1.370441    -0.911232
H      2.294313     1.444306    -1.023864
H      3.327421     0.664970    -0.256849
6
BHMC Sample 2249
O      0.230482     0.283042    -0.175155
H      0.323039    -0.122891     0.694547
H     -0.553521    -0.160151    -0.519391
O      1.847498     1.310604    -2.852820
H      1.651398     1.416872    -1.914040
H      1.271752     0.577252    -3.103113
6
BHMC Sample 2250
O      0.230482     0.283042    -0.175155
H      0.323039    -0.122891     0.694547
H     -0.553521    -0.160151    -0.519391
O      3.249779     1.370441    -0.911232
H      2.294313     1.444306    -1.023864
H      3.327421     0.664970    -0.256849
6
BHMC Sample 2251
O      0.230482     0.283042    -0.175155
H      0.323039    -0.122891     0.694547
H     -0.553521    -0.160151    -0.519391
O      1.847498     1.310604    -2.852820
H      1.651398     1.416872    -1.914040
H      1.271752     0.577252    -3.103113
6
BHMC Sample 2252
O      0.230482     0.283042    -0.175155
H      0.323039    -0.122891     0.694547
H     -0.553521    -0.160151    -0.519391
O      3.249779     1.370441    -0.911232
H      2.294313     1.444306    -1.023864
H      3.327421     0.664970    -0.256849
6
BHMC Sample 2253
O     -2.733042    -0.751022     0.691913
H     -2.615810    -1.645723     1.031761
H     -3.553058    -0.480825     1.121034
O      0.292608     0.210535    -0.180584
H     -0.662858     0.284401    -0.293216
H      0.370250    -0.494936     0.473799
6
BHMC Sample 2254
O     -2.747642    -0.249513    -0.405615
H     -2.630411    -1.144214    -0.065767
H     -3.567659     0.020684     0.023506
O      0.292608     0.210535    -0.180584
H     -0.662858     0.284401    -0.293216
H      0.370250    -0.494936     0.473799
6
BHMC Sample 2255
O     -2.743769    -0.321794    -0.297692
H     -2.588757    -1.225996    -0.000843
H     -3.551340    -0.092228     0.176341
O      0.292608     0.210535    -0.180584
H     -0.662858     0.284401    -0.293216
H      0.370250    -0.494936     0.473799
6
BHMC Sample 2256
O     -0.173700    -2.250496     1.620351
H     -1.018646    -2.402394     1.181351
H     -0.384286    -2.463448     2.536802
O      0.292608     0.210535    -0.180584
H     -0.662858     0.284401    -0.293216
H      0.370250    -0.494936     0.473799
6
BHMC Sample 2257
O     -0.196193    -1.804923     2.103379
H     -1.068269    -1.419432     2.246940
H     -0.370099    -2.744472     2.232156
O      0.292608     0.210535    -0.180584
H     -0.662858     0.284401    -0.293216
H      0.370250    -0.494936     0.473799
6
BHMC Sample 2258
O     -1.463766    -0.851609     2.135353
H     -1.948528    -0.018193     2.123015
H     -2.168445    -1.489527     2.296803
O      0.292608     0.210535    -0.180584
H     -0.662858     0.284401    -0.293216
H      0.370250    -0.494936     0.473799
6
BHMC Sample 2259
O      0.310044     0.164256    -0.158614
H     -0.174718     0.997672    -0.170953
H     -0.394636    -0.473662     0.002836
O     -1.481202    -0.805330     2.113384
H     -2.436667    -0.731464     2.000751
H     -1.403559    -1.510800     2.767767
6
BHMC Sample 2260
O      0.310044     0.164256    -0.158614
H     -0.174718     0.997672    -0.170953
H     -0.394636    -0.473662     0.002836
O     -1.832119    -0.513967     1.917826
H     -2.755689    -0.373761     1.676131
H     -1.898934    -1.177784     2.615550
6
BHMC Sample 2261
O     -1.820981    -0.554204     1.934999
H     -2.305743     0.279212     1.922661
H     -2.525660    -1.192122     2.096449
O      0.298906     0.204492    -0.175787
H     -0.624664     0.344699    -0.417482
H      0.232091    -0.459324     0.521936
6
BHMC Sample 2262
O     -1.047442    -1.887358     1.644662
H     -1.905056    -1.454865     1.729386
H     -1.292770    -2.819722     1.654134
O      0.298906     0.204492    -0.175787
H     -0.624664     0.344699    -0.417482
H      0.232091    -0.459324     0.521936
6
BHMC Sample 2263
O     -2.710869    -0.329965    -0.186537
H     -2.807652    -0.610129     0.730998
H     -3.371324    -0.873488    -0.631466
O      0.330128     0.174537    -0.152009
H     -0.593442     0.314743    -0.393705
H      0.263313    -0.489280     0.545714
6
BHMC Sample 2264
O      0.317083     0.191327    -0.152937
H      0.220300    -0.088837     0.764598
H     -0.343372    -0.352195    -0.597866
O     -2.697824    -0.346755    -0.185609
H     -3.621394    -0.206549    -0.427305
H     -2.764639    -1.010572     0.512114
6
BHMC Sample 2265
O     -2.710869    -0.329965    -0.186537
H     -2.807652    -0.610129     0.730998
H     -3.371324    -0.873488    -0.631466
O      0.330128     0.174537    -0.152009
H     -0.593442     0.314743    -0.393705
H      0.263313    -0.489280     0.545714
6
BHMC Sample 2266
O     -1.259934    -1.596781     1.831759
H     -0.513722    -2.201264     1.918346
H     -1.605859    -1.577239     2.731499
O      0.330128     0.174537    -0.152009
H     -0.593442     0.314743    -0.393705
H      0.263313    -0.489280     0.545714
6
BHMC Sample 2267
O      0.252316     0.177968    -0.181681
H      0.998527    -0.426515    -0.095095
H     -0.093610     0.197511     0.718059
O     -1.182121    -1.600213     1.861431
H     -2.105691    -1.460007     1.619736
H     -1.248936    -2.264029     2.559155
6
BHMC Sample 2268
O     -1.259934    -1.596781     1.831759
H     -0.513722    -2.201264     1.918346
H     -1.605859    -1.577239     2.731499
O      0.330128     0.174537    -0.152009
H     -0.593442     0.314743    -0.393705
H      0.263313    -0.489280     0.545714
6
BHMC Sample 2269
O     -1.259934    -1.596781     1.831759
H     -0.513722    -2.201264     1.918346
H     -1.605859    -1.577239     2.731499
O     -1.785249    -1.694519    -1.205833
H     -1.239485    -2.476599    -1.059032
H     -1.811512    -1.292452    -0.328572
6
BHMC Sample 2270
O     -1.778578    -1.683053    -1.203721
H     -1.032367    -2.287536    -1.117135
H     -2.124504    -1.663510    -0.303981
O     -1.266604    -1.608248     1.829648
H     -0.720841    -2.390327     1.976449
H     -1.292868    -1.206180     2.706909
6
BHMC Sample 2271
O     -0.133429     0.194980    -0.328776
H      0.612783    -0.409503    -0.242189
H     -0.479354     0.214523     0.570964
O     -0.837177    -1.293068     2.271127
H      0.001626    -1.698435     2.522412
H     -1.441480    -1.634091     2.942287
6
BHMC Sample 2272
O     -4.292950     0.550578    -0.339911
H     -4.533038    -0.277657     0.091497
H     -4.883214     1.178628     0.092202
O      2.763648    -0.834607    -2.211580
H      2.915002    -0.525216    -3.112927
H      2.842501    -0.021431    -1.697323
6
BHMC Sample 2273
O      2.822990    -0.760595    -2.281556
H      2.582902    -1.588830    -1.850148
H      2.232726    -0.132545    -1.849444
O     -4.352292     0.476566    -0.269935
H     -4.200938     0.785957    -1.171281
H     -4.273439     1.289743     0.244322
6
BHMC Sample 2274
O      4.350966     0.604648    -0.983736
H      4.110878    -0.223587    -0.552328
H      3.760702     1.232698    -0.551623
O     -4.352292     0.476566    -0.269935
H     -4.200938     0.785957    -1.171281
H     -4.273439     1.289743     0.244322
6
BHMC Sample 2275
O      4.350966     0.604648    -0.983736
H      4.110878    -0.223587    -0.552328
H      3.760702     1.232698    -0.551623
O     -3.632319     0.803208    -2.916230
H     -3.480965     1.112600    -3.817576
H     -3.553466     1.616385    -2.401973
6
BHMC Sample 2276
O     -3.572978     0.877221    -2.986206
H     -3.813065     0.048985    -2.554798
H     -4.163241     1.505271    -2.554093
O      4.291624     0.530636    -0.913760
H      4.442978     0.840027    -1.815106
H      4.370477     1.343812    -0.399503
6
BHMC Sample 2277
O      4.350966     0.604648    -0.983736
H      4.110878    -0.223587    -0.552328
H      3.760702     1.232698    -0.551623
O     -3.632319     0.803208    -2.916230
H     -3.480965     1.112600    -3.817576
H     -3.553466     1.616385    -2.401973
6
BHMC Sample 2278
O      4.350966     0.604648    -0.983736
H      4.110878    -0.223587    -0.552328
H      3.760702     1.232698    -0.551623
O     -1.149945     2.317970    -2.820339
H     -0.998592     2.627361    -3.721685
H     -1.071093     3.131147    -2.306082
6
BHMC Sample 2279
O     -1.090604     2.391982    -2.890315
H     -1.330691     1.563747    -2.458907
H     -1.680867     3.020032    -2.458202
O      4.291624     0.530636    -0.913760
H      4.442978     0.840027    -1.815106
H      4.370477     1.343812    -0.399503
6
BHMC Sample 2280
O     -1.090604     2.391982    -2.890315
H     -1.330691     1.563747    -2.458907
H     -1.680867     3.020032    -2.458202
O      4.299533     0.536255    -0.899577
H      4.831990     0.713243    -1.684575
H      3.855931     1.381411    -0.755141
6
BHMC Sample 2281
O     -1.090604     2.391982    -2.890315
H     -1.330691     1.563747    -2.458907
H     -1.680867     3.020032    -2.458202
O      3.284841    -0.509779    -1.027873
H      3.817298    -0.332791    -1.812870
H      2.841238     0.335377    -0.883436
6
BHMC Sample 2282
O     -1.090604     2.391982    -2.890315
H     -1.330691     1.563747    -2.458907
H     -1.680867     3.020032    -2.458202
O      3.625083     1.187494    -3.112058
H      4.157541     1.364482    -3.897055
H      3.181481     2.032650    -2.967622
6
BHMC Sample 2283
O     -1.090604     2.391982    -2.890315
H     -1.330691     1.563747    -2.458907
H     -1.680867     3.020032    -2.458202
O      3.686414     1.280484    -3.136836
H      3.046621     1.366723    -3.853972
H      3.318949     0.554458    -2.617424
6
BHMC Sample 2284
O      0.276784     0.066729    -0.287840
H      0.036696    -0.761507     0.143568
H     -0.313480     0.694778     0.144272
O      4.025550     3.229564    -0.531850
H      3.494787     2.862574    -1.249253
H      3.368225     3.708452    -0.011730
6
BHMC Sample 2285
O     -1.025706    -1.849887    -0.772564
H     -1.265794    -2.678123    -0.341156
H     -1.615970    -1.221838    -0.340451
O      4.025550     3.229564    -0.531850
H      3.494787     2.862574    -1.249253
H      3.368225     3.708452    -0.011730
6
BHMC Sample 2286
O      4.005533     3.247026    -0.591206
H      3.765446     2.418790    -0.159798
H      3.415270     3.875076    -0.159094
O     -1.005690    -1.867350    -0.713208
H     -1.536452    -2.234339    -1.430611
H     -1.663015    -1.388462    -0.193088
6
BHMC Sample 2287
O      4.005533     3.247026    -0.591206
H      3.765446     2.418790    -0.159798
H      3.415270     3.875076    -0.159094
O     -1.007691    -1.864087    -0.744597
H     -1.479803    -2.453088    -0.143561
H     -1.687903    -1.221504    -0.981943
6
BHMC Sample 2288
O      4.851368     1.998088     0.658528
H      4.574258     1.094418     0.467950
H      4.623035     2.083901     1.591308
O     -1.007691    -1.864087    -0.744597
H     -1.479803    -2.453088    -0.143561
H     -1.687903    -1.221504    -0.981943
6
BHMC Sample 2289
O      4.884395     1.950501     0.670791
H      4.500482     2.632172     1.234408
H      4.172595     1.301446     0.630217
O     -1.007691    -1.864087    -0.744597
H     -1.479803    -2.453088    -0.143561
H     -1.687903    -1.221504    -0.981943
6
BHMC Sample 2290
O      4.884395     1.950501     0.670791
H      4.500482     2.632172     1.234408
H      4.172595     1.301446     0.630217
O     -2.651811    -1.658455    -1.134587
H     -3.123923    -2.247456    -0.533551
H     -3.332023    -1.015872    -1.371933
6
BHMC Sample 2291
O      4.852660     1.431861     1.557679
H      4.453387     2.039669     2.190830
H      4.129567     0.816908     1.388716
O     -2.651811    -1.658455    -1.134587
H     -3.123923    -2.247456    -0.533551
H     -3.332023    -1.015872    -1.371933
6
BHMC Sample 2292
O      4.852660     1.431861     1.557679
H      4.453387     2.039669     2.190830
H      4.129567     0.816908     1.388716
O     -2.911186    -2.806456    -1.141143
H     -3.383298    -3.395457    -0.540107
H     -3.591399    -2.163873    -1.378489
6
BHMC Sample 2293
O      4.852660     1.431861     1.557679
H      4.453387     2.039669     2.190830
H      4.129567     0.816908     1.388716
O     -2.841220    -3.519471     2.978446
H     -2.804175    -4.343071     3.479812
H     -3.497783    -3.008247     3.467843
6
BHMC Sample 2294
O      3.674963     1.891405    -0.736796
H      3.373687     1.496592    -1.563285
H      3.216602     1.353921    -0.080599
O     -2.841220    -3.519471     2.978446
H     -2.804175    -4.343071     3.479812
H     -3.497783    -3.008247     3.467843
6
BHMC Sample 2295
O      3.682107     1.792985    -0.742560
H      3.551492     2.588244    -0.213190
H      2.925409     1.824390    -1.339217
O     -2.841220    -3.519471     2.978446
H     -2.804175    -4.343071     3.479812
H     -3.497783    -3.008247     3.467843
6
BHMC Sample 2296
O     -2.826236    -3.583204     3.037647
H     -2.956851    -2.787946     3.567017
H     -3.582934    -3.551800     2.440990
O      3.667123     1.856718    -0.801761
H      3.704168     1.033119    -0.300395
H      3.010560     2.367943    -0.312364
6
BHMC Sample 2297
O     -2.870089    -3.560069     2.970239
H     -3.050354    -4.050593     3.780560
H     -2.793397    -2.656361     3.297361
O      3.667123     1.856718    -0.801761
H      3.704168     1.033119    -0.300395
H      3.010560     2.367943    -0.312364
6
BHMC Sample 2298
O     -2.829381    -3.527292     3.082491
H     -2.933866    -3.066801     2.241800
H     -3.556007    -4.160385     3.054453
O      3.667123     1.856718    -0.801761
H      3.704168     1.033119    -0.300395
H      3.010560     2.367943    -0.312364
6
BHMC Sample 2299
O     -2.829381    -3.527292     3.082491
H     -2.933866    -3.066801     2.241800
H     -3.556007    -4.160385     3.054453
O      4.238281    -1.042365    -1.109105
H      4.275326    -1.865964    -0.607739
H      3.581718    -0.531141    -0.619708
6
BHMC Sample 2300
O     -2.829381    -3.527292     3.082491
H     -2.933866    -3.066801     2.241800
H     -3.556007    -4.160385     3.054453
O      4.226347    -1.091333    -0.998242
H      4.370357    -1.319162    -1.924747
H      3.676101    -0.300726    -1.062317
6
BHMC Sample 2301
O      4.250120    -1.050186    -1.005060
H      4.145635    -0.589695    -1.845751
H      3.523494    -1.683279    -1.033098
O     -2.853154    -3.568439     3.089309
H     -2.709144    -3.796268     2.162804
H     -3.403399    -2.777833     3.025234
6
BHMC Sample 2302
O      3.122001    -0.865655     0.140683
H      3.017516    -0.405164    -0.700007
H      2.395375    -1.498748     0.112646
O     -2.853154    -3.568439     3.089309
H     -2.709144    -3.796268     2.162804
H     -3.403399    -2.777833     3.025234
6
BHMC Sample 2303
O      3.122001    -0.865655     0.140683
H      3.017516    -0.405164    -0.700007
H      2.395375    -1.498748     0.112646
O     -2.868791    -3.590474     2.993076
H     -2.967402    -2.659903     2.757766
H     -2.896953    -3.564463     3.957682
6
BHMC Sample 2304
O      3.011969    -0.884547     0.069769
H      3.832001    -1.275481    -0.253415
H      3.327311    -0.328578     0.791598
O     -2.868791    -3.590474     2.993076
H     -2.967402    -2.659903     2.757766
H     -2.896953    -3.564463     3.957682
6
BHMC Sample 2305
O      3.949502    -1.780150     3.937088
H      4.725313    -2.255226     4.256696
H      3.857358    -1.082792     4.596467
O     -2.868791    -3.590474     2.993076
H     -2.967402    -2.659903     2.757766
H     -2.896953    -3.564463     3.957682
6
BHMC Sample 2306
O      3.949502    -1.780150     3.937088
H      4.725313    -2.255226     4.256696
H      3.857358    -1.082792     4.596467
O     -3.719017    -4.176223     0.480784
H     -3.817629    -3.245652     0.245474
H     -3.747180    -4.150212     1.445390
6
BHMC Sample 2307
O      4.030137    -1.761636     4.044643
H      4.185985    -1.561477     3.114387
H      3.116854    -2.070385     4.031645
O     -3.719017    -4.176223     0.480784
H     -3.817629    -3.245652     0.245474
H     -3.747180    -4.150212     1.445390
6
BHMC Sample 2308
O      4.030137    -1.761636     4.044643
H      4.185985    -1.561477     3.114387
H      3.116854    -2.070385     4.031645
O     -3.751506    -4.129191     0.459195
H     -4.216687    -4.133660     1.304561
H     -2.832465    -4.008698     0.728971
6
BHMC Sample 2309
O      4.030137    -1.761636     4.044643
H      4.185985    -1.561477     3.114387
H      3.116854    -2.070385     4.031645
O     -3.733336    -4.078489     0.572322
H     -2.960690    -4.605753     0.335537
H     -4.376848    -4.341340    -0.097556
6
BHMC Sample 2310
O      4.030137    -1.761636     4.044643
H      4.185985    -1.561477     3.114387
H      3.116854    -2.070385     4.031645
O     -1.658996    -3.749116     0.725969
H     -0.886349    -4.276379     0.489184
H     -2.302507    -4.011966     0.056091
6
BHMC Sample 2311
O      2.825000    -1.835007     4.742501
H      2.980849    -1.634848     3.812245
H      1.911718    -2.143756     4.729503
O     -1.658996    -3.749116     0.725969
H     -0.886349    -4.276379     0.489184
H     -2.302507    -4.011966     0.056091
6
BHMC Sample 2312
O      3.900526    -2.735448     3.585911
H      3.853438    -2.479958     2.657344
H      2.977448    -2.928625     3.786383
O     -1.658996    -3.749116     0.725969
H     -0.886349    -4.276379     0.489184
H     -2.302507    -4.011966     0.056091
6
BHMC Sample 2313
O     -1.597486    -3.796812     0.715977
H     -1.644574    -3.541322    -0.212590
H     -2.520564    -3.989989     0.916450
O      3.839016    -2.687752     3.595902
H      4.611663    -3.215015     3.359118
H      3.195505    -2.950602     2.926024
6
BHMC Sample 2314
O      3.900526    -2.735448     3.585911
H      3.853438    -2.479958     2.657344
H      2.977448    -2.928625     3.786383
O     -1.658996    -3.749116     0.725969
H     -0.886349    -4.276379     0.489184
H     -2.302507    -4.011966     0.056091
6
BHMC Sample 2315
O      3.900526    -2.735448     3.585911
H      3.853438    -2.479958     2.657344
H      2.977448    -2.928625     3.786383
O     -1.609684    -3.844670     0.688385
H     -1.682839    -3.313332    -0.113728
H     -2.288692    -3.458382     1.255539
6
BHMC Sample 2316
O      3.910317    -2.731433     3.522530
H      3.130480    -2.305133     3.148563
H      3.544996    -3.167169     4.301152
O     -1.609684    -3.844670     0.688385
H     -1.682839    -3.313332    -0.113728
H     -2.288692    -3.458382     1.255539
6
BHMC Sample 2317
O     -4.194409    -4.821027     1.264971
H     -3.800442    -4.251945     0.593655
H     -4.716157    -4.192750     1.777442
O      0.250721    -0.305875     0.078320
H      0.177566     0.225462    -0.723793
H     -0.428287     0.080413     0.645474
6
BHMC Sample 2318
O     -4.194409    -4.821027     1.264971
H     -3.800442    -4.251945     0.593655
H     -4.716157    -4.192750     1.777442
O     -1.108509    -0.888460     0.155381
H     -1.181664    -0.357123    -0.646732
H     -1.787518    -0.502172     0.722535
6
BHMC Sample 2319
O     -4.194409    -4.821027     1.264971
H     -3.800442    -4.251945     0.593655
H     -4.716157    -4.192750     1.777442
O     -1.174390    -0.893683     0.170770
H     -0.358726    -0.765554    -0.328560
H     -1.564797    -0.010845     0.160107
6
BHMC Sample 2320
O     -4.194409    -4.821027     1.264971
H     -3.800442    -4.251945     0.593655
H     -4.716157    -4.192750     1.777442
O     -1.651440    -0.979556     1.292329
H     -0.835776    -0.851427     0.792999
H     -2.041847    -0.096718     1.281666
6
BHMC Sample 2321
O      0.042593    -0.399119     0.052948
H      0.436561     0.169962    -0.618368
H     -0.479154     0.229157     0.565419
O     -1.551534     2.582000    -3.076911
H     -1.303334     2.592119    -4.009301
H     -1.677493     3.519832    -2.885761
6
BHMC Sample 2322
O      0.042593    -0.399119     0.052948
H      0.436561     0.169962    -0.618368
H     -0.479154     0.229157     0.565419
O     -3.208793     3.615849    -2.675006
H     -2.960594     3.625969    -3.607396
H     -3.334752     4.553682    -2.483856
6
BHMC Sample 2323
O     -3.194804     3.601894    -2.707593
H     -2.800836     4.170975    -3.378909
H     -3.716552     4.230171    -2.195122
O      0.028604    -0.385164     0.085535
H      0.276804    -0.375045    -0.846855
H     -0.097355     0.552669     0.276685
6
BHMC Sample 2324
O     -2.913862     2.663505    -1.551310
H     -2.519895     3.232586    -2.222626
H     -3.435610     3.291782    -1.038839
O      0.028604    -0.385164     0.085535
H      0.276804    -0.375045    -0.846855
H     -0.097355     0.552669     0.276685
6
BHMC Sample 2325
O     -3.799144     0.350158    -2.202677
H     -4.565472     0.037471    -1.708009
H     -4.006142     0.056313    -3.097320
O      0.028604    -0.385164     0.085535
H      0.276804    -0.375045    -0.846855
H     -0.097355     0.552669     0.276685
6
BHMC Sample 2326
O      0.089905    -0.298186     0.066440
H     -0.676424    -0.610873     0.561109
H     -0.117094    -0.592030    -0.828202
O     -3.860445     0.263179    -2.183582
H     -3.612245     0.273298    -3.115972
H     -3.986404     1.201012    -1.992432
6
BHMC Sample 2327
O     -0.194776    -0.431256     1.128954
H     -0.961104    -0.743943     1.623622
H     -0.401774    -0.725101     0.234311
O     -3.860445     0.263179    -2.183582
H     -3.612245     0.273298    -3.115972
H     -3.986404     1.201012    -1.992432
6
BHMC Sample 2328
O     -0.194776    -0.431256     1.128954
H     -0.961104    -0.743943     1.623622
H     -0.401774    -0.725101     0.234311
O     -2.029250    -0.051352    -3.482191
H     -1.737084    -0.704800    -4.129263
H     -1.510716     0.726153    -3.724147
6
BHMC Sample 2329
O     -1.929428    -0.010473    -3.509556
H     -2.695756    -0.323160    -3.014887
H     -2.136426    -0.304318    -4.404198
O     -0.294598    -0.472135     1.156318
H     -0.002433    -1.125582     0.509246
H      0.223936     0.305371     0.914363
6
BHMC Sample 2330
O     -1.929428    -0.010473    -3.509556
H     -2.695756    -0.323160    -3.014887
H     -2.136426    -0.304318    -4.404198
O     -2.416162    -1.029140     1.305344
H     -2.123997    -1.682588     0.658273
H     -1.897628    -0.251635     1.063389
6
BHMC Sample 2331
O     -2.027535    -0.044276    -3.479843
H     -1.771583    -0.773934    -4.055879
H     -1.503439     0.682985    -3.834799
O     -2.416162    -1.029140     1.305344
H     -2.123997    -1.682588     0.658273
H     -1.897628    -0.251635     1.063389
6
BHMC Sample 2332
O     -2.027535    -0.044276    -3.479843
H     -1.771583    -0.773934    -4.055879
H     -1.503439     0.682985    -3.834799
O     -2.068054     0.016433     2.047243
H     -1.775889    -0.637015     1.400172
H     -1.549521     0.793938     1.805288
6
BHMC Sample 2333
O     -2.027535    -0.044276    -3.479843
H     -1.771583    -0.773934    -4.055879
H     -1.503439     0.682985    -3.834799
O     -1.574989    -1.228251     2.194242
H     -1.282823    -1.881699     1.547171
H     -1.056455    -0.450746     1.952287
6
BHMC Sample 2334
O     -1.101623    -3.751446    -3.020941
H     -0.578667    -3.251822    -3.658610
H     -1.915846    -3.910532    -3.512174
O     -1.574989    -1.228251     2.194242
H     -1.282823    -1.881699     1.547171
H     -1.056455    -0.450746     1.952287
6
BHMC Sample 2335
O     -1.101623    -3.751446    -3.020941
H     -0.578667    -3.251822    -3.658610
H     -1.915846    -3.910532    -3.512174
O      4.121107    -1.389315    -1.899546
H      3.213193    -1.407375    -2.225770
H      3.997938    -1.413086    -0.942363
6
BHMC Sample 2336
O     -1.101623    -3.751446    -3.020941
H     -0.578667    -3.251822    -3.658610
H     -1.915846    -3.910532    -3.512174
O      4.128861    -1.399895    -1.879381
H      3.733002    -1.099274    -1.052350
H      3.355061    -1.553253    -2.435843
6
BHMC Sample 2337
O     -1.101623    -3.751446    -3.020941
H     -0.578667    -3.251822    -3.658610
H     -1.915846    -3.910532    -3.512174
O      4.080260    -1.418410    -1.924081
H      4.435012    -1.621193    -1.049961
H      3.424446    -0.737462    -1.728756
6
BHMC Sample 2338
O     -1.101623    -3.751446    -3.020941
H     -0.578667    -3.251822    -3.658610
H     -1.915846    -3.910532    -3.512174
O      4.239260    -3.153286    -1.646018
H      4.594013    -3.356069    -0.771898
H      3.583446    -2.472337    -1.450693
6
BHMC Sample 2339
O      0.639684    -4.021209    -2.673189
H      1.162639    -3.521584    -3.310858
H     -0.174540    -4.180294    -3.164422
O      4.239260    -3.153286    -1.646018
H      4.594013    -3.356069    -0.771898
H      3.583446    -2.472337    -1.450693
6
BHMC Sample 2340
O      0.097089    -0.113513     0.376301
H      0.620045     0.386111    -0.261368
H     -0.717134    -0.272598    -0.114933
O      2.747608     1.864360    -2.275745
H      2.644730     2.196790    -3.175724
H      2.171693     2.451865    -1.770676
6
BHMC Sample 2341
O      1.640529    -0.452436     1.070091
H      1.801770     0.112294     0.305362
H      0.734532    -0.743565     0.915197
O      2.747608     1.864360    -2.275745
H      2.644730     2.196790    -3.175724
H      2.171693     2.451865    -1.770676
6
BHMC Sample 2342
O      2.751299     1.900525    -2.246386
H      2.912540     2.465255    -3.011114
H      1.845302     1.609396    -2.401279
O      1.636838    -0.488600     1.040732
H      1.533960    -0.156171     0.140752
H      1.060923     0.098904     1.545801
6
BHMC Sample 2343
O      2.751299     1.900525    -2.246386
H      2.912540     2.465255    -3.011114
H      1.845302     1.609396    -2.401279
O      1.597648    -0.481217     0.967304
H      0.923040    -0.314289     1.636703
H      2.293871     0.139836     1.215297
6
BHMC Sample 2344
O      2.986917     2.117147    -1.981710
H      3.203342     2.723132    -2.699813
H      2.142657     1.754979    -2.274351
O      1.597648    -0.481217     0.967304
H      0.923040    -0.314289     1.636703
H      2.293871     0.139836     1.215297
6
BHMC Sample 2345
O      0.209278    -0.081272     0.336914
H      0.425703     0.524713    -0.381188
H     -0.634982    -0.443440     0.044274
O     -3.932441    -1.610442    -1.145660
H     -4.787814    -1.373295    -0.767301
H     -3.692654    -0.812085    -1.632551
6
BHMC Sample 2346
O      0.209278    -0.081272     0.336914
H      0.425703     0.524713    -0.381188
H     -0.634982    -0.443440     0.044274
O     -2.625451    -0.412566     0.336237
H     -3.480824    -0.175418     0.714595
H     -2.385663     0.385791    -0.150654
6
BHMC Sample 2347
O      0.209278    -0.081272     0.336914
H      0.425703     0.524713    -0.381188
H     -0.634982    -0.443440     0.044274
O      0.521361     2.459300    -0.925357
H      0.459154     3.420311    -0.864987
H     -0.406166     2.192334    -0.944258
6
BHMC Sample 2348
O      0.024220    -2.593439    -1.586182
H      0.237246    -2.082374    -0.796776
H     -0.821243    -2.989214    -1.345075
O      0.329912    -0.231348    -0.013823
H      0.267704     0.729663     0.046547
H     -0.597615    -0.498314    -0.032724
6
BHMC Sample 2349
O      0.309920    -0.198965    -0.069163
H      0.522946     0.312100     0.720242
H     -0.535544    -0.594740     0.171944
O      0.044212    -2.625822    -1.530841
H     -0.017996    -1.664811    -1.470472
H     -0.883315    -2.892788    -1.549742
6
BHMC Sample 2350
O      0.601496     2.359607    -1.158345
H      0.817921     2.965592    -1.876447
H     -0.242764     1.997440    -1.450985
O      0.329912    -0.231348    -0.013823
H      0.267704     0.729663     0.046547
H     -0.597615    -0.498314    -0.032724
6
BHMC Sample 2351
O     -1.657669    -1.760260     1.193701
H     -2.124097    -2.185529     1.922618
H     -0.736421    -1.867910     1.456933
O      0.329912    -0.231348    -0.013823
H      0.267704     0.729663     0.046547
H     -0.597615    -0.498314    -0.032724
6
BHMC Sample 2352
O      1.016443     2.041359     1.439098
H      1.212911     2.558490     2.228848
H      1.414587     1.190045     1.654326
O      0.329912    -0.231348    -0.013823
H      0.267704     0.729663     0.046547
H     -0.597615    -0.498314    -0.032724
6
BHMC Sample 2353
O      1.055591     1.901624     1.616194
H      1.205749     2.368756     2.446236
H      1.337153     1.006495     1.837657
O      0.329912    -0.231348    -0.013823
H      0.267704     0.729663     0.046547
H     -0.597615    -0.498314    -0.032724
6
BHMC Sample 2354
O     -0.143907     0.142665    -0.350502
H      0.006251     0.609798     0.479540
H      0.137656    -0.752463    -0.129038
O     -1.315247     2.627434     0.081679
H     -1.218731     1.943812    -0.592414
H     -2.272459     2.668043     0.200136
6
BHMC Sample 2355
O     -0.143907     0.142665    -0.350502
H      0.006251     0.609798     0.479540
H      0.137656    -0.752463    -0.129038
O     -0.070546     2.922201    -0.309382
H     -0.227599     2.178529    -0.903809
H      0.677849     3.366729    -0.726795
6
BHMC Sample 2356
O     -0.143907     0.142665    -0.350502
H      0.006251     0.609798     0.479540
H      0.137656    -0.752463    -0.129038
O      0.499443     2.803358     0.229449
H      0.346558     2.207348    -0.513824
H      1.401748     3.106979     0.069466
6
BHMC Sample 2357
O     -0.143907     0.142665    -0.350502
H      0.006251     0.609798     0.479540
H      0.137656    -0.752463    -0.129038
O     -1.390490     2.355788     0.823230
H     -1.438580     1.784595     0.047032
H     -2.262481     2.239223     1.220697
6
BHMC Sample 2358
O     -0.184731     0.100146    -0.298825
H      0.374713     0.599018    -0.905353
H      0.417156    -0.066813     0.435638
O     -1.390490     2.355788     0.823230
H     -1.438580     1.784595     0.047032
H     -2.262481     2.239223     1.220697
6
BHMC Sample 2359
O      0.438288     0.328094    -2.661891
H      1.356990     0.039502    -2.711194
H      0.526908     1.286178    -2.723532
O      0.306693     0.229252     0.126244
H      0.258604    -0.341940    -0.649954
H     -0.565297     0.112688     0.523711
6
BHMC Sample 2360
O      0.438288     0.328094    -2.661891
H      1.356990     0.039502    -2.711194
H      0.526908     1.286178    -2.723532
O      0.201966     0.193717     0.146724
H      0.271649     0.495333    -0.767185
H      1.083895    -0.160572     0.315882
6
BHMC Sample 2361
O     -0.335774    -0.223164     0.036981
H      0.582928    -0.511756    -0.012322
H     -0.247155     0.734920    -0.024660
O      0.973005     0.669243     2.675429
H      0.532597     0.631882     1.817699
H      0.991152    -0.259065     2.939719
6
BHMC Sample 2362
O     -0.335774    -0.223164     0.036981
H      0.582928    -0.511756    -0.012322
H     -0.247155     0.734920    -0.024660
O     -0.710255    -2.584094    -1.801105
H     -0.433745    -1.977474    -1.103530
H     -1.452835    -2.114859    -2.201514
6
BHMC Sample 2363
O     -0.335774    -0.223164     0.036981
H      0.582928    -0.511756    -0.012322
H     -0.247155     0.734920    -0.024660
O      0.270533    -3.177564    -0.156695
H      0.547043    -2.570944     0.540880
H     -0.472048    -2.708329    -0.557104
6
BHMC Sample 2364
O     -0.335774    -0.223164     0.036981
H      0.582928    -0.511756    -0.012322
H     -0.247155     0.734920    -0.024660
O      0.316180    -3.140878     0.479134
H      0.485564    -2.620355    -0.315486
H     -0.365658    -2.622824     0.924838
6
BHMC Sample 2365
O     -0.335774    -0.223164     0.036981
H      0.582928    -0.511756    -0.012322
H     -0.247155     0.734920    -0.024660
O     -1.640189    -0.411334     2.748527
H     -1.409692    -1.127630     2.144501
H     -1.661503     0.355361     2.162303
6
BHMC Sample 2366
O     -2.273888     0.466714    -0.060083
H     -1.527222     0.590474    -0.657496
H     -2.533465     1.376542     0.125423
O     -1.640189    -0.411334     2.748527
H     -1.409692    -1.127630     2.144501
H     -1.661503     0.355361     2.162303
6
BHMC Sample 2367
O     -0.162363    -0.344529     0.137302
H      0.584303    -0.220769    -0.460111
H     -0.421940     0.565298     0.322809
O     -1.251488    -1.939474    -2.251105
H     -0.344702    -1.779728    -2.539682
H     -1.378787    -1.257031    -1.580284
6
BHMC Sample 2368
O     -0.162363    -0.344529     0.137302
H      0.584303    -0.220769    -0.460111
H     -0.421940     0.565298     0.322809
O     -1.207285    -1.897479    -2.297198
H     -0.655455    -2.355216    -1.651430
H     -1.769620    -1.348086    -1.736947
6
BHMC Sample 2369
O     -1.272338    -1.030252     2.206276
H     -1.363006    -1.827492     1.671564
H     -2.188463    -0.842575     2.440946
O      0.003501    -0.030552    -0.402006
H      0.555332    -0.488289     0.243761
H     -0.558833     0.518841     0.158245
6
BHMC Sample 2370
O     -1.272338    -1.030252     2.206276
H     -1.363006    -1.827492     1.671564
H     -2.188463    -0.842575     2.440946
O     -1.743350    -2.839600     4.686655
H     -0.843879    -2.711874     4.361549
H     -2.245086    -2.951835     3.869588
6
BHMC Sample 2371
O      0.335598     0.203188     0.100014
H      0.244930    -0.594052    -0.434698
H     -0.580528     0.390865     0.334684
O     -2.332362    -1.514462    -1.234102
H     -2.392421    -1.434186    -0.274412
H     -1.951027    -0.665227    -1.489675
6
BHMC Sample 2372
O      1.167342    -1.829903    -2.244426
H      1.588750    -1.133410    -1.727666
H      0.317438    -1.922156    -1.798633
O     -0.107092    -0.309837    -0.234706
H     -0.167151    -0.229561     0.724984
H      0.274243     0.539398    -0.490278
6
BHMC Sample 2373
O      1.167342    -1.829903    -2.244426
H      1.588750    -1.133410    -1.727666
H      0.317438    -1.922156    -1.798633
O      0.443035     0.041876    -0.259402
H      0.548235     0.218403     0.683375
H      0.895372     0.793317    -0.662715
6
BHMC Sample 2374
O      0.142832    -0.201414    -0.320851
H      0.564240     0.495080     0.195909
H     -0.707072    -0.293667     0.124942
O     -2.039298    -0.732004     1.096879
H     -2.976889    -0.509318     1.145759
H     -1.749473    -0.610207     2.009623
6
BHMC Sample 2375
O      0.142832    -0.201414    -0.320851
H      0.564240     0.495080     0.195909
H     -0.707072    -0.293667     0.124942
O     -0.047355     1.871754     1.546611
H      0.242967     2.107110     2.436204
H      0.427967     2.508378     0.998237
6
BHMC Sample 2376
O     -0.372913    -3.033011     0.422907
H      0.111463    -2.199656     0.447980
H     -1.086936    -2.829928    -0.192322
O     -0.255215    -0.290660    -0.113740
H      0.035107    -0.055304     0.775853
H      0.220107     0.345964    -0.662113
6
BHMC Sample 2377
O     -2.639564    -0.025193    -1.559538
H     -2.058976     0.265072    -0.846521
H     -2.258816    -0.880248    -1.790819
O     -0.255215    -0.290660    -0.113740
H      0.035107    -0.055304     0.775853
H      0.220107     0.345964    -0.662113
6
BHMC Sample 2378
O     -2.923937    -0.643272     0.660974
H     -2.212724    -0.069096     0.354011
H     -2.553031    -1.519721     0.506553
O     -0.255215    -0.290660    -0.113740
H      0.035107    -0.055304     0.775853
H      0.220107     0.345964    -0.662113
6
BHMC Sample 2379
O     -2.965942    -0.593384     0.520950
H     -2.228448    -0.031148     0.256899
H     -2.606351    -1.475768     0.373745
O     -0.255215    -0.290660    -0.113740
H      0.035107    -0.055304     0.775853
H      0.220107     0.345964    -0.662113
6
BHMC Sample 2380
O     -2.965942    -0.593384     0.520950
H     -2.228448    -0.031148     0.256899
H     -2.606351    -1.475768     0.373745
O     -0.874759     1.019872    -0.347744
H     -0.603471     1.320565     0.528066
H     -0.859270     1.837054    -0.861465
6
BHMC Sample 2381
O     -0.365695     0.106717     0.137085
H      0.371799     0.668952    -0.126966
H     -0.006104    -0.775668    -0.010120
O      0.640549    -2.429732    -0.396186
H      0.765493    -2.688778     0.524868
H      0.236334    -3.217842    -0.780150
6
BHMC Sample 2382
O     -0.365695     0.106717     0.137085
H      0.371799     0.668952    -0.126966
H     -0.006104    -0.775668    -0.010120
O      2.225758     0.847186    -0.606869
H      2.691869     0.175167    -0.094827
H      2.701191     0.834460    -1.446950
6
BHMC Sample 2383
O     -2.894130     0.371939    -0.957569
H     -2.162047     0.505929    -0.344520
H     -2.531735    -0.288560    -1.559225
O     -0.313848     0.228248     0.109346
H      0.152263    -0.443771     0.621388
H      0.161585     0.215522    -0.730734
6
BHMC Sample 2384
O     -0.364826     0.175503    -0.003798
H      0.367257     0.309493     0.609252
H     -0.002431    -0.484996    -0.605454
O      1.512084    -1.480747    -1.249186
H      1.892472    -2.337108    -1.018955
H      2.269126    -0.887891    -1.163492
6
BHMC Sample 2385
O     -3.009251    -0.208647     0.576428
H     -2.593134    -0.496763     1.397138
H     -2.246268     0.047136     0.045380
O     -0.379144     0.087835    -0.105309
H      0.001245    -0.768526     0.124923
H      0.377898     0.680691    -0.019614
6
BHMC Sample 2386
O     -0.393033     0.010778    -0.096554
H      0.023084    -0.277338     0.724156
H      0.369949     0.266561    -0.627602
O      2.220431     0.554972    -0.682891
H      2.508355     1.074787     0.077338
H      3.044496     0.150297    -0.981369
6
BHMC Sample 2387
O     -0.393033     0.010778    -0.096554
H      0.023084    -0.277338     0.724156
H      0.369949     0.266561    -0.627602
O      0.952386     0.544401     2.205963
H      0.913929     1.507694     2.246491
H      0.996959     0.299320     3.138639
6
BHMC Sample 2388
O      0.886754     0.586396     2.244210
H      1.302871     0.298280     3.064920
H      1.649736     0.842179     1.713162
O     -0.327401    -0.031218    -0.134801
H     -0.365858     0.932076    -0.094273
H     -0.282828    -0.276298     0.797875
6
BHMC Sample 2389
O     -0.393033     0.010778    -0.096554
H      0.023084    -0.277338     0.724156
H      0.369949     0.266561    -0.627602
O     -2.124818    -2.092607     0.431124
H     -2.437446    -1.364085     0.981193
H     -1.674566    -1.631321    -0.287502
6
BHMC Sample 2390
O     -0.283353     1.765074    -1.667911
H     -1.215079     1.516856    -1.666078
H     -0.152165     2.039559    -2.582803
O     -0.045875    -0.396602     0.056185
H     -0.358503     0.331919     0.606255
H      0.404378     0.064683    -0.662440
6
BHMC Sample 2391
O      0.266846    -0.008755     0.304353
H     -0.664880    -0.256974     0.306186
H      0.398034     0.265729    -0.610539
O     -0.323394     0.942559     2.843716
H     -0.189928    -0.006647     2.954403
H      0.198444     1.134614     2.054581
6
BHMC Sample 2392
O      0.266846    -0.008755     0.304353
H     -0.664880    -0.256974     0.306186
H      0.398034     0.265729    -0.610539
O      0.352473    -2.208454     2.019460
H      0.019035    -1.483478     2.561941
H      0.850809    -1.743530     1.335763
6
BHMC Sample 2393
O      0.406492    -2.143344     2.062647
H     -0.525234    -2.391563     2.064481
H      0.537681    -1.868860     1.147755
O      0.212826    -0.073865     0.261165
H     -0.120611     0.651111     0.803647
H      0.711162     0.391059    -0.422532
6
BHMC Sample 2394
O      1.246032    -2.814044     0.216012
H      0.837755    -3.226733    -0.553875
H      0.525359    -2.271899     0.557021
O     -0.054966    -0.396633     0.047072
H     -0.388404     0.328342     0.589553
H      0.443370     0.068290    -0.636625
6
BHMC Sample 2395
O      0.376317    -0.043152     0.142959
H     -0.031961    -0.455841    -0.626928
H     -0.344356     0.498993     0.483969
O     -1.864656     0.016116     1.736552
H     -2.284708     0.523802     2.441441
H     -1.911517    -0.886709     2.075143
6
BHMC Sample 2396
O      0.376317    -0.043152     0.142959
H     -0.031961    -0.455841    -0.626928
H     -0.344356     0.498993     0.483969
O     -1.160359    -2.135251    -0.766215
H     -1.190516    -2.818548    -1.446842
H     -1.338562    -2.636871     0.039114
6
BHMC Sample 2397
O     -0.898980     2.896050     0.568018
H     -0.475378     2.347550    -0.102383
H     -0.143315     3.197171     1.085585
O      0.069453     0.394972    -0.041568
H      0.039297    -0.288324    -0.722194
H     -0.108750    -0.106648     0.763762
6
BHMC Sample 2398
O     -0.898980     2.896050     0.568018
H     -0.475378     2.347550    -0.102383
H     -0.143315     3.197171     1.085585
O      0.373485     0.504034     0.058775
H      0.417760    -0.213112    -0.585272
H      0.280555     0.027722     0.893296
6
BHMC Sample 2399
O     -1.073618     2.467492    -1.522782
H     -0.793290     2.171873    -0.648851
H     -0.228931     2.611488    -1.964764
O      0.016219     0.397820    -0.063491
H      0.060493    -0.319327    -0.707538
H     -0.076712    -0.078493     0.771029
6
BHMC Sample 2400
O     -1.073618     2.467492    -1.522782
H     -0.793290     2.171873    -0.648851
H     -0.228931     2.611488    -1.964764
O     -0.937774     1.236056     0.922471
H     -1.519918     0.475783     0.803521
H     -1.007915     1.404510     1.870436
6
BHMC Sample 2401
O     -1.073618     2.467492    -1.522782
H     -0.793290     2.171873    -0.648851
H     -0.228931     2.611488    -1.964764
O     -0.648269     1.052660     0.793421
H     -1.358641     0.400185     0.766888
H     -0.495909     1.154762     1.741206
6
BHMC Sample 2402
O     -0.375005     0.050541    -0.143983
H     -0.094677    -0.245078     0.729948
H      0.469682     0.194537    -0.585965
O      0.056697    -0.226857     2.554934
H     -0.646998     0.316040     2.930609
H      0.204824    -0.882640     3.247712
6
BHMC Sample 2403
O     -0.037337    -0.224690     2.590549
H      0.242991    -0.520308     3.464480
H      0.807349    -0.080693     2.148566
O     -0.280970     0.048373    -0.179597
H     -0.984666     0.591270     0.196078
H     -0.132844    -0.607410     0.513181
6
BHMC Sample 2404
O     -0.375005     0.050541    -0.143983
H     -0.094677    -0.245078     0.729948
H      0.469682     0.194537    -0.585965
O     -2.444389    -1.098007     1.341238
H     -2.819450    -0.299220     0.950949
H     -1.734456    -1.316342     0.724587
6
BHMC Sample 2405
O     -2.488601    -1.057045     1.260728
H     -2.208273    -1.352663     2.134659
H     -1.643914    -0.913048     0.818745
O     -0.330794     0.009579    -0.063472
H     -0.705854     0.808365    -0.453761
H      0.379140    -0.208757    -0.680123
6
BHMC Sample 2406
O     -0.780676    -2.657015     1.350591
H     -0.891464    -2.585647     2.305768
H     -0.769218    -1.731195     1.081693
O     -0.111624    -0.193484     0.335647
H     -0.486685     0.605303    -0.054642
H      0.598309    -0.411819    -0.281004
6
BHMC Sample 2407
O     -0.087329    -0.216801     0.240906
H     -0.198117    -0.145434     1.196082
H     -0.075871     0.709018    -0.027993
O     -0.804971    -2.633697     1.445333
H     -1.180032    -1.834910     1.055043
H     -0.095038    -2.852032     0.828681
6
BHMC Sample 2408
O     -0.780676    -2.657015     1.350591
H     -0.891464    -2.585647     2.305768
H     -0.769218    -1.731195     1.081693
O     -0.111624    -0.193484     0.335647
H     -0.486685     0.605303    -0.054642
H      0.598309    -0.411819    -0.281004
6
BHMC Sample 2409
O      0.033110    -0.332396    -0.228759
H     -0.077678    -0.261028     0.726417
H      0.044568     0.593424    -0.497658
O      0.328470    -0.481735     2.498321
H     -0.168037    -0.532106     3.324154
H      0.967037    -1.199067     2.596308
6
BHMC Sample 2410
O      0.033110    -0.332396    -0.228759
H     -0.077678    -0.261028     0.726417
H      0.044568     0.593424    -0.497658
O      0.702162     2.131135    -1.243704
H      0.327101     2.929922    -1.633993
H      1.412095     1.912800    -1.860355
6
BHMC Sample 2411
O     -2.269431    -1.260107     1.659847
H     -1.989104    -1.555725     2.533778
H     -1.424745    -1.116111     1.217864
O     -0.111624    -0.193484     0.335647
H     -0.486685     0.605303    -0.054642
H      0.598309    -0.411819    -0.281004
6
BHMC Sample 2412
O     -2.254273    -1.230313     1.713503
H     -1.350211    -0.995535     1.474171
H     -2.304220    -2.149191     1.425843
O     -0.111624    -0.193484     0.335647
H     -0.486685     0.605303    -0.054642
H      0.598309    -0.411819    -0.281004
6
BHMC Sample 2413
O     -0.284705     0.228033     0.175664
H      0.619357     0.462811    -0.063668
H     -0.334652    -0.690844    -0.111996
O     -0.840609    -1.999269    -1.339178
H     -1.679095    -1.761036    -1.752992
H     -0.466920    -2.624321    -1.972898
6
BHMC Sample 2414
O     -0.284705     0.228033     0.175664
H      0.619357     0.462811    -0.063668
H     -0.334652    -0.690844    -0.111996
O      1.857944     1.264863    -1.202192
H      1.482883     2.063649    -1.592481
H      2.567877     1.046527    -1.818843
6
BHMC Sample 2415
O     -0.723325     0.116680     2.999116
H     -0.553059    -0.294167     2.143579
H      0.114056    -0.021490     3.456589
O     -0.111624    -0.193484     0.335647
H     -0.486685     0.605303    -0.054642
H      0.598309    -0.411819    -0.281004
6
BHMC Sample 2416
O     -2.254273    -1.230313     1.713503
H     -1.350211    -0.995535     1.474171
H     -2.304220    -2.149191     1.425843
O     -0.111624    -0.193484     0.335647
H     -0.486685     0.605303    -0.054642
H      0.598309    -0.411819    -0.281004
6
BHMC Sample 2417
O     -0.723325     0.116680     2.999116
H     -0.553059    -0.294167     2.143579
H      0.114056    -0.021490     3.456589
O     -0.111624    -0.193484     0.335647
H     -0.486685     0.605303    -0.054642
H      0.598309    -0.411819    -0.281004
6
BHMC Sample 2418
O     -2.254273    -1.230313     1.713503
H     -1.350211    -0.995535     1.474171
H     -2.304220    -2.149191     1.425843
O     -0.111624    -0.193484     0.335647
H     -0.486685     0.605303    -0.054642
H      0.598309    -0.411819    -0.281004
6
BHMC Sample 2419
O     -0.284705     0.228033     0.175664
H      0.619357     0.462811    -0.063668
H     -0.334652    -0.690844    -0.111996
O     -0.840609    -1.999269    -1.339178
H     -1.679095    -1.761036    -1.752992
H     -0.466920    -2.624321    -1.972898
6
BHMC Sample 2420
O     -0.284705     0.228033     0.175664
H      0.619357     0.462811    -0.063668
H     -0.334652    -0.690844    -0.111996
O      0.749600    -2.171750    -0.755287
H      0.281991    -2.302592    -1.589121
H      1.572649    -2.654689    -0.901213
6
BHMC Sample 2421
O      1.185751     0.417344     0.165774
H      1.953282     0.270276    -0.399024
H      0.681022    -0.392986     0.030893
O      0.749600    -2.171750    -0.755287
H      0.281991    -2.302592    -1.589121
H      1.572649    -2.654689    -0.901213
6
BHMC Sample 2422
O     -1.363429    -0.512979     2.709269
H     -0.940551    -1.337965     2.444127
H     -1.163665     0.062406     1.961870
O     -0.118480     0.204593     0.326586
H     -0.586089     0.073752    -0.507247
H      0.704569    -0.278345     0.180660
6
BHMC Sample 2423
O     -1.363429    -0.512979     2.709269
H     -0.940551    -1.337965     2.444127
H     -1.163665     0.062406     1.961870
O      0.249580     1.243378     1.316480
H      0.446897     2.096028     1.722819
H     -0.134797     1.501462     0.469378
6
BHMC Sample 2424
O      0.204274     1.319494     1.348473
H      0.627153     0.494507     1.083331
H      0.404039     1.894879     0.601075
O     -1.318124    -0.589095     2.677276
H     -1.120807     0.263555     3.083614
H     -1.702501    -0.331011     1.830174
6
BHMC Sample 2425
O     -0.207548     0.083200     0.337514
H      0.215331    -0.741786     0.072371
H     -0.007783     0.658585    -0.409885
O     -2.321257     1.887664     0.387115
H     -1.934283     1.549393     1.203743
H     -2.535493     1.077377    -0.091917
6
BHMC Sample 2426
O     -0.207548     0.083200     0.337514
H      0.215331    -0.741786     0.072371
H     -0.007783     0.658585    -0.409885
O     -0.218846     2.606805     1.502678
H     -0.839456     1.923885     1.784670
H      0.633135     2.161223     1.589393
6
BHMC Sample 2427
O     -0.240739     2.557627     1.579963
H      0.182140     1.732641     1.314821
H     -0.040974     3.133012     0.832564
O     -0.185655     0.132378     0.260228
H     -0.806265    -0.550542     0.542221
H      0.666327    -0.313203     0.346943
6
BHMC Sample 2428
O     -0.240739     2.557627     1.579963
H      0.182140     1.732641     1.314821
H     -0.040974     3.133012     0.832564
O     -0.145546     0.085155     0.340767
H     -0.501182    -0.761377     0.044179
H     -0.275362     0.647160    -0.433334
6
BHMC Sample 2429
O      2.147348     1.967902     0.811978
H      1.328666     1.500583     1.014714
H      1.831746     2.691754     0.258794
O      0.161817     0.094842     0.356896
H     -0.193819    -0.751689     0.060308
H      0.032002     0.656847    -0.417205
6
BHMC Sample 2430
O      2.147348     1.967902     0.811978
H      1.328666     1.500583     1.014714
H      1.831746     2.691754     0.258794
O      1.154048    -0.528505     1.319426
H      1.193828    -1.433556     1.651627
H      1.425563    -0.633438     0.398990
6
BHMC Sample 2431
O      2.147348     1.967902     0.811978
H      1.328666     1.500583     1.014714
H      1.831746     2.691754     0.258794
O      1.195876    -0.554662     1.341857
H      0.283368    -0.789672     1.134116
H      1.672133    -0.862158     0.560474
6
BHMC Sample 2432
O      0.056132     1.407915    -2.562465
H     -0.518381     1.244526    -1.805519
H     -0.085424     2.348412    -2.720600
O      0.145417     0.180835     0.329708
H     -0.767091    -0.054175     0.121967
H      0.621674    -0.126661    -0.451675
6
BHMC Sample 2433
O      0.238689    -0.259036    -0.199604
H     -0.335823    -0.422425     0.557343
H      0.097134     0.681461    -0.357739
O      1.856952     2.413838    -0.539582
H      1.123621     2.635853    -1.126090
H      2.108784     1.533902    -0.846546
6
BHMC Sample 2434
O      0.238689    -0.259036    -0.199604
H     -0.335823    -0.422425     0.557343
H      0.097134     0.681461    -0.357739
O      0.891285     2.837683    -0.131287
H      0.406117     2.821896    -0.965204
H      1.519243     2.113041    -0.243080
6
BHMC Sample 2435
O     -1.047854    -1.050649     2.543887
H     -1.489939    -1.899394     2.425897
H     -1.078424    -0.684540     1.652479
O     -0.047596     0.246810     0.315237
H     -0.532765     0.231023    -0.518680
H      0.580361    -0.477832     0.203443
6
BHMC Sample 2436
O     -1.047854    -1.050649     2.543887
H     -1.489939    -1.899394     2.425897
H     -1.078424    -0.684540     1.652479
O     -0.095831     0.173395     0.242420
H      0.730854     0.298762    -0.239173
H      0.082326     0.619668     1.079697
6
BHMC Sample 2437
O     -2.491230    -1.132126     0.280624
H     -2.727145    -1.617791     1.079499
H     -1.536577    -1.039287     0.378591
O     -0.095831     0.173395     0.242420
H      0.730854     0.298762    -0.239173
H      0.082326     0.619668     1.079697
6
BHMC Sample 2438
O     -0.239579     0.130942    -0.298948
H     -0.475494    -0.354723     0.499928
H      0.715074     0.223781    -0.200980
O     -1.701804    -0.437557     1.933149
H     -2.355210    -1.031213     2.322623
H     -1.400031     0.068768     2.697676
6
BHMC Sample 2439
O     -0.255879     0.082397    -0.320909
H     -0.497616    -0.397118     0.479939
H      0.703155     0.137315    -0.238338
O     -1.701804    -0.437557     1.933149
H     -2.355210    -1.031213     2.322623
H     -1.400031     0.068768     2.697676
6
BHMC Sample 2440
O      0.624748    -0.531255    -3.005860
H      0.770718    -0.564422    -2.053325
H      0.732795    -1.456035    -3.256229
O      0.117211     0.029110    -0.384667
H     -0.536195    -0.564545     0.004807
H      0.418984     0.535436     0.379860
6
BHMC Sample 2441
O     -0.084672     0.319316    -0.234055
H      0.061297     0.286148     0.718480
H      0.023375    -0.605465    -0.484425
O     -0.714900    -2.008864    -1.508761
H     -1.365412    -2.534379    -1.027383
H     -0.459814    -2.601683    -2.226696
6
BHMC Sample 2442
O     -0.065477     0.328040    -0.221402
H     -0.251214    -0.508400    -0.663667
H      0.031223     0.050616     0.696892
O     -0.714900    -2.008864    -1.508761
H     -1.365412    -2.534379    -1.027383
H     -0.459814    -2.601683    -2.226696
6
BHMC Sample 2443
O      0.308978     2.955005     0.995846
H      0.227305     2.064507     0.635193
H     -0.613990     3.207271     1.114466
O      0.131808     0.372778     0.078852
H     -0.518703    -0.152737     0.560230
H      0.386895    -0.220041    -0.639083
6
BHMC Sample 2444
O      0.165896     0.345915     0.079159
H      0.084223    -0.544584    -0.281494
H     -0.757072     0.598181     0.197778
O      0.274890     2.981869     0.995540
H     -0.375621     2.456354     1.476918
H      0.529976     2.389049     0.277605
6
BHMC Sample 2445
O      0.587041     0.434434    -0.094370
H      0.660544    -0.425887    -0.523526
H     -0.363300     0.593415    -0.128359
O      0.274890     2.981869     0.995540
H     -0.375621     2.456354     1.476918
H      0.529976     2.389049     0.277605
6
BHMC Sample 2446
O      0.283194     1.798049    -1.505141
H      0.283502     1.464363    -2.409786
H     -0.455275     2.417702    -1.521674
O      0.274890     2.981869     0.995540
H     -0.375621     2.456354     1.476918
H      0.529976     2.389049     0.277605
6
BHMC Sample 2447
O     -3.657045    -4.022439    -0.402025
H     -3.898678    -4.448556    -1.232547
H     -4.091162    -4.588968     0.246177
O      2.763648    -0.834607    -2.211580
H      2.915002    -0.525216    -3.112927
H      2.842501    -0.021431    -1.697323
6
BHMC Sample 2448
O      2.814339    -0.716254    -2.223038
H      2.572707    -1.142371    -3.053560
H      2.380222    -1.282783    -1.574836
O     -3.707737    -4.140792    -0.390567
H     -3.556383    -3.831401    -1.291914
H     -3.628884    -3.327615     0.123690
6
BHMC Sample 2449
O      2.814339    -0.716254    -2.223038
H      2.572707    -1.142371    -3.053560
H      2.380222    -1.282783    -1.574836
O     -3.247876    -4.242222     0.903662
H     -3.096522    -3.932830     0.002316
H     -3.169023    -3.429045     1.417919
6
BHMC Sample 2450
O      3.003913    -1.100916    -2.252973
H      3.003823    -1.843532    -2.867994
H      2.488469    -1.451425    -1.517419
O     -3.247876    -4.242222     0.903662
H     -3.096522    -3.932830     0.002316
H     -3.169023    -3.429045     1.417919
6
BHMC Sample 2451
O      3.003913    -1.100916    -2.252973
H      3.003823    -1.843532    -2.867994
H      2.488469    -1.451425    -1.517419
O     -2.585134    -3.952808     1.994141
H     -2.433780    -3.643417     1.092795
H     -2.506281    -3.139632     2.508398
6
BHMC Sample 2452
O     -2.543407    -3.828833     1.965738
H     -2.543497    -4.571449     1.350717
H     -3.058851    -4.179342     2.701292
O      2.962186    -1.224891    -2.224570
H      3.113540    -0.915500    -3.125917
H      3.041039    -0.411715    -1.710313
6
BHMC Sample 2453
O      3.003913    -1.100916    -2.252973
H      3.003823    -1.843532    -2.867994
H      2.488469    -1.451425    -1.517419
O     -2.585134    -3.952808     1.994141
H     -2.433780    -3.643417     1.092795
H     -2.506281    -3.139632     2.508398
6
BHMC Sample 2454
O     -2.543407    -3.828833     1.965738
H     -2.543497    -4.571449     1.350717
H     -3.058851    -4.179342     2.701292
O      2.962186    -1.224891    -2.224570
H      3.113540    -0.915500    -3.125917
H      3.041039    -0.411715    -1.710313
6
BHMC Sample 2455
O     -2.543407    -3.828833     1.965738
H     -2.543497    -4.571449     1.350717
H     -3.058851    -4.179342     2.701292
O      4.452084    -2.999851    -1.841420
H      4.603438    -2.690459    -2.742766
H      4.530937    -2.186674    -1.327163
6
BHMC Sample 2456
O     -3.152371    -1.751854     2.140001
H     -3.152461    -2.494470     1.524980
H     -3.667815    -2.102363     2.875555
O      4.452084    -2.999851    -1.841420
H      4.603438    -2.690459    -2.742766
H      4.530937    -2.186674    -1.327163
6
BHMC Sample 2457
O      4.493810    -2.875875    -1.869823
H      4.493721    -3.618491    -2.484844
H      3.978367    -3.226384    -1.134269
O     -3.194098    -1.875830     2.168404
H     -3.042744    -1.566438     1.267058
H     -3.115245    -1.062653     2.682661
6
BHMC Sample 2458
O     -3.152371    -1.751854     2.140001
H     -3.152461    -2.494470     1.524980
H     -3.667815    -2.102363     2.875555
O      4.452084    -2.999851    -1.841420
H      4.603438    -2.690459    -2.742766
H      4.530937    -2.186674    -1.327163
6
BHMC Sample 2459
O     -3.152371    -1.751854     2.140001
H     -3.152461    -2.494470     1.524980
H     -3.667815    -2.102363     2.875555
O      4.483782    -3.000657    -1.849702
H      3.990971    -2.386245    -1.292306
H      4.640290    -2.478083    -2.646167
6
BHMC Sample 2460
O      4.493810    -2.875875    -1.869823
H      4.493721    -3.618491    -2.484844
H      3.978367    -3.226384    -1.134269
O     -3.162399    -1.876636     2.160122
H     -3.655211    -1.262224     2.717518
H     -3.005891    -1.354062     1.363657
6
BHMC Sample 2461
O      4.493810    -2.875875    -1.869823
H      4.493721    -3.618491    -2.484844
H      3.978367    -3.226384    -1.134269
O     -4.375191    -0.747063     1.976043
H     -4.868002    -0.132650     2.533439
H     -4.218682    -0.224489     1.179578
6
BHMC Sample 2462
O     -4.365162    -0.622280     1.955922
H     -4.365252    -1.364896     1.340901
H     -4.880606    -0.972789     2.691476
O      4.483782    -3.000657    -1.849702
H      3.990971    -2.386245    -1.292306
H      4.640290    -2.478083    -2.646167
6
BHMC Sample 2463
O     -2.883285     3.285724     0.416057
H     -2.825785     2.497663     0.968673
H     -2.979256     3.983842     1.074084
O      4.483782    -3.000657    -1.849702
H      3.990971    -2.386245    -1.292306
H      4.640290    -2.478083    -2.646167
6
BHMC Sample 2464
O     -2.985425     2.371090     1.273467
H     -2.927925     1.583030     1.826083
H     -3.081396     3.069208     1.931494
O      4.483782    -3.000657    -1.849702
H      3.990971    -2.386245    -1.292306
H      4.640290    -2.478083    -2.646167
6
BHMC Sample 2465
O      4.467117    -2.932007    -1.930818
H      4.524617    -3.720067    -1.378203
H      4.371146    -2.233888    -1.272791
O     -2.968760     2.302439     1.354584
H     -3.461572     2.916852     1.911980
H     -2.812252     2.825013     0.558119
6
BHMC Sample 2466
O      4.467117    -2.932007    -1.930818
H      4.524617    -3.720067    -1.378203
H      4.371146    -2.233888    -1.272791
O     -2.935002     2.324274     1.332827
H     -3.069665     2.997908     2.010425
H     -3.739978     2.397392     0.805000
6
BHMC Sample 2467
O     -2.985425     2.371090     1.273467
H     -2.927925     1.583030     1.826083
H     -3.081396     3.069208     1.931494
O      4.517541    -2.978822    -1.871459
H      4.382878    -2.305188    -1.193861
H      3.712564    -2.905704    -2.399286
6
BHMC Sample 2468
O     -3.025324     2.319005     1.372510
H     -2.803968     2.396447     0.437238
H     -2.572073     3.082484     1.748333
O      4.517541    -2.978822    -1.871459
H      4.382878    -2.305188    -1.193861
H      3.712564    -2.905704    -2.399286
6
BHMC Sample 2469
O     -3.025324     2.319005     1.372510
H     -2.803968     2.396447     0.437238
H     -2.572073     3.082484     1.748333
O      4.517023    -2.974992    -1.842348
H      4.240122    -2.105584    -1.528483
H      3.863535    -3.166099    -2.526720
6
BHMC Sample 2470
O      4.427218    -2.984091    -1.831776
H      4.648574    -2.906650    -2.767048
H      4.880469    -2.220613    -1.455953
O     -2.935519     2.328104     1.361938
H     -3.212420     3.197512     1.675803
H     -3.589008     2.136997     0.677565
6
BHMC Sample 2471
O      4.473668    -2.877240    -1.894175
H      4.214413    -3.055826    -0.982790
H      4.577371    -3.767379    -2.249812
O     -2.935519     2.328104     1.361938
H     -3.212420     3.197512     1.675803
H     -3.589008     2.136997     0.677565
6
BHMC Sample 2472
O     -2.978874     2.425856     1.310111
H     -3.238129     2.247270     2.221496
H     -2.875171     1.535717     0.954474
O      4.517023    -2.974992    -1.842348
H      4.240122    -2.105584    -1.528483
H      3.863535    -3.166099    -2.526720
6
BHMC Sample 2473
O     -2.978874     2.425856     1.310111
H     -3.238129     2.247270     2.221496
H     -2.875171     1.535717     0.954474
O      4.510568    -2.924592    -1.911511
H      4.547977    -3.573671    -1.198523
H      3.658135    -2.497970    -1.758913
6
BHMC Sample 2474
O      4.473668    -2.877240    -1.894175
H      4.214413    -3.055826    -0.982790
H      4.577371    -3.767379    -2.249812
O     -2.941974     2.378505     1.292774
H     -2.904566     1.729425     2.005763
H     -3.794408     2.805126     1.445372
6
BHMC Sample 2475
O      4.473668    -2.877240    -1.894175
H      4.214413    -3.055826    -0.982790
H      4.577371    -3.767379    -2.249812
O     -2.928191     2.395671     1.354493
H     -3.614375     2.113632     1.971471
H     -3.303367     2.148445     0.500060
6
BHMC Sample 2476
O      4.473668    -2.877240    -1.894175
H      4.214413    -3.055826    -0.982790
H      4.577371    -3.767379    -2.249812
O     -2.392539     0.868790     2.197959
H     -3.078723     0.586750     2.814937
H     -2.767716     0.621563     1.343526
6
BHMC Sample 2477
O     -2.443223     0.898974     2.153577
H     -2.702477     0.720388     3.064962
H     -2.339520     0.008836     1.797940
O      4.524351    -2.907425    -1.849792
H      3.838168    -3.189464    -1.232814
H      4.149175    -3.154651    -2.704226
6
BHMC Sample 2478
O     -2.443223     0.898974     2.153577
H     -2.702477     0.720388     3.064962
H     -2.339520     0.008836     1.797940
O      4.445326    -3.970868    -0.691742
H      3.817280    -4.015658     0.039427
H      4.029860    -4.534093    -1.356648
6
BHMC Sample 2479
O     -2.443223     0.898974     2.153577
H     -2.702477     0.720388     3.064962
H     -2.339520     0.008836     1.797940
O      4.432538    -4.037848    -0.650423
H      3.498821    -3.878587    -0.466398
H      4.551290    -3.608062    -1.506645
6
BHMC Sample 2480
O     -3.726557    -0.624568     3.016113
H     -3.985812    -0.803154     3.927498
H     -3.622854    -1.514707     2.660476
O      4.432538    -4.037848    -0.650423
H      3.498821    -3.878587    -0.466398
H      4.551290    -3.608062    -1.506645
6
BHMC Sample 2481
O      4.395642    -3.945090    -0.719130
H      4.136387    -4.123676     0.192255
H      4.499345    -4.835229    -1.074767
O     -3.689661    -0.717326     3.084821
H     -4.623378    -0.558065     3.268845
H     -3.570909    -0.287541     2.228598
6
BHMC Sample 2482
O      4.452110    -3.992630    -0.673170
H      3.671674    -3.467494    -0.461318
H      4.067790    -4.736852    -1.150675
O     -3.689661    -0.717326     3.084821
H     -4.623378    -0.558065     3.268845
H     -3.570909    -0.287541     2.228598
6
BHMC Sample 2483
O     -3.670089    -0.672108     3.062073
H     -4.450525    -0.146972     3.273925
H     -4.054409    -1.416330     2.584569
O      4.432538    -4.037848    -0.650423
H      3.498821    -3.878587    -0.466398
H      4.551290    -3.608062    -1.506645
6
BHMC Sample 2484
O      4.452110    -3.992630    -0.673170
H      3.671674    -3.467494    -0.461318
H      4.067790    -4.736852    -1.150675
O     -3.689661    -0.717326     3.084821
H     -4.623378    -0.558065     3.268845
H     -3.570909    -0.287541     2.228598
6
BHMC Sample 2485
O     -3.670089    -0.672108     3.062073
H     -4.450525    -0.146972     3.273925
H     -4.054409    -1.416330     2.584569
O      4.432538    -4.037848    -0.650423
H      3.498821    -3.878587    -0.466398
H      4.551290    -3.608062    -1.506645
6
BHMC Sample 2486
O     -3.670089    -0.672108     3.062073
H     -4.450525    -0.146972     3.273925
H     -4.054409    -1.416330     2.584569
O      4.575842    -3.006308    -1.095907
H      3.643019    -2.974265    -0.851224
H      4.573390    -2.607186    -1.974902
6
BHMC Sample 2487
O     -2.747952     1.938983     3.184027
H     -3.528388     2.464119     3.395880
H     -3.132272     1.194761     2.706523
O      4.575842    -3.006308    -1.095907
H      3.643019    -2.974265    -0.851224
H      4.573390    -2.607186    -1.974902
6
BHMC Sample 2488
O     -2.747952     1.938983     3.184027
H     -3.528388     2.464119     3.395880
H     -3.132272     1.194761     2.706523
O      4.507556    -2.917712    -1.144415
H      4.875173    -3.581548    -1.740431
H      4.425069    -3.406086    -0.315788
6
BHMC Sample 2489
O     -3.308352     3.614793     3.209885
H     -4.088788     4.139929     3.421737
H     -3.692672     2.870571     2.732380
O      4.507556    -2.917712    -1.144415
H      4.875173    -3.581548    -1.740431
H      4.425069    -3.406086    -0.315788
6
BHMC Sample 2490
O      4.588682    -2.969924    -1.116535
H      3.808246    -2.444788    -0.904683
H      4.204363    -3.714146    -1.594040
O     -3.389478     3.667005     3.182006
H     -3.021861     3.003169     2.585989
H     -3.471965     3.178631     4.010632
6
BHMC Sample 2491
O      4.588682    -2.969924    -1.116535
H      3.808246    -2.444788    -0.904683
H      4.204363    -3.714146    -1.594040
O     -3.422404     3.555998     3.189985
H     -3.506072     4.510928     3.300275
H     -2.465148     3.432774     3.169698
6
BHMC Sample 2492
O      4.588682    -2.969924    -1.116535
H      3.808246    -2.444788    -0.904683
H      4.204363    -3.714146    -1.594040
O     -2.275978     3.496774     3.111254
H     -2.359646     4.451705     3.221545
H     -1.318722     3.373551     3.090968
6
BHMC Sample 2493
O      4.588682    -2.969924    -1.116535
H      3.808246    -2.444788    -0.904683
H      4.204363    -3.714146    -1.594040
O     -2.285082     3.534705     3.150115
H     -1.990430     4.299177     2.640390
H     -1.543439     2.924037     3.055332
6
BHMC Sample 2494
O      4.588682    -2.969924    -1.116535
H      3.808246    -2.444788    -0.904683
H      4.204363    -3.714146    -1.594040
O     -2.339801     3.526328     3.074830
H     -2.028031     4.295286     2.582327
H     -1.600289     2.911705     2.989425
6
BHMC Sample 2495
O      4.383729    -2.126041    -3.372223
H      3.603294    -1.600905    -3.160371
H      3.999410    -2.870264    -3.849727
O     -2.339801     3.526328     3.074830
H     -2.028031     4.295286     2.582327
H     -1.600289     2.911705     2.989425
6
BHMC Sample 2496
O      4.370191    -3.592474    -2.559168
H      3.589756    -3.067338    -2.347316
H      3.985872    -4.336696    -3.036672
O     -2.339801     3.526328     3.074830
H     -2.028031     4.295286     2.582327
H     -1.600289     2.911705     2.989425
6
BHMC Sample 2497
O      4.370191    -3.592474    -2.559168
H      3.589756    -3.067338    -2.347316
H      3.985872    -4.336696    -3.036672
O     -0.817665     2.641150     1.172542
H     -0.505894     3.410108     0.680040
H     -0.078153     2.026526     1.087137
6
BHMC Sample 2498
O      4.370191    -3.592474    -2.559168
H      3.589756    -3.067338    -2.347316
H      3.985872    -4.336696    -3.036672
O     -0.769598     3.481606    -0.751447
H     -0.214453     4.170287    -1.136918
H     -0.135948     2.771873    -0.588044
6
BHMC Sample 2499
O      2.336287    -3.129611    -2.610445
H      1.555851    -2.604475    -2.398593
H      1.951967    -3.873833    -3.087950
O     -0.769598     3.481606    -0.751447
H     -0.214453     4.170287    -1.136918
H     -0.135948     2.771873    -0.588044
6
BHMC Sample 2500
O     -0.637909     3.492687    -0.749008
H     -1.418345     4.017823    -0.537156
H     -1.022229     2.748465    -1.226512
O      2.204597    -3.140692    -2.612884
H      2.759743    -2.452011    -2.998355
H      2.838247    -3.850426    -2.449482
6
BHMC Sample 2501
O     -0.637909     3.492687    -0.749008
H     -1.418345     4.017823    -0.537156
H     -1.022229     2.748465    -1.226512
O     -0.368430    -2.123744    -2.750784
H      0.186715    -1.435063    -3.136256
H      0.265220    -2.833478    -2.587382
6
BHMC Sample 2502
O     -0.637909     3.492687    -0.749008
H     -1.418345     4.017823    -0.537156
H     -1.022229     2.748465    -1.226512
O     -0.298077    -2.101876    -2.826727
H     -0.692345    -2.921236    -2.503836
H      0.027623    -1.694402    -2.014434
6
BHMC Sample 2503
O     -0.775778     3.781066    -2.679781
H     -1.556213     4.306202    -2.467929
H     -1.160097     3.036844    -3.157285
O     -0.298077    -2.101876    -2.826727
H     -0.692345    -2.921236    -2.503836
H      0.027623    -1.694402    -2.014434
6
BHMC Sample 2504
O     -1.625099     1.545258    -2.551421
H     -2.405535     2.070394    -2.339569
H     -2.009419     0.801036    -3.028926
O     -0.298077    -2.101876    -2.826727
H     -0.692345    -2.921236    -2.503836
H      0.027623    -1.694402    -2.014434
6
BHMC Sample 2505
O     -2.835555     0.835848    -2.479662
H     -3.760812     1.071799    -2.613660
H     -2.660831     0.273538    -3.243113
O     -0.298077    -2.101876    -2.826727
H     -0.692345    -2.921236    -2.503836
H      0.027623    -1.694402    -2.014434
6
BHMC Sample 2506
O     -3.754214     0.962210    -0.871825
H     -4.398157     1.677644    -0.815080
H     -2.983204     1.416234    -1.230969
O      0.022856     0.137296    -0.378394
H     -0.371412    -0.682065    -0.055504
H      0.348556     0.544769     0.433898
6
BHMC Sample 2507
O      2.620145    -2.439772    -1.721163
H      3.562783    -2.571092    -1.875818
H      2.505914    -1.513297    -1.962355
O      0.022856     0.137296    -0.378394
H     -0.371412    -0.682065    -0.055504
H      0.348556     0.544769     0.433898
6
BHMC Sample 2508
O      0.647172    -3.717155    -0.753382
H      0.767835    -4.405607    -1.417613
H     -0.049136    -3.179539    -1.147974
O      0.022856     0.137296    -0.378394
H     -0.371412    -0.682065    -0.055504
H      0.348556     0.544769     0.433898
6
BHMC Sample 2509
O      0.647172    -3.717155    -0.753382
H      0.767835    -4.405607    -1.417613
H     -0.049136    -3.179539    -1.147974
O      3.571777    -3.812797     1.777877
H      2.874247    -4.407485     1.476456
H      4.372942    -4.283920     1.516894
6
BHMC Sample 2510
O      0.647172    -3.717155    -0.753382
H      0.767835    -4.405607    -1.417613
H     -0.049136    -3.179539    -1.147974
O      3.624874    -4.248551     1.662857
H      2.831979    -4.730197     1.397545
H      4.332107    -4.840800     1.378255
6
BHMC Sample 2511
O     -2.888070     1.658933    -1.838864
H     -2.639898     2.577100    -1.680404
H     -3.619452     1.754617    -2.459753
O      0.028554     0.357965     0.183304
H     -0.764341    -0.123681    -0.082007
H      0.735787    -0.234284    -0.101297
6
BHMC Sample 2512
O      3.051759     1.225461    -1.912967
H      2.943504     2.169639    -1.750060
H      3.773649     1.215090    -2.551986
O      0.028554     0.357965     0.183304
H     -0.764341    -0.123681    -0.082007
H      0.735787    -0.234284    -0.101297
6
BHMC Sample 2513
O      3.051759     1.225461    -1.912967
H      2.943504     2.169639    -1.750060
H      3.773649     1.215090    -2.551986
O      3.262527    -0.754128     1.307197
H      2.560452    -0.928855     1.945646
H      2.857791    -1.026763     0.474255
6
BHMC Sample 2514
O      3.051759     1.225461    -1.912967
H      2.943504     2.169639    -1.750060
H      3.773649     1.215090    -2.551986
O      2.541896    -0.834421     2.199040
H      1.839821    -1.009148     2.837489
H      2.137160    -1.107056     1.366098
6
BHMC Sample 2515
O      3.051759     1.225461    -1.912967
H      2.943504     2.169639    -1.750060
H      3.773649     1.215090    -2.551986
O      2.611633    -0.919260     2.163301
H      1.920686    -1.106225     2.810366
H      2.191690    -1.173935     1.332204
6
BHMC Sample 2516
O      0.494293     1.500771    -1.207102
H      0.279433     2.366873    -0.841817
H      0.788690     1.727316    -2.096813
O      2.611633    -0.919260     2.163301
H      1.920686    -1.106225     2.810366
H      2.191690    -1.173935     1.332204
6
BHMC Sample 2517
O      2.382410     1.228797    -2.563040
H      2.167550     2.094898    -2.197756
H      2.676808     1.455341    -3.452752
O      2.611633    -0.919260     2.163301
H      1.920686    -1.106225     2.810366
H      2.191690    -1.173935     1.332204
6
BHMC Sample 2518
O      2.382410     1.228797    -2.563040
H      2.167550     2.094898    -2.197756
H      2.676808     1.455341    -3.452752
O     -1.914079     3.996850    -1.280087
H     -2.285058     4.812725    -1.637547
H     -1.644499     3.524774    -2.077837
6
BHMC Sample 2519
O      2.382410     1.228797    -2.563040
H      2.167550     2.094898    -2.197756
H      2.676808     1.455341    -3.452752
O     -2.404734    -0.726889    -3.313938
H     -2.796109    -1.179891    -4.070689
H     -1.520807    -1.113074    -3.275624
6
BHMC Sample 2520
O     -2.381625    -0.834982    -3.324794
H     -2.596485     0.031120    -2.959510
H     -2.087228    -0.608437    -4.214505
O      2.359301     1.336889    -2.552185
H      1.967926     0.883888    -3.308935
H      3.243228     0.950704    -2.513870
6
BHMC Sample 2521
O     -2.381625    -0.834982    -3.324794
H     -2.596485     0.031120    -2.959510
H     -2.087228    -0.608437    -4.214505
O      0.407161     0.577386    -3.465327
H      0.015786     0.124385    -4.222078
H      1.291088     0.191201    -3.427012
6
BHMC Sample 2522
O     -2.973819     0.728732    -2.326668
H     -3.188680     1.594833    -1.961384
H     -2.679422     0.955277    -3.216380
O      0.407161     0.577386    -3.465327
H      0.015786     0.124385    -4.222078
H      1.291088     0.191201    -3.427012
6
BHMC Sample 2523
O     -1.456900    -3.124087    -1.664573
H     -0.933854    -3.514234    -2.374458
H     -1.562771    -2.216107    -1.971073
O     -0.164184     0.279729     0.239479
H     -0.555559    -0.173273    -0.517272
H      0.719743    -0.106456     0.277793
6
BHMC Sample 2524
O     -1.456900    -3.124087    -1.664573
H     -0.933854    -3.514234    -2.374458
H     -1.562771    -2.216107    -1.971073
O      2.254942     0.157811     1.547902
H      1.863567    -0.295191     0.791151
H      3.138869    -0.228375     1.586216
6
BHMC Sample 2525
O      2.259160     0.081881     1.564573
H      2.782206    -0.308267     0.854688
H      2.153289     0.989861     1.258073
O     -1.461118    -3.048157    -1.681244
H     -1.852493    -3.501159    -2.437994
H     -0.577191    -3.434342    -1.642929
6
BHMC Sample 2526
O      3.672984    -0.482103     1.644732
H      4.196030    -0.872250     0.934848
H      3.567113     0.425877     1.338232
O     -1.461118    -3.048157    -1.681244
H     -1.852493    -3.501159    -2.437994
H     -0.577191    -3.434342    -1.642929
6
BHMC Sample 2527
O      2.918940     1.272786     2.258655
H      3.441986     0.882639     1.548770
H      2.813069     2.180766     1.952155
O     -1.461118    -3.048157    -1.681244
H     -1.852493    -3.501159    -2.437994
H     -0.577191    -3.434342    -1.642929
6
BHMC Sample 2528
O      1.585697     3.548765    -0.942374
H      2.280221     2.884684    -0.862605
H      1.760536     3.915790    -1.816617
O     -1.461118    -3.048157    -1.681244
H     -1.852493    -3.501159    -2.437994
H     -0.577191    -3.434342    -1.642929
6
BHMC Sample 2529
O     -0.863532     3.732060    -0.797881
H     -0.169008     3.067980    -0.718112
H     -0.688692     4.099086    -1.672124
O     -1.461118    -3.048157    -1.681244
H     -1.852493    -3.501159    -2.437994
H     -0.577191    -3.434342    -1.642929
6
BHMC Sample 2530
O     -1.482202    -3.078491    -1.676989
H     -0.787678    -3.742571    -1.597220
H     -1.307362    -2.711466    -2.551233
O     -0.842448     3.762394    -0.802135
H     -1.233823     3.309393    -1.558886
H      0.041480     3.376209    -0.763821
6
BHMC Sample 2531
O      3.904381     3.504389    -4.071101
H      3.603978     4.090260    -4.775545
H      3.736592     4.036234    -3.284611
O     -0.164184     0.279729     0.239479
H     -0.555559    -0.173273    -0.517272
H      0.719743    -0.106456     0.277793
6
BHMC Sample 2532
O      3.863538     3.704337    -2.572494
H      3.563135     4.290209    -3.276938
H      3.695750     4.236182    -1.786004
O     -0.164184     0.279729     0.239479
H     -0.555559    -0.173273    -0.517272
H      0.719743    -0.106456     0.277793
6
BHMC Sample 2533
O      3.863538     3.704337    -2.572494
H      3.563135     4.290209    -3.276938
H      3.695750     4.236182    -1.786004
O     -0.072747     0.249761     0.213823
H     -0.406664    -0.565314    -0.180142
H     -0.880435     0.761236     0.347868
6
BHMC Sample 2534
O     -0.110427     0.170234     0.194689
H     -0.410830     0.756105    -0.509755
H     -0.278216     0.702079     0.981179
O      3.901218     3.783865    -2.553360
H      3.567301     2.968790    -2.947325
H      3.093530     4.295340    -2.419315
6
BHMC Sample 2535
O     -0.084848     0.224036     0.242424
H     -0.230330    -0.179086    -0.621322
H     -0.864717     0.783318     0.335091
O      3.901218     3.783865    -2.553360
H      3.567301     2.968790    -2.947325
H      3.093530     4.295340    -2.419315
6
BHMC Sample 2536
O     -3.190924     2.716434    -3.963499
H     -3.910215     2.183048    -3.605940
H     -3.346967     3.569432    -3.542044
O      0.380535     0.101200     0.086640
H      0.046618    -0.713875    -0.307325
H     -0.427153     0.612675     0.220685
6
BHMC Sample 2537
O      0.365636     0.066329     0.028508
H     -0.353655    -0.467057     0.386067
H      0.209593     0.919327     0.449963
O     -3.176025     2.751305    -3.905367
H     -3.509942     1.936230    -4.299332
H     -3.983713     3.262780    -3.771322
6
BHMC Sample 2538
O     -1.318091    -1.681705     0.324616
H     -2.037382    -2.215091     0.682175
H     -1.474135    -0.828708     0.746071
O     -3.176025     2.751305    -3.905367
H     -3.509942     1.936230    -4.299332
H     -3.983713     3.262780    -3.771322
6
BHMC Sample 2539
O     -1.322990    -1.699929     0.405244
H     -1.147814    -1.068994    -0.302543
H     -2.285940    -1.685551     0.451058
O     -3.176025     2.751305    -3.905367
H     -3.509942     1.936230    -4.299332
H     -3.983713     3.262780    -3.771322
6
BHMC Sample 2540
O     -1.322990    -1.699929     0.405244
H     -1.147814    -1.068994    -0.302543
H     -2.285940    -1.685551     0.451058
O     -3.301462     2.750847    -3.897163
H     -2.439218     2.995998    -3.540101
H     -3.063505     2.210279    -4.660770
6
BHMC Sample 2541
O     -1.322990    -1.699929     0.405244
H     -1.147814    -1.068994    -0.302543
H     -2.285940    -1.685551     0.451058
O     -3.264936     2.794287    -3.938811
H     -3.692566     2.093474    -3.431811
H     -2.389899     2.423321    -4.108013
6
BHMC Sample 2542
O      0.262591    -0.215104     0.220658
H      0.437768     0.415831    -0.487129
H     -0.700359    -0.200727     0.266472
O     -1.707783     3.789180    -4.567169
H     -2.118462     3.380498    -3.795562
H     -0.802620     3.937405    -4.266097
6
BHMC Sample 2543
O      0.262591    -0.215104     0.220658
H      0.437768     0.415831    -0.487129
H     -0.700359    -0.200727     0.266472
O     -3.542516     4.708566    -3.644826
H     -3.953195     4.299884    -2.873218
H     -2.637353     4.856791    -3.343754
6
BHMC Sample 2544
O     -3.646773     4.481489    -3.945832
H     -3.828298     3.897335    -3.200486
H     -2.682804     4.489293    -3.962601
O     -0.164828     0.086819    -0.357560
H     -0.575507    -0.321863     0.414047
H      0.740335     0.235044    -0.056488
6
BHMC Sample 2545
O     -3.136879     4.697483    -4.128673
H     -2.253828     4.564288    -3.765067
H     -3.661090     4.074886    -3.611803
O     -0.164828     0.086819    -0.357560
H     -0.575507    -0.321863     0.414047
H      0.740335     0.235044    -0.056488
6
BHMC Sample 2546
O     -3.136879     4.697483    -4.128673
H     -2.253828     4.564288    -3.765067
H     -3.661090     4.074886    -3.611803
O     -0.157580     0.122412    -0.338118
H      0.572743     0.114360     0.292453
H     -0.522947    -0.766117    -0.243472
6
BHMC Sample 2547
O     -3.136879     4.697483    -4.128673
H     -2.253828     4.564288    -3.765067
H     -3.661090     4.074886    -3.611803
O     -0.075190    -0.596388     1.806355
H      0.655133    -0.604441     2.436926
H     -0.440556    -1.484917     1.901001
6
BHMC Sample 2548
O     -0.074847    -0.604266     1.797668
H      0.808203    -0.737460     2.161274
H     -0.599059    -1.226862     2.314538
O     -3.137221     4.705361    -4.119985
H     -2.406898     4.697308    -3.489414
H     -3.502587     3.816832    -4.025339
6
BHMC Sample 2549
O      0.678490    -0.984235     3.718706
H      1.561541    -1.117429     4.082312
H      0.154279    -1.606831     4.235576
O     -3.137221     4.705361    -4.119985
H     -2.406898     4.697308    -3.489414
H     -3.502587     3.816832    -4.025339
6
BHMC Sample 2550
O     -3.136879     4.697483    -4.128673
H     -2.253828     4.564288    -3.765067
H     -3.661090     4.074886    -3.611803
O      0.678147    -0.976357     3.727393
H      1.408470    -0.984410     4.357964
H      0.312781    -1.864886     3.822039
6
BHMC Sample 2551
O      0.678490    -0.984235     3.718706
H      1.561541    -1.117429     4.082312
H      0.154279    -1.606831     4.235576
O     -3.137221     4.705361    -4.119985
H     -2.406898     4.697308    -3.489414
H     -3.502587     3.816832    -4.025339
6
BHMC Sample 2552
O      0.678490    -0.984235     3.718706
H      1.561541    -1.117429     4.082312
H      0.154279    -1.606831     4.235576
O     -1.659691     3.076730    -3.337670
H     -0.929368     3.068678    -2.707099
H     -2.025057     2.188201    -3.243024
6
BHMC Sample 2553
O      0.652427    -1.063650     3.801306
H      1.614589    -1.104784     3.849069
H      0.514903    -0.358990     3.157785
O     -1.659691     3.076730    -3.337670
H     -0.929368     3.068678    -2.707099
H     -2.025057     2.188201    -3.243024
6
BHMC Sample 2554
O      0.652427    -1.063650     3.801306
H      1.614589    -1.104784     3.849069
H      0.514903    -0.358990     3.157785
O     -1.668486     3.057098    -3.349954
H     -2.051513     2.835401    -2.492517
H     -0.763321     2.733084    -3.262635
6
BHMC Sample 2555
O      0.652427    -1.063650     3.801306
H      1.614589    -1.104784     3.849069
H      0.514903    -0.358990     3.157785
O     -2.275853     2.070000    -4.742128
H     -2.658879     1.848303    -3.884691
H     -1.370687     1.745986    -4.654809
6
BHMC Sample 2556
O      0.740339    -1.062615     3.728333
H      0.692447    -0.107203     3.849256
H      0.041705    -1.372997     4.315830
O     -2.275853     2.070000    -4.742128
H     -2.658879     1.848303    -3.884691
H     -1.370687     1.745986    -4.654809
6
BHMC Sample 2557
O     -0.253640    -1.529854     3.148302
H     -0.301531    -0.574442     3.269225
H     -0.952274    -1.840235     3.735799
O     -2.275853     2.070000    -4.742128
H     -2.658879     1.848303    -3.884691
H     -1.370687     1.745986    -4.654809
6
BHMC Sample 2558
O     -1.176832    -1.356140     3.401774
H     -1.404539    -0.425059     3.506496
H     -1.910804    -1.792279     3.849711
O     -2.275853     2.070000    -4.742128
H     -2.658879     1.848303    -3.884691
H     -1.370687     1.745986    -4.654809
6
BHMC Sample 2559
O     -1.946726    -1.464325     1.860505
H     -2.174433    -0.533244     1.965227
H     -2.680697    -1.900464     2.308442
O     -2.275853     2.070000    -4.742128
H     -2.658879     1.848303    -3.884691
H     -1.370687     1.745986    -4.654809
6
BHMC Sample 2560
O     -1.946726    -1.464325     1.860505
H     -2.174433    -0.533244     1.965227
H     -2.680697    -1.900464     2.308442
O     -2.269790     2.087401    -4.731057
H     -2.718670     1.294801    -4.412707
H     -1.407131     2.023301    -4.302517
6
BHMC Sample 2561
O     -2.192828     2.011772    -4.720189
H     -2.420535     2.942853    -4.615467
H     -2.926800     1.575633    -4.272252
O     -2.023687    -1.388696     1.849638
H     -2.472568    -2.181296     2.167987
H     -1.161029    -1.452796     2.278178
6
BHMC Sample 2562
O     -1.946726    -1.464325     1.860505
H     -2.174433    -0.533244     1.965227
H     -2.680697    -1.900464     2.308442
O     -2.269790     2.087401    -4.731057
H     -2.718670     1.294801    -4.412707
H     -1.407131     2.023301    -4.302517
6
BHMC Sample 2563
O     -2.192828     2.011772    -4.720189
H     -2.420535     2.942853    -4.615467
H     -2.926800     1.575633    -4.272252
O     -2.023687    -1.388696     1.849638
H     -2.472568    -2.181296     2.167987
H     -1.161029    -1.452796     2.278178
6
BHMC Sample 2564
O     -2.156904     2.134502    -4.655670
H     -2.366530     3.067638    -4.533023
H     -2.896991     1.704155    -4.212217
O     -2.023687    -1.388696     1.849638
H     -2.472568    -2.181296     2.167987
H     -1.161029    -1.452796     2.278178
6
BHMC Sample 2565
O     -2.156904     2.134502    -4.655670
H     -2.366530     3.067638    -4.533023
H     -2.896991     1.704155    -4.212217
O     -1.961850    -1.491898     1.896843
H     -2.809680    -1.304006     2.317481
H     -1.805404    -0.692059     1.379430
6
BHMC Sample 2566
O     -2.156904     2.134502    -4.655670
H     -2.366530     3.067638    -4.533023
H     -2.896991     1.704155    -4.212217
O     -1.306735    -2.972094     2.372017
H     -2.154565    -2.784202     2.792654
H     -1.150289    -2.172255     1.854604
6
BHMC Sample 2567
O     -2.156904     2.134502    -4.655670
H     -2.366530     3.067638    -4.533023
H     -2.896991     1.704155    -4.212217
O     -1.608676    -3.969361     3.226529
H     -2.456507    -3.781468     3.647166
H     -1.452231    -3.169522     2.709116
6
BHMC Sample 2568
O     -1.291465     3.144588    -3.774400
H     -0.446009     3.390078    -4.167678
H     -1.113852     3.257874    -2.833550
O     -1.608676    -3.969361     3.226529
H     -2.456507    -3.781468     3.647166
H     -1.452231    -3.169522     2.709116
6
BHMC Sample 2569
O      1.450986     2.905057    -3.009590
H      2.296442     3.150547    -3.402867
H      1.628599     3.018342    -2.068740
O     -1.608676    -3.969361     3.226529
H     -2.456507    -3.781468     3.647166
H     -1.452231    -3.169522     2.709116
6
BHMC Sample 2570
O     -1.704606    -3.934169     3.190475
H     -0.859150    -3.688679     2.797198
H     -1.526993    -3.820883     4.131325
O      1.546915     2.869864    -2.973536
H      0.699085     3.057757    -2.552899
H      1.703361     3.669704    -3.490949
6
BHMC Sample 2571
O     -1.704606    -3.934169     3.190475
H     -0.859150    -3.688679     2.797198
H     -1.526993    -3.820883     4.131325
O      2.507251     1.384614    -3.797581
H      1.755849     1.797659    -3.355038
H      2.798792     2.078490    -4.402125
6
BHMC Sample 2572
O     -1.834681    -3.462185     1.830511
H     -0.989224    -3.216696     1.437233
H     -1.657068    -3.348900     2.771361
O      2.507251     1.384614    -3.797581
H      1.755849     1.797659    -3.355038
H      2.798792     2.078490    -4.402125
6
BHMC Sample 2573
O      2.424276     1.426475    -3.837284
H      3.269733     1.671965    -4.230562
H      2.601889     1.539760    -2.896434
O     -1.751706    -3.504047     1.870214
H     -2.503108    -3.091001     2.312757
H     -1.460165    -2.810171     1.265670
6
BHMC Sample 2574
O     -1.834681    -3.462185     1.830511
H     -0.989224    -3.216696     1.437233
H     -1.657068    -3.348900     2.771361
O      2.507251     1.384614    -3.797581
H      1.755849     1.797659    -3.355038
H      2.798792     2.078490    -4.402125
6
BHMC Sample 2575
O     -1.834681    -3.462185     1.830511
H     -0.989224    -3.216696     1.437233
H     -1.657068    -3.348900     2.771361
O      2.447145     1.502518    -3.822959
H      3.076000     1.367558    -3.103666
H      2.432655     0.637207    -4.250698
6
BHMC Sample 2576
O     -1.834681    -3.462185     1.830511
H     -0.989224    -3.216696     1.437233
H     -1.657068    -3.348900     2.771361
O      1.378412     0.446416    -4.439316
H      2.007268     0.311456    -3.720023
H      1.363923    -0.418895    -4.867055
6
BHMC Sample 2577
O      1.355544     0.370373    -4.453641
H      2.201000     0.615863    -4.846919
H      1.533157     0.483658    -3.512791
O     -1.811812    -3.386142     1.844836
H     -1.182957    -3.521102     2.564129
H     -1.826302    -4.251454     1.417097
6
BHMC Sample 2578
O      1.355544     0.370373    -4.453641
H      2.201000     0.615863    -4.846919
H      1.533157     0.483658    -3.512791
O     -1.735426    -3.392857     1.880887
H     -2.178766    -4.060533     2.418209
H     -2.042892    -3.605443     0.990827
6
BHMC Sample 2579
O      1.355544     0.370373    -4.453641
H      2.201000     0.615863    -4.846919
H      1.533157     0.483658    -3.512791
O     -2.024574    -2.565791     1.317792
H     -2.467914    -3.233466     1.855114
H     -2.332039    -2.778376     0.427732
6
BHMC Sample 2580
O      1.355544     0.370373    -4.453641
H      2.201000     0.615863    -4.846919
H      1.533157     0.483658    -3.512791
O     -0.965152    -3.373583     1.806861
H     -1.408492    -4.041259     2.344183
H     -1.272618    -3.586169     0.916801
6
BHMC Sample 2581
O      1.355544     0.370373    -4.453641
H      2.201000     0.615863    -4.846919
H      1.533157     0.483658    -3.512791
O     -2.463453    -1.873186     0.558240
H     -2.906792    -2.540862     1.095562
H     -2.770918    -2.085772    -0.331820
6
BHMC Sample 2582
O      3.479600     1.295073    -3.093638
H      4.325056     1.540563    -3.486916
H      3.657213     1.408359    -2.152788
O     -2.463453    -1.873186     0.558240
H     -2.906792    -2.540862     1.095562
H     -2.770918    -2.085772    -0.331820
6
BHMC Sample 2583
O      3.479600     1.295073    -3.093638
H      4.325056     1.540563    -3.486916
H      3.657213     1.408359    -2.152788
O     -0.987181    -1.695012     1.949869
H     -1.430520    -2.362688     2.487191
H     -1.294646    -1.907598     1.059809
6
BHMC Sample 2584
O      3.490308     1.016458    -2.124174
H      4.335764     1.261948    -2.517452
H      3.667920     1.129743    -1.183324
O     -0.987181    -1.695012     1.949869
H     -1.430520    -2.362688     2.487191
H     -1.294646    -1.907598     1.059809
6
BHMC Sample 2585
O      3.837747    -1.856947    -2.081016
H      4.683203    -1.611457    -2.474294
H      4.015360    -1.743662    -1.140166
O     -0.987181    -1.695012     1.949869
H     -1.430520    -2.362688     2.487191
H     -1.294646    -1.907598     1.059809
6
BHMC Sample 2586
O      3.961858    -1.848502    -2.053873
H      3.331017    -1.711192    -2.770053
H      3.397659    -1.777960    -1.275232
O     -0.987181    -1.695012     1.949869
H     -1.430520    -2.362688     2.487191
H     -1.294646    -1.907598     1.059809
6
BHMC Sample 2587
O     -0.303828    -3.433945    -4.186448
H      0.057607    -2.552694    -4.336411
H     -0.419264    -3.441636    -3.229268
O     -0.987181    -1.695012     1.949869
H     -1.430520    -2.362688     2.487191
H     -1.294646    -1.907598     1.059809
6
BHMC Sample 2588
O     -0.845918    -4.879809    -3.631208
H     -0.324327    -4.144380    -3.972991
H     -0.929643    -4.648329    -2.699014
O     -0.987181    -1.695012     1.949869
H     -1.430520    -2.362688     2.487191
H     -1.294646    -1.907598     1.059809
6
BHMC Sample 2589
O      3.159352     3.622129    -3.906640
H      2.542371     3.387184    -4.609395
H      2.874915     3.043146    -3.190084
O      0.250268     0.293420     0.117579
H     -0.193071    -0.374255     0.654901
H     -0.057197     0.080835    -0.772481
6
BHMC Sample 2590
O      0.258696     0.289709     0.097070
H     -0.358285     0.054763    -0.605685
H     -0.025742    -0.289274     0.813626
O      3.150925     3.625841    -3.886131
H      2.707585     2.958165    -3.348809
H      2.843459     3.413255    -4.776191
6
BHMC Sample 2591
O      0.214467     0.188366     0.059550
H      0.572773     1.070883    -0.090479
H     -0.254800     0.303131     0.893934
O      3.150925     3.625841    -3.886131
H      2.707585     2.958165    -3.348809
H      2.843459     3.413255    -4.776191
6
BHMC Sample 2592
O      0.027011    -0.887626    -0.649461
H      0.385318    -0.005108    -0.799490
H     -0.442255    -0.772860     0.184923
O      3.150925     3.625841    -3.886131
H      2.707585     2.958165    -3.348809
H      2.843459     3.413255    -4.776191
6
BHMC Sample 2593
O     -2.794864    -4.282294     3.341903
H     -2.053890    -3.702134     3.131899
H     -2.426326    -4.829504     4.044981
O      0.250268     0.293420     0.117579
H     -0.193071    -0.374255     0.654901
H     -0.057197     0.080835    -0.772481
6
BHMC Sample 2594
O     -2.202432    -4.302574     0.980443
H     -1.461458    -3.722414     0.770440
H     -1.833894    -4.849784     1.683522
O      0.250268     0.293420     0.117579
H     -0.193071    -0.374255     0.654901
H     -0.057197     0.080835    -0.772481
6
BHMC Sample 2595
O     -1.760135    -2.826691    -3.638112
H     -1.099537    -2.514736    -3.008807
H     -1.246367    -2.889286    -4.451563
O      0.250268     0.293420     0.117579
H     -0.193071    -0.374255     0.654901
H     -0.057197     0.080835    -0.772481
6
BHMC Sample 2596
O     -1.760135    -2.826691    -3.638112
H     -1.099537    -2.514736    -3.008807
H     -1.246367    -2.889286    -4.451563
O     -0.200642    -0.372102     0.758928
H     -0.813940    -1.023434     1.120435
H     -0.347038    -0.454808    -0.191684
6
BHMC Sample 2597
O     -1.760135    -2.826691    -3.638112
H     -1.099537    -2.514736    -3.008807
H     -1.246367    -2.889286    -4.451563
O     -0.454853    -2.395984     2.840333
H     -1.068151    -3.047316     3.201840
H     -0.601249    -2.478690     1.889721
6
BHMC Sample 2598
O     -0.563070    -2.451008     2.817674
H      0.097527    -2.139054     3.446979
H     -0.049302    -2.513603     2.004223
O     -1.651918    -2.771667    -3.615453
H     -2.265216    -3.422999    -3.253946
H     -1.798314    -2.854373    -4.566065
6
BHMC Sample 2599
O     -0.563070    -2.451008     2.817674
H      0.097527    -2.139054     3.446979
H     -0.049302    -2.513603     2.004223
O     -1.505535    -1.696834    -1.218736
H     -2.118833    -2.348166    -0.857229
H     -1.651930    -1.779540    -2.169348
6
BHMC Sample 2600
O     -1.668323    -2.903795     2.411172
H     -1.007725    -2.591841     3.040477
H     -1.154555    -2.966391     1.597721
O     -1.505535    -1.696834    -1.218736
H     -2.118833    -2.348166    -0.857229
H     -1.651930    -1.779540    -2.169348
6
BHMC Sample 2601
O     -0.391455    -0.083120     0.061382
H      0.269142     0.228835     0.690687
H      0.122313    -0.145715    -0.752069
O      2.482782    -0.765460     2.701769
H      2.744736    -0.306011     1.894710
H      3.241458    -0.617468     3.280080
6
BHMC Sample 2602
O     -0.391455    -0.083120     0.061382
H      0.269142     0.228835     0.690687
H      0.122313    -0.145715    -0.752069
O     -2.208042     3.303366     0.745190
H     -2.136297     3.021748    -0.174919
H     -2.883314     3.991718     0.699217
6
BHMC Sample 2603
O     -0.391455    -0.083120     0.061382
H      0.269142     0.228835     0.690687
H      0.122313    -0.145715    -0.752069
O     -0.567340    -3.283992     2.288341
H     -0.533034    -3.415297     1.333020
H     -0.855797    -4.148690     2.606184
6
BHMC Sample 2604
O     -0.391455    -0.083120     0.061382
H      0.269142     0.228835     0.690687
H      0.122313    -0.145715    -0.752069
O      2.414088     2.350646    -2.233747
H      2.339841     2.563590    -1.295559
H      3.135369     2.924802    -2.520160
6
BHMC Sample 2605
O     -0.391455    -0.083120     0.061382
H      0.269142     0.228835     0.690687
H      0.122313    -0.145715    -0.752069
O     -2.427783    -2.934704     1.355126
H     -2.437487    -2.760255     0.406164
H     -3.170080    -3.542624     1.461718
6
BHMC Sample 2606
O     -0.391455    -0.083120     0.061382
H      0.269142     0.228835     0.690687
H      0.122313    -0.145715    -0.752069
O     -1.013241    -3.738159    -0.578407
H     -0.300790    -3.508126     0.030325
H     -0.858997    -4.678652    -0.732081
6
BHMC Sample 2607
O     -0.391455    -0.083120     0.061382
H      0.269142     0.228835     0.690687
H      0.122313    -0.145715    -0.752069
O      1.780458     3.439624     0.577930
H      1.069158     3.354185    -0.068452
H      1.829520     4.395056     0.707065
6
BHMC Sample 2608
O      3.683168     1.465984    -2.565170
H      3.796496     1.501173    -1.608275
H      3.941858     2.356445    -2.829246
O      1.780458     3.439624     0.577930
H      1.069158     3.354185    -0.068452
H      1.829520     4.395056     0.707065
6
BHMC Sample 2609
O      3.683168     1.465984    -2.565170
H      3.796496     1.501173    -1.608275
H      3.941858     2.356445    -2.829246
O      3.944627    -1.162479     0.602279
H      2.990206    -1.050538     0.515061
H      4.103549    -0.884545     1.513010
6
BHMC Sample 2610
O      3.814875     1.662002    -2.402254
H      3.899790     1.636448    -1.442116
H      4.093266     2.563010    -2.602909
O      3.944627    -1.162479     0.602279
H      2.990206    -1.050538     0.515061
H      4.103549    -0.884545     1.513010
6
BHMC Sample 2611
O      3.352170     2.180707    -1.427707
H      2.388529     2.206244    -1.405932
H      3.556783     2.900295    -2.035905
O      0.265166    -0.129958    -0.274504
H     -0.689254    -0.018018    -0.361723
H      0.424088     0.147976     0.636227
6
BHMC Sample 2612
O      2.277886    -2.706461     2.348868
H      1.546455    -2.682484     1.721043
H      2.437963    -3.653577     2.432086
O      0.265166    -0.129958    -0.274504
H     -0.689254    -0.018018    -0.361723
H      0.424088     0.147976     0.636227
6
BHMC Sample 2613
O      1.586386    -0.077627     3.741428
H      0.827140    -0.327699     3.202226
H      1.414548    -0.555325     4.561097
O      0.265166    -0.129958    -0.274504
H     -0.689254    -0.018018    -0.361723
H      0.424088     0.147976     0.636227
6
BHMC Sample 2614
O      1.586386    -0.077627     3.741428
H      0.827140    -0.327699     3.202226
H      1.414548    -0.555325     4.561097
O      2.721366    -3.087170     0.992749
H      1.983585    -3.636169     0.700627
H      2.272195    -2.330281     1.389358
6
BHMC Sample 2615
O      1.561938    -1.091095     2.819308
H      0.802692    -1.341167     2.280106
H      1.390101    -1.568793     3.638976
O      2.721366    -3.087170     0.992749
H      1.983585    -3.636169     0.700627
H      2.272195    -2.330281     1.389358
6
BHMC Sample 2616
O      0.310361     0.242590    -0.093489
H     -0.448885    -0.007482    -0.632691
H      0.138524    -0.235108     0.726180
O     -2.141098     2.037925     0.429111
H     -1.583185     2.791845     0.655813
H     -1.542349     1.291388     0.556064
6
BHMC Sample 2617
O      0.310361     0.242590    -0.093489
H     -0.448885    -0.007482    -0.632691
H      0.138524    -0.235108     0.726180
O      0.150132     2.718455     1.228429
H      0.828210     3.100341     0.657964
H     -0.144844     1.954626     0.717069
6
BHMC Sample 2618
O      0.310361     0.242590    -0.093489
H     -0.448885    -0.007482    -0.632691
H      0.138524    -0.235108     0.726180
O     -0.445840     2.949592    -0.150686
H      0.475154     3.237267    -0.159028
H     -0.377402     2.044820     0.178916
6
BHMC Sample 2619
O      0.310361     0.242590    -0.093489
H     -0.448885    -0.007482    -0.632691
H      0.138524    -0.235108     0.726180
O      2.088885    -0.968433    -1.902700
H      2.760549    -0.295359    -1.738704
H      1.516447    -0.882578    -1.130122
6
BHMC Sample 2620
O      0.310361     0.242590    -0.093489
H     -0.448885    -0.007482    -0.632691
H      0.138524    -0.235108     0.726180
O      2.684858    -1.199571    -0.523585
H      3.113605    -0.432285    -0.921712
H      1.749005    -0.972771    -0.591969
6
BHMC Sample 2621
O     -0.651587    -0.385348     0.100686
H     -1.410833    -0.635420    -0.438517
H     -0.823424    -0.863046     0.920354
O      2.684858    -1.199571    -0.523585
H      3.113605    -0.432285    -0.921712
H      1.749005    -0.972771    -0.591969
6
BHMC Sample 2622
O      2.110327     2.524738    -0.214253
H      2.508270     2.861426    -1.025433
H      2.887349     2.297051     0.309173
O      0.169035    -0.331362     0.155503
H      0.597782     0.435924    -0.242624
H     -0.766817    -0.104562     0.087120
6
BHMC Sample 2623
O     -0.391655    -0.036334     0.095918
H      0.006288     0.300354    -0.715261
H      0.385367    -0.264021     0.619344
O     -3.741023     0.144026     0.098321
H     -2.829504    -0.009776     0.374970
H     -4.102028     0.642567     0.842006
6
BHMC Sample 2624
O     -0.391655    -0.036334     0.095918
H      0.006288     0.300354    -0.715261
H      0.385367    -0.264021     0.619344
O     -2.955017     0.619069    -0.829193
H     -2.043498     0.465267    -0.552544
H     -3.316021     1.117610    -0.085508
6
BHMC Sample 2625
O      0.420059     1.220436     0.623767
H      0.818002     1.557123    -0.187412
H      1.197081     0.992748     1.147193
O     -2.955017     0.619069    -0.829193
H     -2.043498     0.465267    -0.552544
H     -3.316021     1.117610    -0.085508
6
BHMC Sample 2626
O      0.143150     1.864994     0.827296
H      0.679952     1.888220     0.026651
H      0.815023     1.889889     1.518342
O     -2.955017     0.619069    -0.829193
H     -2.043498     0.465267    -0.552544
H     -3.316021     1.117610    -0.085508
6
BHMC Sample 2627
O      2.250190    -0.917315     2.366953
H      2.498698    -1.782801     2.022123
H      2.974973    -0.729319     2.974345
O     -0.183505    -0.114913    -0.340111
H      0.728014    -0.268715    -0.063462
H     -0.544509     0.383628     0.403574
6
BHMC Sample 2628
O     -0.207161    -0.057716    -0.297712
H      0.041347    -0.923201    -0.642542
H      0.517622     0.130280     0.309681
O      2.273846    -0.974512     2.324553
H      3.185365    -1.128315     2.601202
H      1.912842    -0.475972     3.068238
6
BHMC Sample 2629
O      4.152953    -4.057976     4.294959
H      3.275136    -4.064988     4.693853
H      4.569061    -4.819087     4.715844
O      2.763648    -0.834607    -2.211580
H      2.915002    -0.525216    -3.112927
H      2.842501    -0.021431    -1.697323
6
BHMC Sample 2630
O      4.083671    -4.142644     4.372339
H      4.393933    -4.165720     3.459687
H      4.549908    -3.374495     4.721839
O      2.763648    -0.834607    -2.211580
H      2.915002    -0.525216    -3.112927
H      2.842501    -0.021431    -1.697323
6
BHMC Sample 2631
O      4.083671    -4.142644     4.372339
H      4.393933    -4.165720     3.459687
H      4.549908    -3.374495     4.721839
O      3.620786     0.013882    -3.241797
H      3.772140     0.323274    -4.143144
H      3.699639     0.827059    -2.727540
6
BHMC Sample 2632
O      4.083671    -4.142644     4.372339
H      4.393933    -4.165720     3.459687
H      4.549908    -3.374495     4.721839
O      4.617774     2.008433    -3.778053
H      4.769128     2.317825    -4.679400
H      4.696627     2.821610    -3.263796
6
BHMC Sample 2633
O      4.083671    -4.142644     4.372339
H      4.393933    -4.165720     3.459687
H      4.549908    -3.374495     4.721839
O      4.674020     2.086253    -3.749967
H      4.863132     1.857500    -4.668098
H      3.709898     2.046783    -3.720886
6
BHMC Sample 2634
O      4.083671    -4.142644     4.372339
H      4.393933    -4.165720     3.459687
H      4.549908    -3.374495     4.721839
O      3.102686     0.059735    -2.365130
H      3.291798    -0.169018    -3.283261
H      2.138564     0.020266    -2.336049
6
BHMC Sample 2635
O      4.173863    -4.150223     4.343324
H      3.220722    -4.223137     4.217087
H      4.291596    -3.196781     4.424966
O      3.102686     0.059735    -2.365130
H      3.291798    -0.169018    -3.283261
H      2.138564     0.020266    -2.336049
6
BHMC Sample 2636
O      4.172959    -4.151079     4.343020
H      4.255540    -3.238906     4.644431
H      3.271117    -4.167429     4.002446
O      3.102686     0.059735    -2.365130
H      3.291798    -0.169018    -3.283261
H      2.138564     0.020266    -2.336049
6
BHMC Sample 2637
O      3.105162    -0.005398    -2.412684
H      3.187742     0.906776    -2.111272
H      2.203319    -0.021747    -2.753258
O      4.170483    -4.085947     4.390574
H      4.359596    -4.314700     3.472443
H      3.206362    -4.125416     4.419655
6
BHMC Sample 2638
O      2.022349     0.220675    -0.273764
H      2.104929     1.132848     0.027648
H      1.120506     0.204325    -0.614338
O      4.170483    -4.085947     4.390574
H      4.359596    -4.314700     3.472443
H      3.206362    -4.125416     4.419655
6
BHMC Sample 2639
O      4.172959    -4.151079     4.343020
H      4.255540    -3.238906     4.644431
H      3.271117    -4.167429     4.002446
O      2.019873     0.285807    -0.226209
H      2.208985     0.057054    -1.144341
H      1.055751     0.246338    -0.197129
6
BHMC Sample 2640
O      4.172959    -4.151079     4.343020
H      4.255540    -3.238906     4.644431
H      3.271117    -4.167429     4.002446
O      3.773607     0.729833     1.064049
H      3.962720     0.501080     0.145917
H      2.809486     0.690363     1.093129
6
BHMC Sample 2641
O      3.776084     0.664700     1.016494
H      3.858664     1.576874     1.317906
H      2.874241     0.648351     0.675920
O      4.170483    -4.085947     4.390574
H      4.359596    -4.314700     3.472443
H      3.206362    -4.125416     4.419655
6
BHMC Sample 2642
O      4.273198     1.274555     2.111828
H      3.920210     2.071786     2.523596
H      3.740708     1.211774     1.310522
O      4.170483    -4.085947     4.390574
H      4.359596    -4.314700     3.472443
H      3.206362    -4.125416     4.419655
6
BHMC Sample 2643
O      4.176664    -4.142050     4.362625
H      3.823677    -3.344820     4.774393
H      3.644175    -4.204831     3.561318
O      4.267017     1.330658     2.139778
H      4.456129     1.101906     1.221647
H      3.302895     1.291189     2.168859
6
BHMC Sample 2644
O     -3.188868    -1.156840    -4.883374
H     -2.284557    -1.451815    -4.725448
H     -3.102986    -0.199839    -4.803682
O      0.258336     0.089407     0.296350
H      0.447449    -0.139345    -0.621781
H     -0.705785     0.049938     0.325431
6
BHMC Sample 2645
O     -3.188868    -1.156840    -4.883374
H     -2.284557    -1.451815    -4.725448
H     -3.102986    -0.199839    -4.803682
O      0.893867     2.138566     0.904510
H      1.082980     1.909813    -0.013621
H     -0.070255     2.099097     0.933591
6
BHMC Sample 2646
O     -3.188868    -1.156840    -4.883374
H     -2.284557    -1.451815    -4.725448
H     -3.102986    -0.199839    -4.803682
O      0.870413     2.188170     0.857800
H      1.397915     1.401107     0.675234
H     -0.012921     1.820488     0.986122
6
BHMC Sample 2647
O     -3.188868    -1.156840    -4.883374
H     -2.284557    -1.451815    -4.725448
H     -3.102986    -0.199839    -4.803682
O      0.915842     3.107048     0.181572
H      1.523278     2.379968    -0.001276
H      0.104675     2.643375     0.424366
6
BHMC Sample 2648
O     -3.402983    -3.280197    -1.062361
H     -2.523344    -3.434961    -0.699027
H     -3.252217    -2.515835    -1.630338
O      0.915842     3.107048     0.181572
H      1.523278     2.379968    -0.001276
H      0.104675     2.643375     0.424366
6
BHMC Sample 2649
O     -3.402983    -3.280197    -1.062361
H     -2.523344    -3.434961    -0.699027
H     -3.252217    -2.515835    -1.630338
O     -0.261492     2.994811    -1.874332
H      0.345944     2.267731    -2.057179
H     -1.072659     2.531138    -1.631537
6
BHMC Sample 2650
O     -3.402983    -3.280197    -1.062361
H     -2.523344    -3.434961    -0.699027
H     -3.252217    -2.515835    -1.630338
O      2.967851    -1.645546    -3.658715
H      3.029023    -2.044863    -2.782439
H      2.014574    -1.620350    -3.808924
6
BHMC Sample 2651
O     -4.016381    -2.126520    -2.727320
H     -3.294594    -2.279350    -2.106518
H     -3.612912    -1.516560    -3.355604
O      2.967851    -1.645546    -3.658715
H      3.029023    -2.044863    -2.782439
H      2.014574    -1.620350    -3.808924
6
BHMC Sample 2652
O      2.854973    -1.692057    -3.617671
H      3.576760    -1.844888    -2.996868
H      3.258442    -1.082097    -4.245954
O     -3.903503    -2.080009    -2.768365
H     -3.842331    -2.479325    -1.892088
H     -4.856780    -2.054812    -2.918573
6
BHMC Sample 2653
O      2.854973    -1.692057    -3.617671
H      3.576760    -1.844888    -2.996868
H      3.258442    -1.082097    -4.245954
O     -3.938864    -2.082856    -2.791311
H     -3.685029    -2.884344    -2.317771
H     -4.452827    -1.604608    -2.128698
6
BHMC Sample 2654
O      2.854973    -1.692057    -3.617671
H      3.576760    -1.844888    -2.996868
H      3.258442    -1.082097    -4.245954
O     -3.956137    -1.930257    -2.876344
H     -3.720274    -2.689206    -2.329150
H     -4.474638    -1.389143    -2.267832
6
BHMC Sample 2655
O     -2.628016     2.514542     2.252738
H     -3.010942     3.373658     2.464907
H     -1.739947     2.596363     2.619096
O     -3.956137    -1.930257    -2.876344
H     -3.720274    -2.689206    -2.329150
H     -4.474638    -1.389143    -2.267832
6
BHMC Sample 2656
O     -3.114402     3.716735     2.029964
H     -3.497329     4.575851     2.242134
H     -2.226334     3.798556     2.396323
O     -3.956137    -1.930257    -2.876344
H     -3.720274    -2.689206    -2.329150
H     -4.474638    -1.389143    -2.267832
6
BHMC Sample 2657
O     -4.000216    -1.995094    -2.844049
H     -4.383142    -1.135978    -2.631879
H     -3.112147    -1.913273    -2.477690
O     -3.070323     3.781572     1.997669
H     -2.834460     3.022623     2.544863
H     -3.588825     4.322686     2.606181
6
BHMC Sample 2658
O     -3.937836    -1.987029    -2.773376
H     -4.881185    -1.951807    -2.969799
H     -3.604192    -1.225450    -3.261491
O     -3.070323     3.781572     1.997669
H     -2.834460     3.022623     2.544863
H     -3.588825     4.322686     2.606181
6
BHMC Sample 2659
O     -2.210639    -2.358162    -2.288810
H     -2.743456    -2.138422    -3.061823
H     -1.442629    -1.787508    -2.407530
O     -3.070323     3.781572     1.997669
H     -2.834460     3.022623     2.544863
H     -3.588825     4.322686     2.606181
6
BHMC Sample 2660
O     -2.614445    -1.371507    -2.174317
H     -3.147262    -1.151767    -2.947329
H     -1.846435    -0.800853    -2.293037
O     -3.070323     3.781572     1.997669
H     -2.834460     3.022623     2.544863
H     -3.588825     4.322686     2.606181
6
BHMC Sample 2661
O     -2.106962    -3.939101    -1.163461
H     -2.639779    -3.719360    -1.936474
H     -1.338952    -3.368447    -1.282181
O     -3.070323     3.781572     1.997669
H     -2.834460     3.022623     2.544863
H     -3.588825     4.322686     2.606181
6
BHMC Sample 2662
O     -2.106962    -3.939101    -1.163461
H     -2.639779    -3.719360    -1.936474
H     -1.338952    -3.368447    -1.282181
O     -3.020029     3.755090     2.064704
H     -3.511707     4.424265     2.556145
H     -3.709850     3.341376     1.530923
6
BHMC Sample 2663
O     -3.099298     3.725158     2.112230
H     -3.632115     3.944899     1.339218
H     -2.331288     4.295812     1.993511
O     -2.027693    -3.909170    -1.210988
H     -2.519371    -3.239994    -0.719547
H     -2.717514    -4.322884    -1.744769
6
BHMC Sample 2664
O     -2.106962    -3.939101    -1.163461
H     -2.639779    -3.719360    -1.936474
H     -1.338952    -3.368447    -1.282181
O     -3.020029     3.755090     2.064704
H     -3.511707     4.424265     2.556145
H     -3.709850     3.341376     1.530923
6
BHMC Sample 2665
O     -3.099298     3.725158     2.112230
H     -3.632115     3.944899     1.339218
H     -2.331288     4.295812     1.993511
O     -2.027693    -3.909170    -1.210988
H     -2.519371    -3.239994    -0.719547
H     -2.717514    -4.322884    -1.744769
6
BHMC Sample 2666
O     -2.106962    -3.939101    -1.163461
H     -2.639779    -3.719360    -1.936474
H     -1.338952    -3.368447    -1.282181
O     -3.020029     3.755090     2.064704
H     -3.511707     4.424265     2.556145
H     -3.709850     3.341376     1.530923
6
BHMC Sample 2667
O     -2.082419    -3.860396    -1.155910
H     -2.683440    -3.651862    -1.880490
H     -1.684833    -4.685157    -1.458024
O     -3.020029     3.755090     2.064704
H     -3.511707     4.424265     2.556145
H     -3.709850     3.341376     1.530923
6
BHMC Sample 2668
O     -3.074755     3.803864     2.119782
H     -3.675776     4.012398     1.395202
H     -2.677170     2.979102     1.817667
O     -2.027693    -3.909170    -1.210988
H     -2.519371    -3.239994    -0.719547
H     -2.717514    -4.322884    -1.744769
6
BHMC Sample 2669
O     -0.552622     3.562790     3.719402
H     -1.153643     3.771324     2.994822
H     -0.155037     2.738028     3.417288
O     -2.027693    -3.909170    -1.210988
H     -2.519371    -3.239994    -0.719547
H     -2.717514    -4.322884    -1.744769
6
BHMC Sample 2670
O     -2.082419    -3.860396    -1.155910
H     -2.683440    -3.651862    -1.880490
H     -1.684833    -4.685157    -1.458024
O     -0.497896     3.514016     3.664324
H     -0.989574     4.183191     4.155765
H     -1.187717     3.100302     3.130543
6
BHMC Sample 2671
O     -0.552622     3.562790     3.719402
H     -1.153643     3.771324     2.994822
H     -0.155037     2.738028     3.417288
O     -2.027693    -3.909170    -1.210988
H     -2.519371    -3.239994    -0.719547
H     -2.717514    -4.322884    -1.744769
6
BHMC Sample 2672
O     -0.552622     3.562790     3.719402
H     -1.153643     3.771324     2.994822
H     -0.155037     2.738028     3.417288
O     -2.050014    -3.930796    -1.250405
H     -2.931855    -4.179289    -0.947645
H     -1.950757    -3.040329    -0.891031
6
BHMC Sample 2673
O     -0.621830     2.856126     4.667237
H     -1.216677     3.156569     3.970373
H     -0.218898     2.078707     4.263699
O     -2.050014    -3.930796    -1.250405
H     -2.931855    -4.179289    -0.947645
H     -1.950757    -3.040329    -0.891031
6
BHMC Sample 2674
O     -1.403213     4.003500     4.328128
H     -1.998060     4.303942     3.631264
H     -1.000281     3.226080     3.924590
O     -2.050014    -3.930796    -1.250405
H     -2.931855    -4.179289    -0.947645
H     -1.950757    -3.040329    -0.891031
6
BHMC Sample 2675
O     -2.083064    -3.868187    -1.151785
H     -2.677911    -3.567744    -1.848650
H     -1.680131    -4.645607    -1.555324
O     -1.370163     3.940890     4.229508
H     -2.252004     3.692398     4.532269
H     -1.270906     4.831358     4.588883
6
BHMC Sample 2676
O     -2.152975    -3.925192    -1.199282
H     -1.278858    -4.098936    -0.831229
H     -1.969555    -3.209632    -1.818886
O     -1.370163     3.940890     4.229508
H     -2.252004     3.692398     4.532269
H     -1.270906     4.831358     4.588883
6
BHMC Sample 2677
O     -1.189979    -2.417583    -0.541111
H     -0.315862    -2.591327    -0.173059
H     -1.006559    -1.702023    -1.160716
O     -1.370163     3.940890     4.229508
H     -2.252004     3.692398     4.532269
H     -1.270906     4.831358     4.588883
6
BHMC Sample 2678
O     -1.473124     3.946495     4.280632
H     -0.599007     3.772750     4.648684
H     -1.289704     4.662054     3.661027
O     -1.087018    -2.423187    -0.592235
H     -1.968859    -2.671680    -0.289475
H     -0.987761    -1.532720    -0.232861
6
BHMC Sample 2679
O     -1.473124     3.946495     4.280632
H     -0.599007     3.772750     4.648684
H     -1.289704     4.662054     3.661027
O     -0.217854    -4.327045    -2.116254
H     -1.099695    -4.575537    -1.813493
H     -0.118597    -3.436577    -1.756879
6
BHMC Sample 2680
O     -1.473124     3.946495     4.280632
H     -0.599007     3.772750     4.648684
H     -1.289704     4.662054     3.661027
O     -1.924697    -3.272550    -0.428787
H     -2.806538    -3.521042    -0.126026
H     -1.825440    -2.382082    -0.069412
6
BHMC Sample 2681
O     -1.473124     3.946495     4.280632
H     -0.599007     3.772750     4.648684
H     -1.289704     4.662054     3.661027
O     -0.149576    -3.602216    -1.990720
H     -1.031417    -3.850708    -1.687959
H     -0.050319    -2.711748    -1.631345
6
BHMC Sample 2682
O     -1.473124     3.946495     4.280632
H     -0.599007     3.772750     4.648684
H     -1.289704     4.662054     3.661027
O      1.406027    -3.338173    -0.186391
H      0.524186    -3.586666     0.116369
H      1.505284    -2.447706     0.172983
6
BHMC Sample 2683
O     -1.473124     3.946495     4.280632
H     -0.599007     3.772750     4.648684
H     -1.289704     4.662054     3.661027
O      1.368158    -3.361958    -0.180656
H      0.685910    -2.688125    -0.288099
H      1.944622    -2.968736     0.486427
6
BHMC Sample 2684
O     -1.473124     3.946495     4.280632
H     -0.599007     3.772750     4.648684
H     -1.289704     4.662054     3.661027
O      1.413935    -3.270938    -0.118891
H      1.263485    -3.412239    -1.061470
H      0.640477    -3.689286     0.279460
6
BHMC Sample 2685
O     -1.379084     4.022072     4.303359
H     -2.255513     3.653950     4.464873
H     -1.125803     3.581295     3.484125
O      1.413935    -3.270938    -0.118891
H      1.263485    -3.412239    -1.061470
H      0.640477    -3.689286     0.279460
6
BHMC Sample 2686
O      1.397106    -3.256992    -0.112541
H      0.520677    -3.625114     0.048974
H      1.650387    -3.697769    -0.931774
O     -1.362255     4.008125     4.297008
H     -1.512705     3.866825     3.354429
H     -2.135713     3.589778     4.695360
6
BHMC Sample 2687
O      3.338093    -2.734163    -0.958631
H      2.461664    -3.102285    -0.797116
H      3.591374    -3.174940    -1.777864
O     -1.362255     4.008125     4.297008
H     -1.512705     3.866825     3.354429
H     -2.135713     3.589778     4.695360
6
BHMC Sample 2688
O     -1.379084     4.022072     4.303359
H     -2.255513     3.653950     4.464873
H     -1.125803     3.581295     3.484125
O      3.354922    -2.748110    -0.964981
H      3.204473    -2.889410    -1.907560
H      2.581465    -3.166457    -0.566630
6
BHMC Sample 2689
O     -1.379084     4.022072     4.303359
H     -2.255513     3.653950     4.464873
H     -1.125803     3.581295     3.484125
O      3.368817    -2.777894    -0.978823
H      2.634602    -2.289448    -0.587155
H      2.930798    -3.293677    -1.667330
6
BHMC Sample 2690
O     -1.509189     4.049045     4.149879
H     -2.387750     3.679518     4.295851
H     -1.237457     3.602634     3.339658
O      3.368817    -2.777894    -0.978823
H      2.634602    -2.289448    -0.587155
H      2.930798    -3.293677    -1.667330
6
BHMC Sample 2691
O      3.337180    -2.733769    -0.958265
H      2.458619    -3.103297    -0.812293
H      3.608912    -3.180181    -1.768486
O     -1.477553     4.004920     4.129321
H     -2.211768     4.493367     4.520989
H     -1.915571     3.489137     3.440814
6
BHMC Sample 2692
O      3.297038    -4.149452     1.087315
H      2.418476    -4.518980     1.233288
H      3.568769    -4.595863     0.277094
O     -1.477553     4.004920     4.129321
H     -2.211768     4.493367     4.520989
H     -1.915571     3.489137     3.440814
6
BHMC Sample 2693
O     -1.509189     4.049045     4.149879
H     -2.387750     3.679518     4.295851
H     -1.237457     3.602634     3.339658
O      3.328674    -4.193577     1.066757
H      2.594459    -3.705130     1.458426
H      2.890655    -4.709360     0.378251
6
BHMC Sample 2694
O     -1.509189     4.049045     4.149879
H     -2.387750     3.679518     4.295851
H     -1.237457     3.602634     3.339658
O      2.170777    -3.816333    -1.519604
H      1.436562    -3.327886    -1.127935
H      1.732758    -4.332116    -2.208110
6
BHMC Sample 2695
O      2.139141    -3.772208    -1.499046
H      1.260579    -4.141736    -1.353073
H      2.410872    -4.218619    -2.309267
O     -1.477553     4.004920     4.129321
H     -2.211768     4.493367     4.520989
H     -1.915571     3.489137     3.440814
6
BHMC Sample 2696
O     -1.509189     4.049045     4.149879
H     -2.387750     3.679518     4.295851
H     -1.237457     3.602634     3.339658
O      2.170777    -3.816333    -1.519604
H      1.436562    -3.327886    -1.127935
H      1.732758    -4.332116    -2.208110
6
BHMC Sample 2697
O     -2.534975     3.463662     4.451033
H     -3.413536     3.094134     4.597005
H     -2.263243     3.017251     3.640812
O      2.170777    -3.816333    -1.519604
H      1.436562    -3.327886    -1.127935
H      1.732758    -4.332116    -2.208110
6
BHMC Sample 2698
O     -2.534975     3.463662     4.451033
H     -3.413536     3.094134     4.597005
H     -2.263243     3.017251     3.640812
O      2.140657    -3.847957    -1.585371
H      1.874218    -4.202540    -0.728436
H      1.773173    -2.955532    -1.563750
6
BHMC Sample 2699
O     -2.534975     3.463662     4.451033
H     -3.413536     3.094134     4.597005
H     -2.263243     3.017251     3.640812
O      1.841307    -3.996701    -1.630735
H      1.405227    -4.372327    -0.856270
H      1.609117    -3.061889    -1.566319
6
BHMC Sample 2700
O     -2.630625     3.438166     4.434010
H     -2.391389     2.838155     3.718132
H     -1.767221     3.677908     4.789868
O      1.841307    -3.996701    -1.630735
H      1.405227    -4.372327    -0.856270
H      1.609117    -3.061889    -1.566319
6
BHMC Sample 2701
O     -2.630625     3.438166     4.434010
H     -2.391389     2.838155     3.718132
H     -1.767221     3.677908     4.789868
O      3.502161    -4.074178    -0.941424
H      3.066081    -4.449804    -0.166959
H      3.269972    -3.139366    -0.877008
6
BHMC Sample 2702
O     -2.630625     3.438166     4.434010
H     -2.391389     2.838155     3.718132
H     -1.767221     3.677908     4.789868
O      3.429828    -3.996661    -0.929448
H      3.097858    -4.709295    -0.369980
H      4.386261    -4.110222    -0.864062
6
BHMC Sample 2703
O     -2.630625     3.438166     4.434010
H     -2.391389     2.838155     3.718132
H     -1.767221     3.677908     4.789868
O      3.408688    -4.014690    -0.919782
H      4.320271    -3.924301    -1.222936
H      3.499394    -4.609071    -0.164523
6
BHMC Sample 2704
O     -2.630625     3.438166     4.434010
H     -2.391389     2.838155     3.718132
H     -1.767221     3.677908     4.789868
O      3.394347    -4.035652    -0.906565
H      4.305725    -3.947140    -1.210886
H      3.485120    -4.628178    -0.149857
6
BHMC Sample 2705
O     -2.630625     3.438166     4.434010
H     -2.391389     2.838155     3.718132
H     -1.767221     3.677908     4.789868
O      3.446396    -4.089049    -0.943937
H      3.679746    -4.541771    -0.124396
H      3.284974    -3.186040    -0.643182
6
BHMC Sample 2706
O     -2.630625     3.438166     4.434010
H     -2.391389     2.838155     3.718132
H     -1.767221     3.677908     4.789868
O      3.432235    -4.123921    -0.906580
H      2.873144    -3.375468    -0.665142
H      4.316345    -3.798845    -0.695370
6
BHMC Sample 2707
O      3.388724    -4.043695    -0.861108
H      3.627960    -4.643706    -1.576987
H      4.252129    -3.803952    -0.505251
O     -2.587115     3.357940     4.388539
H     -3.146205     4.106393     4.629976
H     -1.703005     3.683016     4.599749
6
BHMC Sample 2708
O     -2.630625     3.438166     4.434010
H     -2.391389     2.838155     3.718132
H     -1.767221     3.677908     4.789868
O      3.432235    -4.123921    -0.906580
H      2.873144    -3.375468    -0.665142
H      4.316345    -3.798845    -0.695370
6
BHMC Sample 2709
O     -2.630625     3.438166     4.434010
H     -2.391389     2.838155     3.718132
H     -1.767221     3.677908     4.789868
O      4.012709    -2.198030    -1.837919
H      3.453618    -1.449577    -1.596481
H      4.896819    -1.872954    -1.626709
6
BHMC Sample 2710
O     -2.630625     3.438166     4.434010
H     -2.391389     2.838155     3.718132
H     -1.767221     3.677908     4.789868
O     -0.778658    -2.541102    -4.259461
H     -1.084901    -1.766952    -3.771644
H      0.081284    -2.251593    -4.589034
6
BHMC Sample 2711
O     -2.630625     3.438166     4.434010
H     -2.391389     2.838155     3.718132
H     -1.767221     3.677908     4.789868
O     -3.299465    -1.435956    -4.112672
H     -3.605707    -0.661807    -3.624855
H     -2.439522    -1.146448    -4.442244
6
BHMC Sample 2712
O     -2.630625     3.438166     4.434010
H     -2.391389     2.838155     3.718132
H     -1.767221     3.677908     4.789868
O     -4.262869    -2.316533    -2.722270
H     -4.569111    -1.542384    -2.234454
H     -3.402927    -2.027025    -3.051843
6
BHMC Sample 2713
O     -2.630625     3.438166     4.434010
H     -2.391389     2.838155     3.718132
H     -1.767221     3.677908     4.789868
O     -3.899934     0.127751    -2.557767
H     -4.206177     0.901900    -2.069950
H     -3.039992     0.417259    -2.887340
6
BHMC Sample 2714
O     -1.292373     3.029493     1.922513
H     -1.053137     2.429482     1.206635
H     -0.428969     3.269236     2.278371
O     -3.899934     0.127751    -2.557767
H     -4.206177     0.901900    -2.069950
H     -3.039992     0.417259    -2.887340
6
BHMC Sample 2715
O     -1.292373     3.029493     1.922513
H     -1.053137     2.429482     1.206635
H     -0.428969     3.269236     2.278371
O     -3.880336     0.232430    -2.499811
H     -4.189341     0.242585    -3.413850
H     -3.367902    -0.584892    -2.463320
6
BHMC Sample 2716
O     -3.930650     0.207425    -2.528768
H     -3.691413    -0.392586    -3.244647
H     -3.067245     0.447167    -2.172910
O     -1.242059     3.054499     1.951471
H     -1.551065     3.064654     1.037431
H     -0.729626     2.237177     1.987962
6
BHMC Sample 2717
O     -1.292373     3.029493     1.922513
H     -1.053137     2.429482     1.206635
H     -0.428969     3.269236     2.278371
O     -3.880336     0.232430    -2.499811
H     -4.189341     0.242585    -3.413850
H     -3.367902    -0.584892    -2.463320
6
BHMC Sample 2718
O     -1.292373     3.029493     1.922513
H     -1.053137     2.429482     1.206635
H     -0.428969     3.269236     2.278371
O     -3.015475     2.549241    -1.556151
H     -3.324481     2.559396    -2.470191
H     -2.503042     1.731920    -1.519660
6
BHMC Sample 2719
O     -1.238248     2.962369     1.905152
H     -1.013549     2.372049     1.176618
H     -0.368155     3.190599     2.252180
O     -3.015475     2.549241    -1.556151
H     -3.324481     2.559396    -2.470191
H     -2.503042     1.731920    -1.519660
6
BHMC Sample 2720
O      2.682718    -3.176360    -0.438639
H      2.584027    -2.484635     0.225820
H      3.639541    -3.291961    -0.465197
O     -0.067809     0.269056     0.292516
H     -0.376815     0.279211    -0.621524
H      0.444624    -0.548266     0.329007
6
BHMC Sample 2721
O      2.682718    -3.176360    -0.438639
H      2.584027    -2.484635     0.225820
H      3.639541    -3.291961    -0.465197
O     -1.279643    -0.397225    -0.048678
H     -1.588649    -0.387070    -0.962717
H     -0.767210    -1.214547    -0.012186
6
BHMC Sample 2722
O      2.682718    -3.176360    -0.438639
H      2.584027    -2.484635     0.225820
H      3.639541    -3.291961    -0.465197
O     -0.250419    -1.951876     2.246005
H     -0.559424    -1.941721     1.331966
H      0.262015    -2.769198     2.282497
6
BHMC Sample 2723
O      1.903791     2.856482     1.749660
H      2.128490     2.266161     1.021127
H      2.773883     3.084712     2.096688
O     -0.067809     0.269056     0.292516
H     -0.376815     0.279211    -0.621524
H      0.444624    -0.548266     0.329007
6
BHMC Sample 2724
O      1.222653     2.347254     2.869637
H      0.397419     1.849980     2.831738
H      0.998759     3.058408     3.480955
O     -0.067809     0.269056     0.292516
H     -0.376815     0.279211    -0.621524
H      0.444624    -0.548266     0.329007
6
BHMC Sample 2725
O     -0.874666     3.358544     1.787300
H     -1.371754     2.532867     1.817137
H     -1.154815     3.789271     2.603124
O     -0.067809     0.269056     0.292516
H     -0.376815     0.279211    -0.621524
H      0.444624    -0.548266     0.329007
6
BHMC Sample 2726
O     -0.874666     3.358544     1.787300
H     -1.371754     2.532867     1.817137
H     -1.154815     3.789271     2.603124
O     -0.052452     0.222631     0.310964
H     -0.667423     0.711496    -0.249285
H      0.491484    -0.243700    -0.336032
6
BHMC Sample 2727
O     -0.012938     0.245991     0.196097
H     -0.510025    -0.579687     0.225934
H     -0.293086     0.676718     1.011921
O     -0.914181     3.335185     1.902167
H     -1.529151     3.824049     1.341918
H     -0.370244     2.868854     1.255171
6
BHMC Sample 2728
O      3.253226    -0.340740     1.202079
H      3.923718     0.346028     1.294387
H      2.438571     0.156724     1.337893
O      0.023678    -0.007511     0.402415
H     -0.591293     0.481353    -0.157834
H      0.567614    -0.473842    -0.244581
6
BHMC Sample 2729
O      3.253226    -0.340740     1.202079
H      3.923718     0.346028     1.294387
H      2.438571     0.156724     1.337893
O      0.283449    -0.447500     1.318914
H     -0.331522     0.041364     0.758665
H      0.827385    -0.913831     0.671919
6
BHMC Sample 2730
O      0.048055    -0.394743    -0.076041
H      0.718546     0.292024     0.016267
H     -0.766601     0.102720     0.059774
O      2.951559     0.246298    -0.131414
H      3.391186     0.869437    -0.722584
H      2.505334    -0.346103    -0.749377
6
BHMC Sample 2731
O     -0.278524     2.947737     0.534008
H     -0.728457     2.097039     0.594025
H     -1.004330     3.567122     0.672383
O      0.002199    -0.010246     0.403045
H      0.441826     0.612893    -0.188126
H     -0.444026    -0.602647    -0.214919
6
BHMC Sample 2732
O      0.391913     0.077105    -0.066131
H     -0.058020    -0.773594    -0.006114
H     -0.333893     0.696489     0.072244
O      0.679588    -2.881718    -0.156874
H      1.296431    -2.279973     0.277251
H      0.462431    -3.501773     0.550451
6
BHMC Sample 2733
O      0.765518     0.025263     0.537078
H      0.553414    -0.644301    -0.123547
H      0.492967     0.836517     0.093049
O      0.679588    -2.881718    -0.156874
H      1.296431    -2.279973     0.277251
H      0.462431    -3.501773     0.550451
6
BHMC Sample 2734
O     -0.006479    -0.225316     1.044426
H      0.113111    -0.743616     0.240192
H     -0.306114     0.621099     0.693174
O      0.679588    -2.881718    -0.156874
H      1.296431    -2.279973     0.277251
H      0.462431    -3.501773     0.550451
6
BHMC Sample 2735
O      0.712026    -2.901102    -0.028353
H      0.831617    -3.419402    -0.832587
H      0.412391    -2.054686    -0.379605
O     -0.038917    -0.205933     0.915905
H      0.577925     0.395812     1.350030
H     -0.256075    -0.825988     1.623230
6
BHMC Sample 2736
O      0.685016    -2.911853    -0.033977
H      0.725117    -3.302752    -0.914499
H      0.947589    -2.000697    -0.208418
O     -0.038917    -0.205933     0.915905
H      0.577925     0.395812     1.350030
H     -0.256075    -0.825988     1.623230
6
BHMC Sample 2737
O      1.263632    -2.731253     0.592710
H      1.839877    -3.147199     1.244369
H      1.586954    -1.822936     0.591876
O     -0.133228     0.006103    -0.380483
H      0.483614     0.607848     0.053642
H     -0.350386    -0.613951     0.326842
6
BHMC Sample 2738
O     -0.299856    -0.164124    -0.216942
H      0.276389    -0.580070     0.434717
H      0.023466     0.744194    -0.217775
O     -0.657178    -2.873366     1.492876
H      0.040290    -2.694052     2.135092
H     -1.150994    -2.043887     1.486157
6
BHMC Sample 2739
O     -0.299856    -0.164124    -0.216942
H      0.276389    -0.580070     0.434717
H      0.023466     0.744194    -0.217775
O      1.817898    -1.554651    -2.222907
H      2.461483    -1.800602    -1.547360
H      0.986295    -1.856576    -1.836628
6
BHMC Sample 2740
O     -0.299856    -0.164124    -0.216942
H      0.276389    -0.580070     0.434717
H      0.023466     0.744194    -0.217775
O      1.577182    -0.293430    -2.844188
H      2.011398     0.557593    -2.709015
H      0.646055    -0.073909    -2.714775
6
BHMC Sample 2741
O     -0.299856    -0.164124    -0.216942
H      0.276389    -0.580070     0.434717
H      0.023466     0.744194    -0.217775
O      1.588016    -0.428787    -2.825259
H      1.995861     0.442576    -2.751464
H      0.650325    -0.228983    -2.712352
6
BHMC Sample 2742
O     -0.299856    -0.164124    -0.216942
H      0.276389    -0.580070     0.434717
H      0.023466     0.744194    -0.217775
O     -2.542774     1.045812     1.768705
H     -2.147380     1.921619     1.856348
H     -2.520686     0.902996     0.814216
6
BHMC Sample 2743
O     -0.299856    -0.164124    -0.216942
H      0.276389    -0.580070     0.434717
H      0.023466     0.744194    -0.217775
O      1.588016    -0.428787    -2.825259
H      1.995861     0.442576    -2.751464
H      0.650325    -0.228983    -2.712352
6
BHMC Sample 2744
O     -0.845550    -0.319946    -0.702320
H     -0.545828    -1.002942    -0.091246
H     -0.373332     0.456531    -0.380337
O      1.588016    -0.428787    -2.825259
H      1.995861     0.442576    -2.751464
H      0.650325    -0.228983    -2.712352
6
BHMC Sample 2745
O     -2.598808     0.222829    -1.611982
H     -2.431031    -0.278359    -2.418450
H     -2.174959     1.065954    -1.809648
O      0.176615    -0.357056    -0.062234
H      0.584460     0.514307     0.011561
H     -0.761076    -0.157252     0.050673
6
BHMC Sample 2746
O     -2.256951    -0.248215     2.060705
H     -1.957229    -0.931211     2.671778
H     -1.784733     0.528262     2.382688
O      0.176615    -0.357056    -0.062234
H      0.584460     0.514307     0.011561
H     -0.761076    -0.157252     0.050673
6
BHMC Sample 2747
O      1.645155     1.703377     1.947797
H      2.040086     1.067998     2.556116
H      0.756440     1.799200     2.309158
O      0.176615    -0.357056    -0.062234
H      0.584460     0.514307     0.011561
H     -0.761076    -0.157252     0.050673
6
BHMC Sample 2748
O     -0.597988     2.665745    -1.006437
H     -0.007866     2.751211    -1.764184
H     -0.018433     2.906490    -0.274497
O      0.176615    -0.357056    -0.062234
H      0.584460     0.514307     0.011561
H     -0.761076    -0.157252     0.050673
6
BHMC Sample 2749
O     -0.389892    -0.108737     0.008602
H      0.200230    -0.023271    -0.749145
H      0.189663     0.132008     0.740542
O     -2.545461    -2.049430    -0.427591
H     -1.597622    -1.972029    -0.590888
H     -2.868591    -1.170405    -0.661763
6
BHMC Sample 2750
O     -2.575954    -2.014167    -0.448387
H     -1.985832    -1.928701    -1.206134
H     -1.996399    -1.773422     0.283553
O     -0.359400    -0.144000     0.029398
H      0.588440    -0.066599    -0.133899
H     -0.682530     0.735025    -0.204774
6
BHMC Sample 2751
O     -2.060579    -1.391177     2.146881
H     -1.302929    -0.938745     2.535469
H     -1.713456    -1.659571     1.288365
O     -0.208236    -0.318808     0.132490
H      0.739603    -0.241408    -0.030807
H     -0.531367     0.560217    -0.101682
6
BHMC Sample 2752
O     -2.051882    -1.340472     2.133402
H     -1.468358    -1.351458     1.365868
H     -1.686054    -2.051638     2.671911
O     -0.208236    -0.318808     0.132490
H      0.739603    -0.241408    -0.030807
H     -0.531367     0.560217    -0.101682
6
BHMC Sample 2753
O     -0.494593    -2.320957     2.219690
H     -0.694093    -1.838944     1.408770
H     -1.334105    -2.273229     2.691412
O     -0.208236    -0.318808     0.132490
H      0.739603    -0.241408    -0.030807
H     -0.531367     0.560217    -0.101682
6
BHMC Sample 2754
O      0.346337    -0.176581     0.113066
H      0.146838     0.305433    -0.697854
H     -0.493174    -0.128852     0.584788
O      0.116274     0.321637    -2.741029
H      0.904825    -0.064846    -3.140872
H     -0.530147     0.259168    -3.455293
6
BHMC Sample 2755
O      0.502984    -0.239586     0.085902
H      0.252905     0.256761    -0.702026
H     -0.312450    -0.221219     0.600011
O      0.116274     0.321637    -2.741029
H      0.904825    -0.064846    -3.140872
H     -0.530147     0.259168    -3.455293
6
BHMC Sample 2756
O      0.502984    -0.239586     0.085902
H      0.252905     0.256761    -0.702026
H     -0.312450    -0.221219     0.600011
O      0.771056     0.801115    -2.606038
H      1.325970     0.138656    -3.035312
H      0.269847     1.163489    -3.347258
6
BHMC Sample 2757
O     -1.798116     0.527040     2.637237
H     -1.098157     0.101263     2.128808
H     -1.941170    -0.107218     3.349158
O     -0.017901     0.100028     0.390165
H      0.537012    -0.562430    -0.039109
H     -0.519111     0.462403    -0.351056
6
BHMC Sample 2758
O     -0.285974    -0.940673     3.082104
H     -0.536052    -0.444326     2.294177
H     -1.101408    -0.922306     3.596213
O     -0.017901     0.100028     0.390165
H      0.537012    -0.562430    -0.039109
H     -0.519111     0.462403    -0.351056
6
BHMC Sample 2759
O     -0.285974    -0.940673     3.082104
H     -0.536052    -0.444326     2.294177
H     -1.101408    -0.922306     3.596213
O     -3.109444    -0.875061     3.876340
H     -3.276191     0.053095     4.080736
H     -3.982706    -1.188777     3.610012
6
BHMC Sample 2760
O     -0.285974    -0.940673     3.082104
H     -0.536052    -0.444326     2.294177
H     -1.101408    -0.922306     3.596213
O     -3.110545    -0.804588     3.877142
H     -3.951843    -0.660368     4.327112
H     -3.289579    -1.593865     3.350906
6
BHMC Sample 2761
O     -3.108017    -0.869481     3.888195
H     -3.358095    -0.373134     3.100268
H     -3.923451    -0.851114     4.402305
O     -0.288502    -0.875780     3.071050
H     -1.129800    -0.731560     3.521021
H     -0.467535    -1.665056     2.544814
6
BHMC Sample 2762
O     -0.285974    -0.940673     3.082104
H     -0.536052    -0.444326     2.294177
H     -1.101408    -0.922306     3.596213
O     -3.110545    -0.804588     3.877142
H     -3.951843    -0.660368     4.327112
H     -3.289579    -1.593865     3.350906
6
BHMC Sample 2763
O     -3.108017    -0.869481     3.888195
H     -3.358095    -0.373134     3.100268
H     -3.923451    -0.851114     4.402305
O     -0.288502    -0.875780     3.071050
H     -1.129800    -0.731560     3.521021
H     -0.467535    -1.665056     2.544814
6
BHMC Sample 2764
O      0.355171    -0.171571     0.091273
H      0.105092     0.324776    -0.696654
H     -0.460263    -0.153204     0.605382
O      1.865395    -0.910411     2.515673
H      1.489764    -0.435648     1.764303
H      1.718862    -1.832997     2.272161
6
BHMC Sample 2765
O      0.355171    -0.171571     0.091273
H      0.105092     0.324776    -0.696654
H     -0.460263    -0.153204     0.605382
O      3.204256     0.220943    -0.566645
H      2.328108     0.272763    -0.165728
H      3.161946    -0.613574    -1.050098
6
BHMC Sample 2766
O     -2.373571    -0.372667     1.086702
H     -1.970049    -0.806590     1.847366
H     -3.276167    -0.230243     1.394297
O      0.306153     0.260899     0.027512
H     -0.569995     0.312719     0.428429
H      0.263842    -0.573618    -0.455941
6
BHMC Sample 2767
O      0.282687     0.233415    -0.036879
H      0.686209    -0.200508     0.723786
H     -0.619909     0.375839     0.270716
O     -2.350105    -0.345183     1.151093
H     -3.226253    -0.293363     1.552010
H     -2.392415    -1.179699     0.667640
6
BHMC Sample 2768
O      0.590734    -0.206154     1.221780
H      0.597290    -1.009432     1.755099
H     -0.329728     0.072044     1.292026
O     -2.350105    -0.345183     1.151093
H     -3.226253    -0.293363     1.552010
H     -2.392415    -1.179699     0.667640
6
BHMC Sample 2769
O      1.572521     2.176140     1.871933
H      1.398183     1.564746     2.596870
H      1.446552     1.611571     1.100589
O      0.306153     0.260899     0.027512
H     -0.569995     0.312719     0.428429
H      0.263842    -0.573618    -0.455941
6
BHMC Sample 2770
O      1.572521     2.176140     1.871933
H      1.398183     1.564746     2.596870
H      1.446552     1.611571     1.100589
O      0.279695     0.249860     0.076613
H     -0.613163     0.278826    -0.288109
H      0.726953    -0.364516    -0.518733
6
BHMC Sample 2771
O      1.342984     2.168582     2.132193
H      1.177194     1.553090     2.855666
H      0.777327     1.814818     1.436161
O      0.148533     0.195137     0.320022
H     -0.744325     0.224103    -0.044699
H      0.595792    -0.419239    -0.275323
6
BHMC Sample 2772
O      1.342984     2.168582     2.132193
H      1.177194     1.553090     2.855666
H      0.777327     1.814818     1.436161
O      1.106899     1.280241    -0.617580
H      0.377286     1.473080    -1.218857
H      1.813546     1.025733    -1.224054
6
BHMC Sample 2773
O      1.146541     1.331023    -0.686693
H      0.980750     0.715532     0.036779
H      0.580883     0.977260    -1.382726
O      1.303342     2.117799     2.201306
H      0.573729     2.310639     1.600030
H      2.009989     1.863292     1.594832
6
BHMC Sample 2774
O      0.207598     0.250316     0.405861
H      0.041807    -0.365175     1.129333
H     -0.358060    -0.103447    -0.290172
O      1.303342     2.117799     2.201306
H      0.573729     2.310639     1.600030
H      2.009989     1.863292     1.594832
6
BHMC Sample 2775
O     -0.338749     0.452670     0.648951
H     -0.590269    -0.047685     1.433878
H     -1.025261     0.197762     0.021813
O      1.303342     2.117799     2.201306
H      0.573729     2.310639     1.600030
H      2.009989     1.863292     1.594832
6
BHMC Sample 2776
O      1.354543     2.156608     2.124900
H      1.103023     1.656253     2.909827
H      0.668031     1.901700     1.497762
O     -0.389950     0.413861     0.725357
H     -1.119563     0.606701     0.124081
H      0.316697     0.159354     0.118883
6
BHMC Sample 2777
O      0.312678     0.251754    -0.052597
H      0.061157    -0.248601     0.732331
H     -0.373835    -0.003153    -0.679734
O     -2.311972    -0.297868    -0.973613
H     -2.617661    -0.679693    -1.805370
H     -2.487098     0.642939    -1.100682
6
BHMC Sample 2778
O     -1.057485    -0.130590     2.879513
H     -0.223222    -0.491384     3.201325
H     -0.990044    -0.288588     1.930794
O      0.160271    -0.186327     0.319609
H     -0.145417    -0.568153    -0.512148
H     -0.014854     0.754480     0.192539
6
BHMC Sample 2779
O     -0.300568     0.172931     0.208969
H      0.533695    -0.187863     0.530781
H     -0.233127     0.014933    -0.739750
O      2.494521    -0.299852     0.263282
H      3.018467    -0.901031     0.806532
H      2.651863     0.553052     0.687231
6
BHMC Sample 2780
O      2.482188    -0.256739     0.352477
H      3.316450    -0.617532     0.674290
H      2.549629    -0.414737    -0.596241
O     -0.288235     0.129818     0.119773
H      0.235711    -0.471362     0.663023
H     -0.130893     0.982721     0.543723
6
BHMC Sample 2781
O      2.482188    -0.256739     0.352477
H      3.316450    -0.617532     0.674290
H      2.549629    -0.414737    -0.596241
O      1.198380     2.111600     1.118331
H      1.300701     1.257197     1.554888
H      2.078142     2.498177     1.210590
6
BHMC Sample 2782
O     -0.300568     0.172931     0.208969
H      0.533695    -0.187863     0.530781
H     -0.233127     0.014933    -0.739750
O      2.999169    -0.918516    -0.282641
H      2.209357    -1.295254    -0.689240
H      2.899827    -1.177369     0.642054
6
BHMC Sample 2783
O     -0.300568     0.172931     0.208969
H      0.533695    -0.187863     0.530781
H     -0.233127     0.014933    -0.739750
O      3.346177     1.283196     0.287526
H      2.556365     0.906458    -0.119073
H      3.246835     1.024344     1.212221
6
BHMC Sample 2784
O      0.225510    -0.824065    -0.485896
H      1.059772    -1.184859    -0.164083
H      0.292951    -0.982063    -1.434614
O      3.346177     1.283196     0.287526
H      2.556365     0.906458    -0.119073
H      3.246835     1.024344     1.212221
6
BHMC Sample 2785
O      0.225510    -0.824065    -0.485896
H      1.059772    -1.184859    -0.164083
H      0.292951    -0.982063    -1.434614
O      3.686300     0.552334     0.497846
H      2.848498     0.375969     0.052829
H      3.513228     0.242874     1.395740
6
BHMC Sample 2786
O     -0.300568     0.172931     0.208969
H      0.533695    -0.187863     0.530781
H     -0.233127     0.014933    -0.739750
O      0.683080     2.204283    -2.912821
H      0.646336     1.816119    -2.030191
H     -0.221967     2.088355    -3.228075
6
BHMC Sample 2787
O      0.579930     2.205106    -2.845997
H      1.414192     1.844312    -2.524184
H      0.647371     2.047108    -3.794715
O     -0.197418     0.172108     0.142145
H     -0.234162    -0.216056     1.024774
H     -1.102465     0.056180    -0.173110
6
BHMC Sample 2788
O     -0.300568     0.172931     0.208969
H      0.533695    -0.187863     0.530781
H     -0.233127     0.014933    -0.739750
O     -3.547369    -1.207147    -0.895676
H     -4.385171    -1.383512    -1.340692
H     -3.720441    -1.516608     0.002219
6
BHMC Sample 2789
O     -0.300568     0.172931     0.208969
H      0.533695    -0.187863     0.530781
H     -0.233127     0.014933    -0.739750
O     -1.077916    -1.860067     3.197110
H     -1.114660    -2.248231     4.079740
H     -1.982963    -1.975995     2.881856
6
BHMC Sample 2790
O     -1.181066    -1.859244     3.263934
H     -0.346803    -2.220038     3.585747
H     -1.113624    -2.017242     2.315216
O     -0.197418     0.172108     0.142145
H     -0.234162    -0.216056     1.024774
H     -1.102465     0.056180    -0.173110
6
BHMC Sample 2791
O     -1.181066    -1.859244     3.263934
H     -0.346803    -2.220038     3.585747
H     -1.113624    -2.017242     2.315216
O     -0.066433     0.698618     0.617472
H     -0.081795     0.053882     1.335201
H     -0.975334     1.023884     0.611549
6
BHMC Sample 2792
O     -0.300568     0.172931     0.208969
H      0.533695    -0.187863     0.530781
H     -0.233127     0.014933    -0.739750
O     -0.000934    -2.114274     3.096958
H     -0.190033    -1.677779     2.257453
H      0.946693    -2.286696     3.032090
6
BHMC Sample 2793
O     -0.219498     0.146951     0.234488
H      0.068706    -0.300024    -0.569801
H     -1.054880     0.539436    -0.044206
O     -0.000934    -2.114274     3.096958
H     -0.190033    -1.677779     2.257453
H      0.946693    -2.286696     3.032090
6
BHMC Sample 2794
O     -0.763351     0.810499    -3.203779
H     -0.216854     1.569154    -3.439390
H     -1.626454     1.073595    -3.543503
O     -0.252843    -0.088024     0.301458
H     -0.441942     0.348470    -0.538048
H      0.694785    -0.260446     0.236590
6
BHMC Sample 2795
O      3.097397    -1.259989    -0.567776
H      3.668107    -0.514318    -0.786856
H      3.643993    -1.752902     0.054998
O     -0.252843    -0.088024     0.301458
H     -0.441942     0.348470    -0.538048
H      0.694785    -0.260446     0.236590
6
BHMC Sample 2796
O     -0.372435    -0.084252    -0.134565
H      0.198274     0.661418    -0.353645
H      0.174161    -0.577166     0.488210
O     -3.736313     0.381489     1.214741
H     -3.951915    -0.554380     1.308131
H     -2.785780     0.359534     1.047590
6
BHMC Sample 2797
O     -0.372435    -0.084252    -0.134565
H      0.198274     0.661418    -0.353645
H      0.174161    -0.577166     0.488210
O     -3.722675     1.087712     0.734670
H     -3.911774     1.524207    -0.104836
H     -2.775048     0.915290     0.669801
6
BHMC Sample 2798
O      0.382810    -0.910694    -0.440663
H      0.953519    -0.165024    -0.659743
H      0.929405    -1.403607     0.182112
O     -3.722675     1.087712     0.734670
H     -3.911774     1.524207    -0.104836
H     -2.775048     0.915290     0.669801
6
BHMC Sample 2799
O     -3.585039    -2.650742    -0.284184
H     -3.519864    -3.142324     0.542755
H     -3.735147    -3.356234    -0.923971
O     -0.252843    -0.088024     0.301458
H     -0.441942     0.348470    -0.538048
H      0.694785    -0.260446     0.236590
6
BHMC Sample 2800
O     -3.585039    -2.650742    -0.284184
H     -3.519864    -3.142324     0.542755
H     -3.735147    -3.356234    -0.923971
O     -0.080238    -0.213704     1.349158
H     -0.269337     0.222791     0.509652
H      0.867389    -0.386126     1.284289
6
BHMC Sample 2801
O      0.028311     0.399025    -0.062384
H      0.093486    -0.092557     0.764555
H     -0.121797    -0.306467    -0.702171
O      3.141562    -2.683173     2.434176
H      2.876058    -3.323673     1.763114
H      4.102289    -2.670944     2.340428
6
BHMC Sample 2802
O      3.185214    -2.651347     2.380910
H      3.250389    -3.142929     3.207850
H      3.035106    -3.356838     1.741123
O     -0.015341     0.367198    -0.009119
H     -0.280845    -0.273301    -0.680181
H      0.945386     0.379428    -0.102867
6
BHMC Sample 2803
O      3.185214    -2.651347     2.380910
H      3.250389    -3.142929     3.207850
H      3.035106    -3.356838     1.741123
O     -0.528768     1.292598     2.265320
H     -0.794272     0.652098     1.594258
H      0.431959     1.304827     2.171571
6
BHMC Sample 2804
O     -0.485116     1.324424     2.212054
H     -0.419940     0.832842     3.038993
H     -0.635224     0.618932     1.572267
O      3.141562    -2.683173     2.434176
H      2.876058    -3.323673     1.763114
H      4.102289    -2.670944     2.340428
6
BHMC Sample 2805
O     -1.947764     1.193665     2.461059
H     -1.882588     0.702083     3.287998
H     -2.097872     0.488173     1.821272
O      3.141562    -2.683173     2.434176
H      2.876058    -3.323673     1.763114
H      4.102289    -2.670944     2.340428
6
BHMC Sample 2806
O     -1.223490    -0.500789     4.030730
H     -1.839387     0.214267     3.833007
H     -1.726752    -1.028400     4.661549
O      2.763648    -0.834607    -2.211580
H      2.915002    -0.525216    -3.112927
H      2.842501    -0.021431    -1.697323
6
BHMC Sample 2807
O     -1.223490    -0.500789     4.030730
H     -1.839387     0.214267     3.833007
H     -1.726752    -1.028400     4.661549
O      1.947432    -1.666417    -2.574487
H      2.187725    -1.328254    -3.445671
H      2.400550    -1.053538    -1.982037
6
BHMC Sample 2808
O     -1.711538    -2.696988     3.147404
H     -2.327434    -1.981931     2.949681
H     -2.214800    -3.224599     3.778223
O      1.947432    -1.666417    -2.574487
H      2.187725    -1.328254    -3.445671
H      2.400550    -1.053538    -1.982037
6
BHMC Sample 2809
O     -1.711538    -2.696988     3.147404
H     -2.327434    -1.981931     2.949681
H     -2.214800    -3.224599     3.778223
O      3.139542     0.347917    -0.643675
H      3.812871     0.988064    -0.904242
H      3.665370    -0.351913    -0.236639
6
BHMC Sample 2810
O      3.269260     0.334089    -0.659713
H      2.653363     1.049146    -0.857436
H      2.765997    -0.193521    -0.028894
O     -1.841255    -2.683161     3.163442
H     -1.167926    -2.043013     2.902875
H     -1.315428    -3.382990     3.570478
6
BHMC Sample 2811
O      3.269260     0.334089    -0.659713
H      2.653363     1.049146    -0.857436
H      2.765997    -0.193521    -0.028894
O     -1.814730    -2.726802     3.207831
H     -0.852499    -2.743329     3.137870
H     -2.051868    -1.989988     2.630940
6
BHMC Sample 2812
O      3.234612     0.318958    -0.716641
H      2.617261     1.033719    -0.910866
H      2.737024    -0.206343    -0.079426
O     -1.814730    -2.726802     3.207831
H     -0.852499    -2.743329     3.137870
H     -2.051868    -1.989988     2.630940
6
BHMC Sample 2813
O      3.234889     0.311647    -0.721926
H      2.617208     1.025511    -0.918388
H      2.737275    -0.212259    -0.083583
O     -1.814730    -2.726802     3.207831
H     -0.852499    -2.743329     3.137870
H     -2.051868    -1.989988     2.630940
6
BHMC Sample 2814
O      2.865692     2.900811     0.473301
H      2.248011     3.614676     0.276839
H      2.368079     2.376905     1.111644
O     -1.814730    -2.726802     3.207831
H     -0.852499    -2.743329     3.137870
H     -2.051868    -1.989988     2.630940
6
BHMC Sample 2815
O      2.865692     2.900811     0.473301
H      2.248011     3.614676     0.276839
H      2.368079     2.376905     1.111644
O     -0.203187    -4.215908     1.286018
H      0.725773    -3.984008     1.166380
H     -0.655198    -3.406420     1.017036
6
BHMC Sample 2816
O     -0.114095    -4.168267     1.239548
H     -0.731776    -3.454403     1.043086
H     -0.611709    -4.692173     1.877892
O      2.776601     2.853171     0.519770
H      3.705560     3.085071     0.400133
H      2.324590     3.662658     0.250789
6
BHMC Sample 2817
O     -0.168094    -4.144087     1.330336
H     -0.960063    -4.053798     0.787784
H      0.473645    -4.476573     0.692212
O      2.776601     2.853171     0.519770
H      3.705560     3.085071     0.400133
H      2.324590     3.662658     0.250789
6
BHMC Sample 2818
O      2.811694     2.924992     0.564089
H      2.019725     3.015281     0.021537
H      3.453433     2.592506    -0.074036
O     -0.203187    -4.215908     1.286018
H      0.725773    -3.984008     1.166380
H     -0.655198    -3.406420     1.017036
6
BHMC Sample 2819
O     -1.558801     3.062036    -1.091307
H     -1.332040     2.645017    -1.930595
H     -0.693871     3.335528    -0.764694
O     -0.203187    -4.215908     1.286018
H      0.725773    -3.984008     1.166380
H     -0.655198    -3.406420     1.017036
6
BHMC Sample 2820
O     -1.558801     3.062036    -1.091307
H     -1.332040     2.645017    -1.930595
H     -0.693871     3.335528    -0.764694
O      0.204064    -1.390157     1.910781
H      1.133023    -1.158257     1.791144
H     -0.247947    -0.580670     1.641800
6
BHMC Sample 2821
O     -0.363897     0.047842     0.170891
H     -0.137136    -0.369177    -0.668396
H      0.501033     0.321335     0.497505
O      0.610721    -4.300691     3.543203
H     -0.002707    -3.865958     4.147992
H      0.856877    -3.583017     2.946307
6
BHMC Sample 2822
O      0.529087    -4.228180     3.572330
H      0.755848    -4.645199     2.733043
H      1.394017    -3.954687     3.898944
O     -0.282263    -0.024670     0.141764
H     -0.895690     0.410063     0.746554
H     -0.036107     0.693005    -0.455132
6
BHMC Sample 2823
O      0.529087    -4.228180     3.572330
H      0.755848    -4.645199     2.733043
H      1.394017    -3.954687     3.898944
O     -0.552045     0.654101     1.341099
H     -1.297623     0.809871     1.933472
H     -0.358195     1.541478     1.014115
6
BHMC Sample 2824
O      0.529087    -4.228180     3.572330
H      0.755848    -4.645199     2.733043
H      1.394017    -3.954687     3.898944
O     -0.566653     0.737010     1.295009
H     -1.398372     0.343709     1.585894
H     -0.025600     0.691708     2.093223
6
BHMC Sample 2825
O     -0.363897     0.047842     0.170891
H     -0.137136    -0.369177    -0.668396
H      0.501033     0.321335     0.497505
O      2.495234     4.798450     1.564209
H      3.020152     4.482976     0.818559
H      2.502644     4.038314     2.159249
6
BHMC Sample 2826
O      0.016632     1.667735    -2.511609
H     -0.160438     2.116248    -3.346600
H      0.879648     2.025081    -2.272682
O      2.495234     4.798450     1.564209
H      3.020152     4.482976     0.818559
H      2.502644     4.038314     2.159249
6
BHMC Sample 2827
O      0.045038     4.394450    -2.574233
H     -0.132031     4.842963    -3.409224
H      0.908054     4.751796    -2.335306
O      2.495234     4.798450     1.564209
H      3.020152     4.482976     0.818559
H      2.502644     4.038314     2.159249
6
BHMC Sample 2828
O      0.045038     4.394450    -2.574233
H     -0.132031     4.842963    -3.409224
H      0.908054     4.751796    -2.335306
O      2.641062     2.415751     2.515681
H      3.165980     2.100277     1.770031
H      2.648472     1.655615     3.110721
6
BHMC Sample 2829
O      2.632466     2.310476     2.540605
H      2.455397     2.758990     1.705614
H      3.495482     2.667822     2.779532
O      0.053634     4.499724    -2.599157
H      0.578551     4.184250    -3.344808
H      0.061044     3.739588    -2.004117
6
BHMC Sample 2830
O      2.632466     2.310476     2.540605
H      2.455397     2.758990     1.705614
H      3.495482     2.667822     2.779532
O     -1.460199     3.883214    -1.069030
H     -0.935282     3.567740    -1.814680
H     -1.452789     3.123078    -0.473989
6
BHMC Sample 2831
O     -1.468795     3.777939    -1.044105
H     -1.645864     4.226452    -1.879096
H     -0.605779     4.135285    -0.805178
O      2.641062     2.415751     2.515681
H      3.165980     2.100277     1.770031
H      2.648472     1.655615     3.110721
6
BHMC Sample 2832
O     -1.270969     3.715020     0.694724
H     -1.448039     4.163534    -0.140267
H     -0.407953     4.072367     0.933651
O      2.641062     2.415751     2.515681
H      3.165980     2.100277     1.770031
H      2.648472     1.655615     3.110721
6
BHMC Sample 2833
O     -0.228649    -0.268620     0.198688
H     -0.405718     0.179893    -0.636303
H      0.634367     0.088726     0.437615
O      2.068094     1.133814     3.813398
H      1.845361     2.068847     3.898002
H      1.829807     0.784628     4.681281
6
BHMC Sample 2834
O     -0.228649    -0.268620     0.198688
H     -0.405718     0.179893    -0.636303
H      0.634367     0.088726     0.437615
O      3.683382    -1.567889     2.019645
H      4.208300    -1.883363     1.273995
H      3.690792    -2.328025     2.614685
6
BHMC Sample 2835
O     -0.228649    -0.268620     0.198688
H     -0.405718     0.179893    -0.636303
H      0.634367     0.088726     0.437615
O      1.362544    -2.415191     2.372845
H      1.887462    -2.730665     1.627195
H      1.369955    -3.175327     2.967886
6
BHMC Sample 2836
O     -0.228649    -0.268620     0.198688
H     -0.405718     0.179893    -0.636303
H      0.634367     0.088726     0.437615
O     -1.297702    -1.941216    -2.804946
H     -0.544783    -1.587529    -3.293899
H     -1.526428    -2.727198    -3.316660
6
BHMC Sample 2837
O      0.885436    -2.019650     0.085175
H      1.046090    -2.536029    -0.713119
H      0.963195    -2.689237     0.774512
O     -1.297702    -1.941216    -2.804946
H     -0.544783    -1.587529    -3.293899
H     -1.526428    -2.727198    -3.316660
6
BHMC Sample 2838
O     -0.079470     0.395322     0.036319
H      0.081183    -0.121057    -0.761975
H     -0.001712    -0.274265     0.725656
O     -2.007211    -0.796676    -2.970596
H     -1.193966    -0.743076    -3.487137
H     -2.537637    -0.081905    -3.344342
6
BHMC Sample 2839
O     -0.079470     0.395322     0.036319
H      0.081183    -0.121057    -0.761975
H     -0.001712    -0.274265     0.725656
O     -1.205520    -2.449138     2.456924
H     -0.615028    -2.037643     3.099611
H     -2.075792    -2.289125     2.842873
6
BHMC Sample 2840
O     -0.079470     0.395322     0.036319
H      0.081183    -0.121057    -0.761975
H     -0.001712    -0.274265     0.725656
O     -0.741307    -0.746453     3.547302
H     -0.150815    -0.334958     4.189990
H     -1.611579    -0.586440     3.933251
6
BHMC Sample 2841
O     -1.442903    -0.017504     0.210095
H     -1.282250    -0.533883    -0.588199
H     -1.365145    -0.687091     0.899432
O     -0.741307    -0.746453     3.547302
H     -0.150815    -0.334958     4.189990
H     -1.611579    -0.586440     3.933251
6
BHMC Sample 2842
O      1.288688     2.156624    -2.809143
H      1.547046     1.997958    -3.724460
H      1.294165     1.264654    -2.443169
O      0.093260    -0.190503    -0.342879
H      0.683752     0.220992     0.299809
H     -0.777012    -0.030490     0.043070
6
BHMC Sample 2843
O      0.062843    -0.099738    -0.254586
H      0.321201    -0.258405    -1.169903
H      0.068320    -0.991709     0.111388
O      1.319105     2.065860    -2.897437
H      1.909597     2.477355    -2.254749
H      0.448833     2.225873    -2.511487
6
BHMC Sample 2844
O      0.062843    -0.099738    -0.254586
H      0.321201    -0.258405    -1.169903
H      0.068320    -0.991709     0.111388
O     -0.244627     0.988396    -3.414033
H      0.345864     1.399891    -2.771346
H     -1.114899     1.148409    -3.028084
6
BHMC Sample 2845
O      0.062843    -0.099738    -0.254586
H      0.321201    -0.258405    -1.169903
H      0.068320    -0.991709     0.111388
O     -0.211561     0.990581    -3.392795
H     -0.124629     1.595352    -2.645968
H     -1.169239     0.918262    -3.490555
6
BHMC Sample 2846
O     -0.087945     0.350212     0.183114
H      0.170413     0.191546    -0.732203
H     -0.082468    -0.541758     0.549088
O      1.631019     0.678009    -2.796264
H      1.103032     1.402619    -2.439578
H      2.506159     0.860253    -2.431776
6
BHMC Sample 2847
O     -0.087945     0.350212     0.183114
H      0.170413     0.191546    -0.732203
H     -0.082468    -0.541758     0.549088
O     -0.169777     0.472981    -3.269018
H     -0.047326     1.271646    -2.741576
H     -1.127695     0.446524    -3.385753
6
BHMC Sample 2848
O     -0.919667    -0.372576    -0.125051
H     -0.661308    -0.531242    -1.040368
H     -0.914189    -1.264547     0.240923
O     -0.169777     0.472981    -3.269018
H     -0.047326     1.271646    -2.741576
H     -1.127695     0.446524    -3.385753
6
BHMC Sample 2849
O     -0.087945     0.350212     0.183114
H      0.170413     0.191546    -0.732203
H     -0.082468    -0.541758     0.549088
O      0.623511     1.191393    -2.970943
H      0.095523     1.916004    -2.614257
H      1.498651     1.373637    -2.606455
6
BHMC Sample 2850
O     -0.087945     0.350212     0.183114
H      0.170413     0.191546    -0.732203
H     -0.082468    -0.541758     0.549088
O     -0.466966    -1.972145     2.554853
H     -0.981658    -1.208964     2.844167
H      0.433428    -1.716636     2.791369
6
BHMC Sample 2851
O      0.898759     1.749656    -2.571463
H      0.538174     1.813569    -3.463440
H      0.351610     1.056416    -2.184650
O     -0.128567    -0.339563    -0.175277
H     -0.643260     0.423618     0.114038
H      0.771827    -0.084055     0.061239
6
BHMC Sample 2852
O      0.898759     1.749656    -2.571463
H      0.538174     1.813569    -3.463440
H      0.351610     1.056416    -2.184650
O     -0.038130    -0.942486    -0.809174
H     -0.476480    -0.285723    -0.254586
H      0.893835    -0.800545    -0.601261
6
BHMC Sample 2853
O      0.898759     1.749656    -2.571463
H      0.538174     1.813569    -3.463440
H      0.351610     1.056416    -2.184650
O     -1.916355     3.535520    -2.904230
H     -1.296489     4.274906    -2.915714
H     -1.897177     3.263330    -1.978229
6
BHMC Sample 2854
O     -1.236850     1.793445    -0.105973
H     -0.717076     1.552222    -0.881457
H     -2.065092     1.327422    -0.268506
O     -1.916355     3.535520    -2.904230
H     -1.296489     4.274906    -2.915714
H     -1.897177     3.263330    -1.978229
6
BHMC Sample 2855
O      0.102823     0.235748     0.312672
H      0.622597    -0.005474    -0.462812
H     -0.725419    -0.230274     0.150139
O      1.543168    -2.804005     0.422699
H      2.429953    -2.666721     0.777411
H      1.084693    -1.998735     0.693395
6
BHMC Sample 2856
O     -0.262791    -0.703342    -0.596518
H      0.256983    -0.944565    -1.372002
H     -1.091033    -1.169365    -0.759051
O      1.543168    -2.804005     0.422699
H      2.429953    -2.666721     0.777411
H      1.084693    -1.998735     0.693395
6
BHMC Sample 2857
O      0.102823     0.235748     0.312672
H      0.622597    -0.005474    -0.462812
H     -0.725419    -0.230274     0.150139
O      0.301303    -2.133121     2.062594
H     -0.024500    -2.198156     2.968507
H      0.567294    -1.206975     2.003973
6
BHMC Sample 2858
O      0.102823     0.235748     0.312672
H      0.622597    -0.005474    -0.462812
H     -0.725419    -0.230274     0.150139
O     -1.691734     2.362651    -0.671712
H     -2.284457     2.899717    -0.131994
H     -0.948090     2.211337    -0.075028
6
BHMC Sample 2859
O     -1.666030     2.423808    -0.555641
H     -1.146256     2.182585    -1.331125
H     -2.494271     1.957785    -0.718174
O      0.077118     0.174592     0.196602
H     -0.515605     0.711658     0.736320
H      0.820762     0.023278     0.793286
6
BHMC Sample 2860
O     -1.640582     2.510183     0.017151
H     -0.935553     2.741029     0.633083
H     -2.367533     2.302270     0.615393
O     -0.050307    -0.128584    -0.378801
H     -0.643030     0.408482     0.160917
H      0.693337    -0.279898     0.217883
6
BHMC Sample 2861
O     -2.835976     0.265725     0.937790
H     -2.390438     0.009353     1.753571
H     -2.946312     1.215561     1.061143
O     -0.050307    -0.128584    -0.378801
H     -0.643030     0.408482     0.160917
H      0.693337    -0.279898     0.217883
6
BHMC Sample 2862
O     -0.111734    -0.231155    -0.313044
H      0.333804    -0.487527     0.502736
H     -0.222070     0.718681    -0.189692
O      3.177025     0.260043    -0.189029
H      2.280857     0.185641    -0.538891
H      3.578193    -0.572561    -0.467899
6
BHMC Sample 2863
O      1.355407    -2.802312     0.332839
H      0.847960    -2.502648     1.096009
H      2.224205    -2.423770     0.510245
O      0.165000     0.302336     0.209577
H     -0.731168     0.227933    -0.140285
H      0.566167    -0.530269    -0.069292
6
BHMC Sample 2864
O      1.355407    -2.802312     0.332839
H      0.847960    -2.502648     1.096009
H      2.224205    -2.423770     0.510245
O     -0.181745    -0.708462    -1.675858
H     -1.078995    -1.047354    -1.781455
H      0.297826    -1.485578    -1.362750
6
BHMC Sample 2865
O      2.110886    -2.253625    -0.045826
H      1.976590    -2.410645    -0.987653
H      3.014344    -1.917501    -0.026786
O      0.139226     0.372003    -0.069170
H     -0.758024     0.033110    -0.174767
H      0.618797    -0.405113     0.243938
6
BHMC Sample 2866
O      0.072819     0.299537    -0.005926
H     -0.061477     0.142517    -0.947754
H      0.976277     0.635661     0.013114
O      2.177294    -2.181159    -0.109070
H      1.280044    -2.520051    -0.214667
H      2.656865    -2.958275     0.204038
6
BHMC Sample 2867
O      0.072819     0.299537    -0.005926
H     -0.061477     0.142517    -0.947754
H      0.976277     0.635661     0.013114
O      2.903162     1.183286    -1.444418
H      3.096483     0.776280    -0.591171
H      3.700568     1.700758    -1.612646
6
BHMC Sample 2868
O      2.540289     2.407162    -0.231785
H      2.049002     2.760784     0.518759
H      2.046961     1.603304    -0.431834
O     -0.330242    -0.036822    -0.228339
H     -0.136922    -0.443827     0.624907
H      0.467164     0.480650    -0.396568
6
BHMC Sample 2869
O      3.144252     1.253010    -0.919165
H      3.332710     0.307664    -0.942249
H      2.223659     1.265642    -0.632936
O     -0.330242    -0.036822    -0.228339
H     -0.136922    -0.443827     0.624907
H      0.467164     0.480650    -0.396568
6
BHMC Sample 2870
O      0.868406    -2.862733     1.830807
H      1.058433    -3.176092     0.938940
H      0.586665    -1.955288     1.667270
O     -0.330242    -0.036822    -0.228339
H     -0.136922    -0.443827     0.624907
H      0.467164     0.480650    -0.396568
6
BHMC Sample 2871
O      0.030571    -0.198029     0.351801
H      0.220598    -0.511387    -0.540065
H     -0.251169     0.709416     0.188264
O     -1.084968    -0.443971     3.132241
H     -1.056919     0.108439     2.341600
H     -0.362374    -0.084542     3.661961
6
BHMC Sample 2872
O     -1.338390     2.181499    -1.206934
H     -2.040800     2.775070    -1.496800
H     -0.740944     2.195479    -1.963532
O     -0.250214    -0.303946     0.086973
H     -0.222165     0.248464    -0.703667
H      0.472379     0.055483     0.616694
6
BHMC Sample 2873
O     -0.490942     2.622362    -0.629860
H     -0.916781     3.487454    -0.632560
H     -0.199187     2.541131    -1.545207
O     -0.250214    -0.303946     0.086973
H     -0.222165     0.248464    -0.703667
H      0.472379     0.055483     0.616694
6
BHMC Sample 2874
O      2.174690     0.008190    -1.686587
H      3.051417     0.322776    -1.935814
H      1.690408     0.090097    -2.516251
O     -0.250214    -0.303946     0.086973
H     -0.222165     0.248464    -0.703667
H      0.472379     0.055483     0.616694
6
BHMC Sample 2875
O     -0.130815    -0.132164     0.359630
H      0.745912     0.182422     0.110403
H     -0.615097    -0.050257    -0.470033
O      0.286949     0.041563     3.345973
H      0.669760     0.654609     2.706687
H     -0.658223     0.115941     3.164167
6
BHMC Sample 2876
O     -1.075309    -0.746233    -2.420875
H     -1.896902    -1.121758    -2.083689
H     -1.303392    -0.560220    -3.339002
O      0.187453    -0.229141     0.273698
H      0.570265     0.383905    -0.365589
H     -0.757718    -0.154764     0.091891
6
BHMC Sample 2877
O      0.214720    -0.180073     0.260260
H     -0.606873    -0.555599     0.597447
H     -0.013363     0.005939    -0.657866
O     -1.102576    -0.795301    -2.407438
H     -0.719765    -0.182255    -3.046724
H     -2.047748    -0.720923    -2.589244
6
BHMC Sample 2878
O     -1.285052    -1.823234     0.437235
H     -2.164922    -2.093377     0.149868
H     -1.036550    -1.192477    -0.248310
O     -1.102576    -0.795301    -2.407438
H     -0.719765    -0.182255    -3.046724
H     -2.047748    -0.720923    -2.589244
6
BHMC Sample 2879
O     -1.098715    -0.777015    -2.398943
H     -1.978585    -1.047158    -2.686310
H     -0.850213    -0.146258    -3.084488
O     -1.288913    -1.841520     0.428740
H     -0.906102    -1.228474    -0.210546
H     -2.234085    -1.767142     0.246934
6
BHMC Sample 2880
O     -1.098715    -0.777015    -2.398943
H     -1.978585    -1.047158    -2.686310
H     -0.850213    -0.146258    -3.084488
O     -1.341602    -1.355365     0.564205
H     -1.032464    -0.788249    -0.152642
H     -2.259838    -1.520759     0.316369
6
BHMC Sample 2881
O     -0.198655     2.272462    -1.473367
H     -1.144568     2.189618    -1.641038
H      0.098170     2.766175    -2.246491
O      0.203032    -0.133907     0.321561
H      0.512171     0.433208    -0.395286
H     -0.715203    -0.299301     0.073725
6
BHMC Sample 2882
O      0.595150     0.474753    -2.606677
H     -0.277030     0.238869    -2.943410
H      0.898729     1.108620    -3.266701
O      0.203032    -0.133907     0.321561
H      0.512171     0.433208    -0.395286
H     -0.715203    -0.299301     0.073725
6
BHMC Sample 2883
O      0.595150     0.474753    -2.606677
H     -0.277030     0.238869    -2.943410
H      0.898729     1.108620    -3.266701
O      2.087591    -0.336049    -0.129695
H      1.732185     0.335174    -0.724844
H      1.321422    -0.902643     0.024870
6
BHMC Sample 2884
O     -1.555839    -1.264467     1.806442
H     -1.267674    -1.834995     2.528376
H     -2.515082    -1.346428     1.858550
O      0.373858    -0.034876     0.146861
H      0.018452     0.636347    -0.448288
H     -0.392311    -0.601470     0.301426
6
BHMC Sample 2885
O     -1.555839    -1.264467     1.806442
H     -1.267674    -1.834995     2.528376
H     -2.515082    -1.346428     1.858550
O     -3.211637     1.078487     1.545887
H     -3.950443     0.986884     0.932021
H     -2.589971     0.414452     1.222586
6
BHMC Sample 2886
O      2.581320    -0.635999    -0.711088
H      3.454401    -0.246435    -0.836386
H      2.025803    -0.055278    -1.243763
O      0.039047     0.251879     0.312389
H     -0.699759     0.160276    -0.301477
H      0.660712    -0.412156    -0.010912
6
BHMC Sample 2887
O     -1.727683     2.106298    -0.389840
H     -2.230846     2.776493     0.087020
H     -0.843463     2.223037    -0.023636
O      0.039047     0.251879     0.312389
H     -0.699759     0.160276    -0.301477
H      0.660712    -0.412156    -0.010912
6
BHMC Sample 2888
O     -1.727683     2.106298    -0.389840
H     -2.230846     2.776493     0.087020
H     -0.843463     2.223037    -0.023636
O      0.199700     0.547679     0.594404
H     -0.456527     0.322185    -0.076099
H      0.931901    -0.041697     0.374285
6
BHMC Sample 2889
O      0.182630     0.458053     0.497398
H     -0.320533     1.128248     0.974258
H      1.066850     0.574791     0.863602
O     -1.710613     2.195925    -0.292835
H     -2.366840     1.970430    -0.963337
H     -0.978412     1.606548    -0.512953
6
BHMC Sample 2890
O     -0.156854    -0.772640     0.604147
H     -0.660017    -0.102446     1.081007
H      0.727366    -0.655902     0.970351
O     -1.710613     2.195925    -0.292835
H     -2.366840     1.970430    -0.963337
H     -0.978412     1.606548    -0.512953
6
BHMC Sample 2891
O     -0.127019    -0.262311    -0.281021
H     -0.630182     0.407884     0.195838
H      0.757201    -0.145573     0.085183
O     -2.638586    -0.352053     2.109606
H     -3.375348    -0.834695     1.715531
H     -1.872078    -0.831882     1.771726
6
BHMC Sample 2892
O     -2.334086     0.398283    -2.329873
H     -1.871857     1.070930    -1.816434
H     -3.244064     0.510465    -2.031653
O     -0.009916     0.320824     0.243985
H     -0.746678    -0.161818    -0.150090
H      0.756593    -0.159005    -0.093895
6
BHMC Sample 2893
O     -2.334086     0.398283    -2.329873
H     -1.871857     1.070930    -1.816434
H     -3.244064     0.510465    -2.031653
O     -0.090882    -0.915973    -0.773973
H     -0.827644    -1.398615    -1.168048
H      0.675627    -1.395802    -1.111853
6
BHMC Sample 2894
O     -0.064164    -1.013741    -0.860344
H      0.398065    -0.341094    -0.346904
H     -0.974141    -0.901559    -0.562123
O     -2.360804     0.496051    -2.243503
H     -3.097566     0.013409    -2.637578
H     -1.594295     0.016222    -2.581383
6
BHMC Sample 2895
O     -2.409303    -0.692048     1.733977
H     -2.904402     0.094688     1.990204
H     -1.523474    -0.482091     2.051473
O     -0.009916     0.320824     0.243985
H     -0.746678    -0.161818    -0.150090
H      0.756593    -0.159005    -0.093895
6
BHMC Sample 2896
O     -2.000541    -1.417402     1.693747
H     -2.859370    -0.994574     1.578162
H     -1.458836    -0.684984     2.009497
O     -0.009916     0.320824     0.243985
H     -0.746678    -0.161818    -0.150090
H      0.756593    -0.159005    -0.093895
6
BHMC Sample 2897
O      1.873798    -1.407562     1.840549
H      2.736755    -0.980361     1.790205
H      1.306044    -0.677962     2.114261
O     -0.009916     0.320824     0.243985
H     -0.746678    -0.161818    -0.150090
H      0.756593    -0.159005    -0.093895
6
BHMC Sample 2898
O      2.003186     1.333043    -1.757900
H      2.847646     1.368461    -1.293829
H      1.423538     1.810714    -1.153402
O     -0.009916     0.320824     0.243985
H     -0.746678    -0.161818    -0.150090
H      0.756593    -0.159005    -0.093895
6
BHMC Sample 2899
O     -0.023068     0.238261     0.143240
H      0.821392     0.273679     0.607311
H     -0.602716     0.715932     0.747737
O      2.016339     1.415605    -1.657155
H      1.279577     0.932964    -2.051229
H      2.782848     0.935777    -1.995034
6
BHMC Sample 2900
O     -2.019048    -1.822061     1.310105
H     -1.160220    -2.244889     1.425690
H     -2.560754    -2.554479     0.994355
O     -0.009916     0.320824     0.243985
H     -0.746678    -0.161818    -0.150090
H      0.756593    -0.159005    -0.093895
6
BHMC Sample 2901
O     -0.330251    -2.760276    -0.401183
H      0.623442    -2.640612    -0.324507
H     -0.396428    -3.351588    -1.159832
O     -0.009916     0.320824     0.243985
H     -0.746678    -0.161818    -0.150090
H      0.756593    -0.159005    -0.093895
6
BHMC Sample 2902
O     -0.330251    -2.760276    -0.401183
H      0.623442    -2.640612    -0.324507
H     -0.396428    -3.351588    -1.159832
O      0.968532     0.059585     0.292260
H      0.045821    -0.196685     0.173995
H      1.424528    -0.510194    -0.339685
6
BHMC Sample 2903
O     -0.295839     0.157216     0.227324
H      0.657854     0.276880     0.304000
H     -0.362016    -0.434097    -0.531325
O     -0.977421     0.152201     3.120605
H     -1.449203    -0.313752     2.419630
H     -0.059530     0.092984     2.827511
6
BHMC Sample 2904
O      1.137125    -1.919968    -1.378590
H      0.335191    -2.403513    -1.608406
H      1.751835    -2.636055    -1.181282
O     -0.148703     0.175057     0.331357
H     -0.620485    -0.290896    -0.369618
H      0.769188     0.115839     0.038262
6
BHMC Sample 2905
O     -0.113266     0.212795     0.277554
H     -0.915200    -0.270749     0.047738
H      0.501444    -0.503291     0.474862
O      1.101688    -1.957707    -1.324788
H      0.629906    -2.423660    -2.025762
H      2.019578    -2.016925    -1.617882
6
BHMC Sample 2906
O      1.137125    -1.919968    -1.378590
H      0.335191    -2.403513    -1.608406
H      1.751835    -2.636055    -1.181282
O     -0.148703     0.175057     0.331357
H     -0.620485    -0.290896    -0.369618
H      0.769188     0.115839     0.038262
6
BHMC Sample 2907
O      1.241560     0.059392    -2.309728
H      0.475198    -0.108475    -2.870299
H      1.716983     0.727307    -2.817114
O     -0.148703     0.175057     0.331357
H     -0.620485    -0.290896    -0.369618
H      0.769188     0.115839     0.038262
6
BHMC Sample 2908
O     -0.107463     0.117693     0.335491
H     -0.873824    -0.050174    -0.225080
H      0.367961     0.785608    -0.171895
O      1.200319     0.116756    -2.313862
H      0.728538    -0.349197    -3.014837
H      2.118210     0.057538    -2.606957
6
BHMC Sample 2909
O      0.096979    -0.166683     0.355986
H     -0.669382    -0.334550    -0.204586
H      0.572403     0.501233    -0.151400
O     -0.236597    -1.272495    -2.363422
H      0.412424    -0.983983    -3.016560
H     -0.508464    -2.132595    -2.707297
6
BHMC Sample 2910
O     -0.199215    -1.332456    -2.359453
H     -0.965576    -1.500323    -2.920024
H      0.276209    -0.664541    -2.866838
O      0.059597    -0.106721     0.352016
H      0.708618     0.181790    -0.301122
H     -0.212270    -0.966822     0.008141
6
BHMC Sample 2911
O      0.270457    -0.219023    -2.599743
H      0.094241     0.348494    -3.359085
H     -0.363263    -0.933217    -2.733549
O     -0.125718     0.190530     0.332338
H      0.523303     0.479041    -0.320800
H     -0.397585    -0.669571    -0.011537
6
BHMC Sample 2912
O     -0.059296     0.166754     0.326526
H     -0.235512     0.734272    -0.432817
H     -0.693016    -0.547440     0.192720
O      0.204035    -0.195248    -2.593931
H      0.853056     0.093264    -3.247069
H     -0.067832    -1.055348    -2.937806
6
BHMC Sample 2913
O      0.269979     0.048892     0.297716
H      0.093763     0.616410    -0.461626
H     -0.363741    -0.665302     0.163910
O     -2.076603     1.618745    -0.573247
H     -2.303845     2.555865    -0.538279
H     -2.935026     1.192812    -0.456516
6
BHMC Sample 2914
O     -2.092031     1.655554    -0.514784
H     -2.268247     2.223072    -1.274127
H     -2.725751     0.941360    -0.648590
O      0.285407     0.012083     0.239254
H      0.058164     0.949203     0.274221
H     -0.573016    -0.413851     0.355984
6
BHMC Sample 2915
O     -2.463482     0.503632    -0.746587
H     -3.043286     0.197676    -1.453656
H     -2.338681     1.431078    -0.978638
O      0.361888    -0.170396    -0.050566
H      0.134646     0.766725    -0.015599
H     -0.496534    -0.596329     0.066165
6
BHMC Sample 2916
O     -2.429806     0.643381    -0.735961
H     -3.007591     0.408390    -1.471266
H     -2.271803     1.580513    -0.898436
O      0.361888    -0.170396    -0.050566
H      0.134646     0.766725    -0.015599
H     -0.496534    -0.596329     0.066165
6
BHMC Sample 2917
O     -2.429806     0.643381    -0.735961
H     -3.007591     0.408390    -1.471266
H     -2.271803     1.580513    -0.898436
O     -0.757241    -1.812917    -1.085496
H     -0.320626    -0.971303    -0.906304
H     -1.641296    -1.668554    -0.725577
6
BHMC Sample 2918
O     -2.429806     0.643381    -0.735961
H     -3.007591     0.408390    -1.471266
H     -2.271803     1.580513    -0.898436
O     -0.896493    -1.913198    -0.607400
H     -0.411287    -1.079602    -0.634770
H     -1.751728    -1.643582    -0.249889
6
BHMC Sample 2919
O     -2.429806     0.643381    -0.735961
H     -3.007591     0.408390    -1.471266
H     -2.271803     1.580513    -0.898436
O     -0.590393    -1.709302    -0.833079
H     -0.226526    -0.831704    -1.001831
H     -1.377914    -1.510359    -0.311382
6
BHMC Sample 2920
O      0.139927    -0.234047     0.299260
H     -0.437858    -0.469038    -0.436045
H      0.297930     0.703085     0.136785
O      2.937139    -1.060627     0.947683
H      2.514048    -1.436924     0.166370
H      2.180721    -0.812128     1.493589
6
BHMC Sample 2921
O      0.139927    -0.234047     0.299260
H     -0.437858    -0.469038    -0.436045
H      0.297930     0.703085     0.136785
O     -0.369456    -0.105573     3.240706
H     -1.083296    -0.397892     2.661019
H      0.416980    -0.302702     2.716690
6
BHMC Sample 2922
O      0.139927    -0.234047     0.299260
H     -0.437858    -0.469038    -0.436045
H      0.297930     0.703085     0.136785
O     -1.327255    -1.631676     2.495165
H     -1.254136    -0.670099     2.528038
H     -0.571921    -1.878360     1.946939
6
BHMC Sample 2923
O      2.399735     1.008164    -0.290776
H      2.865428     0.642670     0.470324
H      2.682860     1.929648    -0.273819
O     -0.276151    -0.238297     0.171784
H     -0.203032     0.723279     0.204657
H      0.479183    -0.484982    -0.376442
6
BHMC Sample 2924
O      2.477510     0.873759    -0.138628
H      2.895459     0.438900     0.613666
H      2.812016     1.774512    -0.059068
O     -0.276151    -0.238297     0.171784
H     -0.203032     0.723279     0.204657
H      0.479183    -0.484982    -0.376442
6
BHMC Sample 2925
O      2.477510     0.873759    -0.138628
H      2.895459     0.438900     0.613666
H      2.812016     1.774512    -0.059068
O      2.102462    -1.327652     1.919277
H      1.633428    -0.502733     2.094128
H      2.176914    -1.323757     0.956793
6
BHMC Sample 2926
O     -1.669042     0.724823    -1.968510
H     -1.614105     0.089685    -1.245108
H     -2.612908     0.920279    -1.990692
O      0.131527    -0.276271     0.262544
H     -0.337507     0.548647     0.437395
H      0.205980    -0.272376    -0.699940
6
BHMC Sample 2927
O     -1.530358     0.697497    -2.085521
H     -1.525746     0.079717    -1.345213
H     -2.468198     0.906803    -2.164423
O      0.131527    -0.276271     0.262544
H     -0.337507     0.548647     0.437395
H      0.205980    -0.272376    -0.699940
6
BHMC Sample 2928
O     -0.522937    -1.671764    -2.770275
H     -0.518325    -2.289544    -2.029967
H     -1.460777    -1.462459    -2.849177
O      0.131527    -0.276271     0.262544
H     -0.337507     0.548647     0.437395
H      0.205980    -0.272376    -0.699940
6
BHMC Sample 2929
O     -0.522937    -1.671764    -2.770275
H     -0.518325    -2.289544    -2.029967
H     -1.460777    -1.462459    -2.849177
O     -0.722059     0.670701    -0.653529
H     -1.191093     1.495620    -0.478678
H     -0.647607     0.674596    -1.616014
6
BHMC Sample 2930
O     -0.691920     0.739932    -0.734608
H     -0.687308     0.122152     0.005700
H     -1.629760     0.949238    -0.813509
O     -0.553076    -1.740995    -2.689196
H     -1.022110    -0.916077    -2.514345
H     -0.478624    -1.737100    -3.651681
6
BHMC Sample 2931
O     -0.522937    -1.671764    -2.770275
H     -0.518325    -2.289544    -2.029967
H     -1.460777    -1.462459    -2.849177
O     -0.722059     0.670701    -0.653529
H     -1.191093     1.495620    -0.478678
H     -0.647607     0.674596    -1.616014
6
BHMC Sample 2932
O     -0.159110    -1.138366    -3.200908
H     -0.032763    -1.880441    -2.598339
H     -1.120422    -1.082731    -3.249527
O     -0.722059     0.670701    -0.653529
H     -1.191093     1.495620    -0.478678
H     -0.647607     0.674596    -1.616014
6
BHMC Sample 2933
O      0.278321     0.228813    -0.184650
H      0.404669    -0.513262     0.417919
H     -0.682990     0.284449    -0.233269
O     -0.267101    -1.893185    -2.482129
H     -0.732445    -1.895992    -3.327412
H     -0.196836    -0.950288    -2.287337
6
BHMC Sample 2934
O      0.278321     0.228813    -0.184650
H      0.404669    -0.513262     0.417919
H     -0.682990     0.284449    -0.233269
O     -0.284628     2.037881     2.362729
H     -0.753662     2.862799     2.537580
H     -0.210175     2.041775     1.400244
6
BHMC Sample 2935
O      0.585866    -1.857179    -2.501808
H      0.097789    -1.308524    -3.126698
H     -0.125484    -2.326642    -2.051070
O      0.131527    -0.276271     0.262544
H     -0.337507     0.548647     0.437395
H      0.205980    -0.272376    -0.699940
6
BHMC Sample 2936
O     -1.667795     1.548345     2.207371
H     -2.152890     2.092494     1.576250
H     -2.132395     0.706015     2.142507
O      0.131527    -0.276271     0.262544
H     -0.337507     0.548647     0.437395
H      0.205980    -0.272376    -0.699940
6
BHMC Sample 2937
O      0.585866    -1.857179    -2.501808
H      0.097789    -1.308524    -3.126698
H     -0.125484    -2.326642    -2.051070
O      0.131527    -0.276271     0.262544
H     -0.337507     0.548647     0.437395
H      0.205980    -0.272376    -0.699940
6
BHMC Sample 2938
O      0.399809    -0.026398     0.058051
H     -0.088268     0.522258    -0.566839
H     -0.311541    -0.495860     0.508788
O     -0.547371     1.587071     2.750823
H     -0.044862     2.347803     3.066781
H     -0.344983     1.582514     1.806920
6
BHMC Sample 2939
O      0.670384     0.206707     0.029389
H      0.092151     0.672280    -0.585930
H      0.053524    -0.388378     0.470906
O     -0.547371     1.587071     2.750823
H     -0.044862     2.347803     3.066781
H     -0.344983     1.582514     1.806920
6
BHMC Sample 2940
O     -1.624904    -0.233093     0.284189
H     -1.434349     0.401326    -0.416475
H     -2.363188     0.188333     0.739069
O     -0.547371     1.587071     2.750823
H     -0.044862     2.347803     3.066781
H     -0.344983     1.582514     1.806920
6
BHMC Sample 2941
O     -1.624904    -0.233093     0.284189
H     -1.434349     0.401326    -0.416475
H     -2.363188     0.188333     0.739069
O      0.583811    -1.030841     2.445962
H      1.133188    -1.718311     2.841722
H     -0.007653    -1.539789     1.877563
6
BHMC Sample 2942
O      0.612103    -1.156863     2.450055
H      0.802658    -0.522444     1.749391
H     -0.126181    -0.735436     2.904935
O     -1.653197    -0.107071     0.280097
H     -1.103819    -0.794542     0.675856
H     -2.244660    -0.616019    -0.288302
6
BHMC Sample 2943
O     -1.624904    -0.233093     0.284189
H     -1.434349     0.401326    -0.416475
H     -2.363188     0.188333     0.739069
O      0.583811    -1.030841     2.445962
H      1.133188    -1.718311     2.841722
H     -0.007653    -1.539789     1.877563
6
BHMC Sample 2944
O      0.182576    -0.351948     0.081928
H      0.373131     0.282470    -0.618736
H     -0.555708     0.069478     0.536808
O      2.901358    -1.032846     1.609229
H      3.527972    -1.702623     1.908914
H      2.310684    -1.541613     1.039848
6
BHMC Sample 2945
O      0.182576    -0.351948     0.081928
H      0.373131     0.282470    -0.618736
H     -0.555708     0.069478     0.536808
O     -0.107945    -3.252263    -1.218770
H      0.177293    -4.173811    -1.239893
H      0.538245    -2.848820    -0.625806
6
BHMC Sample 2946
O      0.289177     3.178059     0.701735
H     -0.451384     3.496085     1.231035
H      0.387115     3.883633     0.052003
O     -0.310476     0.172701    -0.190614
H     -0.025238    -0.748846    -0.211737
H      0.335714     0.576144     0.402351
6
BHMC Sample 2947
O      0.289177     3.178059     0.701735
H     -0.451384     3.496085     1.231035
H      0.387115     3.883633     0.052003
O     -0.272197     0.082949    -0.132222
H     -0.762518     0.908659    -0.038176
H      0.465434     0.343193    -0.698003
6
BHMC Sample 2948
O     -0.222403     0.086438    -0.151879
H     -0.962964     0.404464     0.377421
H     -0.124465     0.792012    -0.801611
O      0.239382     3.174570     0.721392
H     -0.250938     4.000281     0.815438
H      0.977013     3.434814     0.155611
6
BHMC Sample 2949
O      0.289177     3.178059     0.701735
H     -0.451384     3.496085     1.231035
H      0.387115     3.883633     0.052003
O     -0.272197     0.082949    -0.132222
H     -0.762518     0.908659    -0.038176
H      0.465434     0.343193    -0.698003
6
BHMC Sample 2950
O     -2.227191     2.596933     0.891820
H     -2.967752     2.914959     1.421120
H     -2.129253     3.302507     0.242088
O     -0.272197     0.082949    -0.132222
H     -0.762518     0.908659    -0.038176
H      0.465434     0.343193    -0.698003
6
BHMC Sample 2951
O      0.214208    -0.341200     0.040144
H     -0.526353    -0.023174     0.569444
H      0.312146     0.364374    -0.609588
O      2.887469    -2.323591    -0.298349
H      2.225878    -1.624639    -0.367771
H      3.307675    -2.298274    -1.167095
6
BHMC Sample 2952
O     -1.154237    -1.348544     0.851625
H     -1.894798    -1.030518     1.380924
H     -1.056299    -0.642970     0.201892
O      2.887469    -2.323591    -0.298349
H      2.225878    -1.624639    -0.367771
H      3.307675    -2.298274    -1.167095
6
BHMC Sample 2953
O     -2.596906    -1.245619     0.923246
H     -3.337467    -0.927593     1.452546
H     -2.498968    -0.540045     0.273514
O      2.887469    -2.323591    -0.298349
H      2.225878    -1.624639    -0.367771
H      3.307675    -2.298274    -1.167095
6
BHMC Sample 2954
O     -1.149230     1.544274     0.989081
H     -1.539170     2.420493     1.088659
H     -1.557406     1.236349     0.171675
O      2.887469    -2.323591    -0.298349
H      2.225878    -1.624639    -0.367771
H      3.307675    -2.298274    -1.167095
6
BHMC Sample 2955
O     -1.149230     1.544274     0.989081
H     -1.539170     2.420493     1.088659
H     -1.557406     1.236349     0.171675
O      4.277479    -1.581769     0.290403
H      3.615888    -0.882816     0.220981
H      4.697685    -1.556452    -0.578343
6
BHMC Sample 2956
O     -1.149230     1.544274     0.989081
H     -1.539170     2.420493     1.088659
H     -1.557406     1.236349     0.171675
O      0.908309    -4.052223    -1.111303
H      0.798996    -3.097399    -1.025176
H      0.997737    -4.165346    -2.065840
6
BHMC Sample 2957
O      0.202964     2.262762    -0.624026
H     -0.186977     3.138981    -0.524448
H     -0.205212     1.954836    -1.441432
O      0.908309    -4.052223    -1.111303
H      0.798996    -3.097399    -1.025176
H      0.997737    -4.165346    -2.065840
6
BHMC Sample 2958
O      0.202964     2.262762    -0.624026
H     -0.186977     3.138981    -0.524448
H     -0.205212     1.954836    -1.441432
O      0.952905    -3.960202    -1.138150
H      1.097612    -4.790920    -1.607216
H     -0.008701    -3.932389    -1.057685
6
BHMC Sample 2959
O      0.207623     2.323457    -0.700953
H      0.066904     1.390981    -0.499916
H     -0.533044     2.739484    -0.244978
O      0.952905    -3.960202    -1.138150
H      1.097612    -4.790920    -1.607216
H     -0.008701    -3.932389    -1.057685
6
BHMC Sample 2960
O     -0.752364     3.489741    -3.165871
H     -0.893083     2.557265    -2.964834
H     -1.493030     3.905768    -2.709896
O      0.952905    -3.960202    -1.138150
H      1.097612    -4.790920    -1.607216
H     -0.008701    -3.932389    -1.057685
6
BHMC Sample 2961
O     -0.752364     3.489741    -3.165871
H     -0.893083     2.557265    -2.964834
H     -1.493030     3.905768    -2.709896
O      0.916264    -3.964380    -1.213164
H      0.255879    -4.656524    -1.087130
H      1.414595    -4.000479    -0.387151
6
BHMC Sample 2962
O      0.252277     3.655049    -1.706768
H      0.111558     2.722573    -1.505731
H     -0.488390     4.071076    -1.250793
O      0.916264    -3.964380    -1.213164
H      0.255879    -4.656524    -1.087130
H      1.414595    -4.000479    -0.387151
6
BHMC Sample 2963
O      0.252277     3.655049    -1.706768
H      0.111558     2.722573    -1.505731
H     -0.488390     4.071076    -1.250793
O      0.552851    -3.853145    -0.162898
H     -0.140455    -4.490214     0.048113
H      1.042875    -3.797610     0.666998
6
BHMC Sample 2964
O     -0.013534     2.018155    -0.617753
H     -0.154253     1.085679    -0.416716
H     -0.754201     2.434182    -0.161778
O      0.552851    -3.853145    -0.162898
H     -0.140455    -4.490214     0.048113
H      1.042875    -3.797610     0.666998
6
BHMC Sample 2965
O     -0.013534     2.018155    -0.617753
H     -0.154253     1.085679    -0.416716
H     -0.754201     2.434182    -0.161778
O     -0.044903    -3.512013     1.522164
H     -0.810940    -4.089151     1.627778
H      0.124154    -3.224109     2.427959
6
BHMC Sample 2966
O     -0.013534     2.018155    -0.617753
H     -0.154253     1.085679    -0.416716
H     -0.754201     2.434182    -0.161778
O     -0.029719    -3.573522     1.565901
H     -0.500142    -3.409681     2.392288
H     -0.427631    -2.927296     0.969251
6
BHMC Sample 2967
O      0.293795     0.172150    -0.219004
H      0.153076    -0.760326    -0.017967
H     -0.446872     0.588177     0.236971
O     -3.453056     2.963173     3.550240
H     -3.541491     2.268702     4.214277
H     -3.338447     2.457780     2.735760
6
BHMC Sample 2968
O     -3.402275     2.924934     3.505060
H     -3.542994     1.992458     3.706097
H     -4.142942     3.340961     3.961035
O      0.243014     0.210389    -0.173824
H      0.154579    -0.484082     0.490213
H      0.357623    -0.295004    -0.988304
6
BHMC Sample 2969
O     -3.584967    -4.084280     2.724751
H     -3.773099    -3.237124     3.145063
H     -4.315173    -4.629407     3.039735
O     -0.008724     0.399955     0.050148
H     -0.097160    -0.294517     0.714184
H      0.105884    -0.105438    -0.764332
6
BHMC Sample 2970
O      0.044124     0.315919     0.000588
H     -0.144008     1.163075     0.420899
H     -0.686082    -0.229208     0.315571
O     -3.637815    -4.000244     2.774311
H     -3.726251    -4.694715     3.438348
H     -3.523207    -4.505637     1.959832
6
BHMC Sample 2971
O      2.644888     3.770710     4.683851
H      2.543891     4.701358     4.452718
H      2.044723     3.344568     4.061128
O     -0.008724     0.399955     0.050148
H     -0.097160    -0.294517     0.714184
H      0.105884    -0.105438    -0.764332
6
BHMC Sample 2972
O      4.069063     3.759984     3.511659
H      4.041988     4.666384     3.183885
H      3.291202     3.373528     3.093134
O     -0.008724     0.399955     0.050148
H     -0.097160    -0.294517     0.714184
H      0.105884    -0.105438    -0.764332
6
BHMC Sample 2973
O      4.069063     3.759984     3.511659
H      4.041988     4.666384     3.183885
H      3.291202     3.373528     3.093134
O      0.136288     2.321910    -0.091260
H      0.047853     1.627439     0.572777
H      0.250897     1.816517    -0.905740
6
BHMC Sample 2974
O      0.268312    -0.173315     0.248766
H      0.241237     0.733085    -0.079008
H     -0.509549    -0.559770    -0.169759
O     -0.223639     4.312188    -2.937723
H      0.293013     4.659409    -2.200455
H      0.320301     4.545914    -3.700242
6
BHMC Sample 2975
O     -3.717875     2.922446    -3.123741
H     -3.012229     2.345516    -2.809188
H     -3.461230     3.773186    -2.749638
O     -0.353531    -0.193649     0.008417
H      0.163121     0.153572     0.745685
H      0.190409     0.040077    -0.754102
6
BHMC Sample 2976
O     -0.348030    -0.176464    -0.031528
H      0.357616    -0.753394     0.283025
H     -0.091385     0.674276     0.342575
O     -3.723376     2.905261    -3.083795
H     -3.206724     3.252482    -2.346527
H     -3.179436     3.138987    -3.846315
6
BHMC Sample 2977
O     -3.717875     2.922446    -3.123741
H     -3.012229     2.345516    -2.809188
H     -3.461230     3.773186    -2.749638
O     -0.353531    -0.193649     0.008417
H      0.163121     0.153572     0.745685
H      0.190409     0.040077    -0.754102
6
BHMC Sample 2978
O     -3.665475     3.004530    -3.097827
H     -3.977083     2.275760    -3.646939
H     -3.328070     2.540110    -2.323197
O     -0.353531    -0.193649     0.008417
H      0.163121     0.153572     0.745685
H      0.190409     0.040077    -0.754102
6
BHMC Sample 2979
O     -3.833415     3.970224    -4.189148
H     -4.145023     3.241455    -4.738261
H     -3.496010     3.505804    -3.414519
O     -0.353531    -0.193649     0.008417
H      0.163121     0.153572     0.745685
H      0.190409     0.040077    -0.754102
6
BHMC Sample 2980
O     -3.833415     3.970224    -4.189148
H     -4.145023     3.241455    -4.738261
H     -3.496010     3.505804    -3.414519
O     -0.234765    -0.129032     0.002734
H     -0.960172     0.021681     0.620898
H     -0.571342    -0.853642    -0.539107
6
BHMC Sample 2981
O     -3.833415     3.970224    -4.189148
H     -4.145023     3.241455    -4.738261
H     -3.496010     3.505804    -3.414519
O     -2.492021    -1.363374     0.565725
H     -3.217428    -1.212661     1.183889
H     -2.828599    -2.087983     0.023885
6
BHMC Sample 2982
O     -3.575638     4.307277    -3.847387
H     -3.841344     3.620228    -4.469555
H     -3.285275     3.787661    -3.088924
O     -2.492021    -1.363374     0.565725
H     -3.217428    -1.212661     1.183889
H     -2.828599    -2.087983     0.023885
6
BHMC Sample 2983
O     -3.575638     4.307277    -3.847387
H     -3.841344     3.620228    -4.469555
H     -3.285275     3.787661    -3.088924
O     -2.691614    -2.407256     0.717828
H     -3.417020    -2.256543     1.335993
H     -3.028191    -3.131866     0.175988
6
BHMC Sample 2984
O     -2.752415    -2.371851     0.714473
H     -3.018121    -3.058900     0.092305
H     -2.462052    -2.891467     1.472936
O     -3.514837     4.271871    -3.844032
H     -4.240243     4.422584    -3.225867
H     -3.851414     3.547261    -4.385872
6
BHMC Sample 2985
O     -3.575638     4.307277    -3.847387
H     -3.841344     3.620228    -4.469555
H     -3.285275     3.787661    -3.088924
O     -2.691614    -2.407256     0.717828
H     -3.417020    -2.256543     1.335993
H     -3.028191    -3.131866     0.175988
6
BHMC Sample 2986
O     -3.624464     2.131368    -2.658943
H     -3.890170     1.444319    -3.281111
H     -3.334101     1.611752    -1.900479
O     -2.691614    -2.407256     0.717828
H     -3.417020    -2.256543     1.335993
H     -3.028191    -3.131866     0.175988
6
BHMC Sample 2987
O     -1.707402     2.097545    -2.656244
H     -2.209357     1.566932    -3.285704
H     -1.656917     1.508352    -1.894745
O     -2.691614    -2.407256     0.717828
H     -3.417020    -2.256543     1.335993
H     -3.028191    -3.131866     0.175988
6
BHMC Sample 2988
O     -1.678060     2.075331    -2.647645
H     -2.254740     1.855515    -3.388489
H     -2.077250     1.572352    -1.928452
O     -2.691614    -2.407256     0.717828
H     -3.417020    -2.256543     1.335993
H     -3.028191    -3.131866     0.175988
6
BHMC Sample 2989
O     -2.696432    -2.398925     0.723310
H     -3.273112    -2.618741    -0.017534
H     -3.095623    -2.901904     1.442503
O     -1.673241     2.066999    -2.653127
H     -2.398648     2.217712    -2.034962
H     -2.009819     1.342390    -3.194967
6
BHMC Sample 2990
O     -2.696432    -2.398925     0.723310
H     -3.273112    -2.618741    -0.017534
H     -3.095623    -2.901904     1.442503
O      0.548741     3.825796    -1.688059
H     -0.176666     3.976509    -1.069895
H      0.212164     3.101186    -2.229900
6
BHMC Sample 2991
O     -2.696432    -2.398925     0.723310
H     -3.273112    -2.618741    -0.017534
H     -3.095623    -2.901904     1.442503
O      0.538714     3.813508    -1.641987
H      0.609972     3.458700    -2.536464
H     -0.415336     3.814019    -1.494600
6
BHMC Sample 2992
O     -1.990362    -1.615738     2.661425
H     -2.685191    -1.998894     2.113581
H     -2.233843    -1.929274     3.540055
O      0.538714     3.813508    -1.641987
H      0.609972     3.458700    -2.536464
H     -0.415336     3.814019    -1.494600
6
BHMC Sample 2993
O     -1.990362    -1.615738     2.661425
H     -2.685191    -1.998894     2.113581
H     -2.233843    -1.929274     3.540055
O      0.488413     3.729989    -1.660932
H      1.172464     4.401691    -1.551625
H     -0.179452     4.196646    -2.178737
6
BHMC Sample 2994
O     -1.990362    -1.615738     2.661425
H     -2.685191    -1.998894     2.113581
H     -2.233843    -1.929274     3.540055
O     -1.474846     2.919805    -2.733144
H     -0.790796     3.591507    -2.623837
H     -2.142711     3.386462    -3.250949
6
BHMC Sample 2995
O     -1.990362    -1.615738     2.661425
H     -2.685191    -1.998894     2.113581
H     -2.233843    -1.929274     3.540055
O     -1.476820     2.949958    -2.697290
H     -2.195262     3.356163    -3.197185
H     -0.706909     3.143222    -3.246671
6
BHMC Sample 2996
O     -2.184470    -1.904301     2.379437
H     -2.867890    -2.248252     1.792612
H     -2.455013    -2.263491     3.232296
O     -1.476820     2.949958    -2.697290
H     -2.195262     3.356163    -3.197185
H     -0.706909     3.143222    -3.246671
6
BHMC Sample 2997
O     -2.184470    -1.904301     2.379437
H     -2.867890    -2.248252     1.792612
H     -2.455013    -2.263491     3.232296
O     -3.314563     3.396993    -2.163012
H     -4.102702     3.521515    -2.705588
H     -2.667535     3.960984    -2.604830
6
BHMC Sample 2998
O     -2.211321    -1.920950     2.452632
H     -1.779084    -2.059020     1.601846
H     -3.117636    -2.188480     2.261322
O     -3.314563     3.396993    -2.163012
H     -4.102702     3.521515    -2.705588
H     -2.667535     3.960984    -2.604830
6
BHMC Sample 2999
O     -2.211321    -1.920950     2.452632
H     -1.779084    -2.059020     1.601846
H     -3.117636    -2.188480     2.261322
O     -3.353190     3.426796    -2.277757
H     -3.528592     2.986192    -1.437424
H     -2.628571     4.023275    -2.051761
6
BHMC Sample 3000
O     -2.211321    -1.920950     2.452632
H     -1.779084    -2.059020     1.601846
H     -3.117636    -2.188480     2.261322
O     -4.681716     4.258829    -0.338949
H     -4.263670     3.752031     0.367769
H     -3.924822     4.539748    -0.868222
6
BHMC Sample 3001
O     -2.211321    -1.920950     2.452632
H     -1.779084    -2.059020     1.601846
H     -3.117636    -2.188480     2.261322
O     -4.653636     4.196797    -0.302148
H     -4.871172     4.797338    -1.025394
H     -3.762996     4.479022    -0.059159
6
BHMC Sample 3002
O     -2.798780    -0.706534     2.649106
H     -2.366543    -0.844605     1.798320
H     -3.705095    -0.974065     2.457796
O     -4.653636     4.196797    -0.302148
H     -4.871172     4.797338    -1.025394
H     -3.762996     4.479022    -0.059159
6
BHMC Sample 3003
O     -4.704932    -3.371350    -2.418978
H     -3.979340    -3.593982    -3.013689
H     -4.531408    -3.950152    -1.667675
O     -0.224368    -0.294255     0.160086
H     -0.441904     0.306286    -0.563160
H      0.666272    -0.012031     0.403074
6
BHMC Sample 3004
O      3.456881    -3.420579    -3.519467
H      4.092618    -3.108728    -2.865008
H      3.037384    -4.154433    -3.055722
O     -0.224368    -0.294255     0.160086
H     -0.441904     0.306286    -0.563160
H      0.666272    -0.012031     0.403074
6
BHMC Sample 3005
O      3.508676    -3.392810    -3.436828
H      3.292753    -3.679768    -4.331681
H      3.015161    -4.024138    -2.900688
O     -0.224368    -0.294255     0.160086
H     -0.441904     0.306286    -0.563160
H      0.666272    -0.012031     0.403074
6
BHMC Sample 3006
O      3.508676    -3.392810    -3.436828
H      3.292753    -3.679768    -4.331681
H      3.015161    -4.024138    -2.900688
O     -1.228925    -0.938204    -0.019050
H     -1.446461    -0.337662    -0.742296
H     -0.338285    -0.655979     0.223939
6
BHMC Sample 3007
O     -1.151567    -0.837429    -0.025851
H     -1.367490    -1.124386    -0.920704
H     -1.645082    -1.468757     0.510290
O      3.431318    -3.493585    -3.430028
H      3.213782    -2.893044    -4.153273
H      4.321958    -3.211360    -3.187039
6
BHMC Sample 3008
O      0.315343    -2.934801     0.075301
H      0.099420    -3.221758    -0.819552
H     -0.178172    -3.566129     0.611442
O      3.431318    -3.493585    -3.430028
H      3.213782    -2.893044    -4.153273
H      4.321958    -3.211360    -3.187039
6
BHMC Sample 3009
O      0.315343    -2.934801     0.075301
H      0.099420    -3.221758    -0.819552
H     -0.178172    -3.566129     0.611442
O      3.427042    -3.448525    -3.509840
H      3.718407    -4.146646    -2.910851
H      3.885199    -2.672959    -3.162674
6
BHMC Sample 3010
O      0.315343    -2.934801     0.075301
H      0.099420    -3.221758    -0.819552
H     -0.178172    -3.566129     0.611442
O      2.232358    -2.925739    -4.306238
H      2.360453    -3.848923    -4.056481
H      3.005478    -2.496927    -3.918500
6
BHMC Sample 3011
O      0.236479     0.306095     0.119571
H      0.020556     0.019138    -0.775282
H     -0.257036    -0.325233     0.655711
O      1.625232     0.187850    -4.497173
H      2.428048     0.088727    -3.971133
H      1.369970    -0.728717    -4.660513
6
BHMC Sample 3012
O     -3.265259    -0.849520     3.392134
H     -2.470631    -0.357185     3.155701
H     -3.133725    -0.998838     4.335522
O     -0.182518     0.338563    -0.120900
H      0.620298     0.239441     0.405140
H     -0.437780    -0.578004    -0.284239
6
BHMC Sample 3013
O     -3.465910    -3.067270     1.094472
H     -3.113159    -3.530286     1.863179
H     -4.332667    -2.787596     1.410849
O      2.763648    -0.834607    -2.211580
H      2.915002    -0.525216    -3.112927
H      2.842501    -0.021431    -1.697323
6
BHMC Sample 3014
O      2.805289    -0.761537    -2.293953
H      3.158040    -1.224554    -1.525246
H      1.938532    -0.481864    -1.977577
O     -3.507551    -3.140340     1.176845
H     -3.356197    -2.830948     0.275498
H     -3.428698    -2.327163     1.691102
6
BHMC Sample 3015
O      3.130466    -1.818128    -0.364330
H      3.483217    -2.281144     0.404378
H      2.263709    -1.538455    -0.047953
O     -3.507551    -3.140340     1.176845
H     -3.356197    -2.830948     0.275498
H     -3.428698    -2.327163     1.691102
6
BHMC Sample 3016
O      3.130466    -1.818128    -0.364330
H      3.483217    -2.281144     0.404378
H      2.263709    -1.538455    -0.047953
O     -2.001765     0.748052     3.557966
H     -1.722586     1.321983     2.834282
H     -1.292529     0.866718     4.202044
6
BHMC Sample 3017
O     -1.917700     0.797064     3.492797
H     -1.564948     0.334047     4.261505
H     -2.784456     1.076737     3.809174
O      3.046400    -1.867140    -0.299162
H      3.325580    -1.293209    -1.022846
H      3.755636    -1.748474     0.344917
6
BHMC Sample 3018
O      3.130466    -1.818128    -0.364330
H      3.483217    -2.281144     0.404378
H      2.263709    -1.538455    -0.047953
O     -2.001765     0.748052     3.557966
H     -1.722586     1.321983     2.834282
H     -1.292529     0.866718     4.202044
6
BHMC Sample 3019
O     -1.917700     0.797064     3.492797
H     -1.564948     0.334047     4.261505
H     -2.784456     1.076737     3.809174
O      3.046400    -1.867140    -0.299162
H      3.325580    -1.293209    -1.022846
H      3.755636    -1.748474     0.344917
6
BHMC Sample 3020
O     -1.917700     0.797064     3.492797
H     -1.564948     0.334047     4.261505
H     -2.784456     1.076737     3.809174
O      2.931534    -2.046766     0.871388
H      3.210714    -1.472835     0.147704
H      3.640771    -1.928100     1.515467
6
BHMC Sample 3021
O     -1.917700     0.797064     3.492797
H     -1.564948     0.334047     4.261505
H     -2.784456     1.076737     3.809174
O      3.954862    -1.710659    -1.014218
H      4.234042    -1.136728    -1.737902
H      4.664099    -1.591994    -0.370139
6
BHMC Sample 3022
O     -3.370940     2.561650     2.614331
H     -3.018189     2.098634     3.383039
H     -4.237697     2.841324     2.930708
O      3.954862    -1.710659    -1.014218
H      4.234042    -1.136728    -1.737902
H      4.664099    -1.591994    -0.370139
6
BHMC Sample 3023
O      4.038928    -1.661647    -1.079386
H      4.391679    -2.124664    -0.310678
H      3.172171    -1.381974    -0.763009
O     -3.455006     2.512639     2.679499
H     -3.175826     3.086570     1.955815
H     -2.745770     2.631304     3.323578
6
BHMC Sample 3024
O      4.038928    -1.661647    -1.079386
H      4.391679    -2.124664    -0.310678
H      3.172171    -1.381974    -0.763009
O     -4.119610     3.022742     2.113670
H     -3.840430     3.596673     1.389986
H     -3.410374     3.141408     2.757748
6
BHMC Sample 3025
O      3.436676    -2.788594    -0.656535
H      3.853275    -3.084466     0.161166
H      2.622419    -2.387513    -0.331422
O     -4.119610     3.022742     2.113670
H     -3.840430     3.596673     1.389986
H     -3.410374     3.141408     2.757748
6
BHMC Sample 3026
O      1.858978    -2.577593    -1.835365
H      2.275576    -2.873464    -1.017664
H      1.044721    -2.176511    -1.510252
O     -4.119610     3.022742     2.113670
H     -3.840430     3.596673     1.389986
H     -3.410374     3.141408     2.757748
6
BHMC Sample 3027
O      1.858978    -2.577593    -1.835365
H      2.275576    -2.873464    -1.017664
H      1.044721    -2.176511    -1.510252
O     -4.077067     2.996583     2.123492
H     -3.940045     3.410487     1.262699
H     -3.986007     3.742796     2.729139
6
BHMC Sample 3028
O     -4.042054     3.055608     2.045271
H     -3.625456     2.759737     2.862972
H     -4.856311     3.456690     2.370384
O      1.823966    -2.636618    -1.757144
H      1.960987    -2.222714    -2.617937
H      1.915026    -1.890405    -1.151497
6
BHMC Sample 3029
O      1.858978    -2.577593    -1.835365
H      2.275576    -2.873464    -1.017664
H      1.044721    -2.176511    -1.510252
O     -4.077067     2.996583     2.123492
H     -3.940045     3.410487     1.262699
H     -3.986007     3.742796     2.729139
6
BHMC Sample 3030
O      1.858978    -2.577593    -1.835365
H      2.275576    -2.873464    -1.017664
H      1.044721    -2.176511    -1.510252
O     -4.832659     1.871254     2.343009
H     -4.801601     2.299733     1.479008
H     -4.854548     2.624007     2.947011
6
BHMC Sample 3031
O      1.858978    -2.577593    -1.835365
H      2.275576    -2.873464    -1.017664
H      1.044721    -2.176511    -1.510252
O     -3.985847     1.702017     3.396529
H     -3.954789     2.130495     2.532528
H     -4.007736     2.454770     4.000531
6
BHMC Sample 3032
O      1.858978    -2.577593    -1.835365
H      2.275576    -2.873464    -1.017664
H      1.044721    -2.176511    -1.510252
O     -4.052553     1.761112     3.385568
H     -3.482668     1.733487     2.607414
H     -3.421090     1.913824     4.099619
6
BHMC Sample 3033
O      1.858978    -2.577593    -1.835365
H      2.275576    -2.873464    -1.017664
H      1.044721    -2.176511    -1.510252
O     -3.282610     2.809446     3.217273
H     -2.755099     2.654789     2.424260
H     -2.606441     2.942083     3.893393
6
BHMC Sample 3034
O      3.641096    -2.213251     0.383513
H      3.878277    -2.328214     1.311014
H      2.724596    -1.920737     0.447085
O     -3.282610     2.809446     3.217273
H     -2.755099     2.654789     2.424260
H     -2.606441     2.942083     3.893393
6
BHMC Sample 3035
O      3.641096    -2.213251     0.383513
H      3.878277    -2.328214     1.311014
H      2.724596    -1.920737     0.447085
O     -3.248261     2.757494     3.241043
H     -3.573965     3.634336     3.004145
H     -2.332755     2.787119     2.936239
6
BHMC Sample 3036
O     -3.177250     2.798279     3.155279
H     -2.940069     2.683316     4.082780
H     -4.093750     3.090793     3.218851
O      3.570085    -2.254036     0.469277
H      3.244381    -1.377194     0.232379
H      4.485591    -2.224411     0.164473
6
BHMC Sample 3037
O     -3.201774     2.854500     3.258631
H     -3.902140     2.192221     3.234075
H     -2.742431     2.689541     2.427144
O      3.570085    -2.254036     0.469277
H      3.244381    -1.377194     0.232379
H      4.485591    -2.224411     0.164473
6
BHMC Sample 3038
O      3.616572    -2.157030     0.486866
H      2.916206    -2.819308     0.462310
H      4.075915    -2.321989    -0.344622
O     -3.248261     2.757494     3.241043
H     -3.573965     3.634336     3.004145
H     -2.332755     2.787119     2.936239
6
BHMC Sample 3039
O      3.616572    -2.157030     0.486866
H      2.916206    -2.819308     0.462310
H      4.075915    -2.321989    -0.344622
O     -2.340488     2.734462    -3.998882
H     -2.792394     3.564362    -3.803685
H     -2.070112     2.434462    -3.122051
6
BHMC Sample 3040
O     -2.337159     2.810398    -3.891000
H     -3.037525     2.148119    -3.915556
H     -1.877816     2.645439    -4.722487
O      3.613243    -2.232966     0.378984
H      3.161337    -1.403066     0.574181
H      3.883619    -2.532965     1.255814
6
BHMC Sample 3041
O     -2.337159     2.810398    -3.891000
H     -3.037525     2.148119    -3.915556
H     -1.877816     2.645439    -4.722487
O      3.626739    -2.191048     0.376755
H      3.545740    -3.035251     0.836990
H      3.285014    -1.566108     1.028375
6
BHMC Sample 3042
O     -0.434544     4.083260    -3.037871
H     -1.134911     3.420982    -3.062426
H      0.024799     3.918301    -3.869358
O      3.626739    -2.191048     0.376755
H      3.545740    -3.035251     0.836990
H      3.285014    -1.566108     1.028375
6
BHMC Sample 3043
O     -0.434544     4.083260    -3.037871
H     -1.134911     3.420982    -3.062426
H      0.024799     3.918301    -3.869358
O      4.820708    -1.949355     0.954290
H      4.739709    -2.793559     1.414524
H      4.478983    -1.324415     1.605910
6
BHMC Sample 3044
O     -0.434544     4.083260    -3.037871
H     -1.134911     3.420982    -3.062426
H      0.024799     3.918301    -3.869358
O      4.243735    -0.616832     1.090629
H      4.162736    -1.461036     1.550863
H      3.902010     0.008108     1.742249
6
BHMC Sample 3045
O      4.233568    -0.582814     1.200740
H      3.533202    -1.245093     1.176184
H      4.692911    -0.747773     0.369252
O     -0.424378     4.049242    -3.147981
H     -0.505377     3.205039    -2.687747
H     -0.766103     4.674182    -2.496361
6
BHMC Sample 3046
O      4.233568    -0.582814     1.200740
H      3.533202    -1.245093     1.176184
H      4.692911    -0.747773     0.369252
O     -1.244844     2.287773    -3.703227
H     -0.282258     2.224605    -3.680998
H     -1.490473     1.522640    -4.238178
6
BHMC Sample 3047
O      4.233568    -0.582814     1.200740
H      3.533202    -1.245093     1.176184
H      4.692911    -0.747773     0.369252
O     -3.031240    -3.680714     0.905942
H     -2.223464    -3.738139     0.381292
H     -2.961033    -4.453779     1.479856
6
BHMC Sample 3048
O      4.233568    -0.582814     1.200740
H      3.533202    -1.245093     1.176184
H      4.692911    -0.747773     0.369252
O     -3.899284    -2.936069    -1.752156
H     -3.091509    -2.993495    -2.276806
H     -3.829078    -3.709134    -1.178243
6
BHMC Sample 3049
O      4.552704    -2.175764     1.174579
H      3.953751    -2.404187     0.454296
H      4.586297    -1.214477     1.108411
O     -3.899284    -2.936069    -1.752156
H     -3.091509    -2.993495    -2.276806
H     -3.829078    -3.709134    -1.178243
6
BHMC Sample 3050
O      4.552704    -2.175764     1.174579
H      3.953751    -2.404187     0.454296
H      4.586297    -1.214477     1.108411
O     -2.947418    -3.845361    -3.421467
H     -2.139642    -3.902787    -3.946117
H     -2.877211    -4.618426    -2.847554
6
BHMC Sample 3051
O      2.110443    -1.234969    -0.146708
H      1.511490    -1.463393    -0.866990
H      2.144035    -0.273683    -0.212876
O     -2.947418    -3.845361    -3.421467
H     -2.139642    -3.902787    -3.946117
H     -2.877211    -4.618426    -2.847554
6
BHMC Sample 3052
O      2.110443    -1.234969    -0.146708
H      1.511490    -1.463393    -0.866990
H      2.144035    -0.273683    -0.212876
O     -3.754411    -4.114911    -1.959466
H     -2.946635    -4.172336    -2.484116
H     -3.684204    -4.887976    -1.385553
6
BHMC Sample 3053
O     -3.673651    -4.202386    -1.912705
H     -4.272604    -4.430809    -2.632987
H     -3.640058    -3.241099    -1.978873
O      2.029683    -1.147494    -0.193469
H      2.837458    -1.204920    -0.718119
H      2.099889    -1.920559     0.380445
6
BHMC Sample 3054
O     -2.176626    -4.285616    -2.630191
H     -2.775579    -4.514040    -3.350473
H     -2.143033    -3.324330    -2.696359
O      2.029683    -1.147494    -0.193469
H      2.837458    -1.204920    -0.718119
H      2.099889    -1.920559     0.380445
6
BHMC Sample 3055
O     -2.176626    -4.285616    -2.630191
H     -2.775579    -4.514040    -3.350473
H     -2.143033    -3.324330    -2.696359
O      2.096043    -1.192717    -0.125277
H      2.568761    -0.825147    -0.881906
H      1.315322    -1.582565    -0.538106
6
BHMC Sample 3056
O     -2.176626    -4.285616    -2.630191
H     -2.775579    -4.514040    -3.350473
H     -2.143033    -3.324330    -2.696359
O      1.083057    -2.340319    -0.544129
H      1.555775    -1.972749    -1.300757
H      0.302336    -2.730167    -0.956958
6
BHMC Sample 3057
O      0.188454    -0.244288     0.262150
H     -0.410500    -0.472711    -0.458132
H      0.222046     0.716999     0.195982
O      0.211538    -4.388086    -0.998567
H      0.548091    -4.276688    -1.895996
H      0.122978    -3.475756    -0.695673
6
BHMC Sample 3058
O      0.155816    -0.150063     0.260400
H      0.913320    -0.604237    -0.126439
H     -0.583750    -0.647010    -0.107927
O      0.211538    -4.388086    -0.998567
H      0.548091    -4.276688    -1.895996
H      0.122978    -3.475756    -0.695673
6
BHMC Sample 3059
O      0.224411    -4.277586    -0.989579
H      0.981914    -4.731760    -1.376417
H     -0.515156    -4.774533    -1.357905
O      0.142944    -0.260563     0.251412
H      0.479496    -0.149164    -0.646017
H      0.054383     0.651768     0.554306
6
BHMC Sample 3060
O     -3.278345     2.941848     0.824580
H     -3.840469     2.905735     1.607167
H     -3.253730     3.887944     0.640526
O     -0.082664    -0.341243     0.198178
H      0.253889    -0.229845    -0.699251
H     -0.171225     0.571087     0.501072
6
BHMC Sample 3061
O     -3.278345     2.941848     0.824580
H     -3.840469     2.905735     1.607167
H     -3.253730     3.887944     0.640526
O      0.458855     0.625063     1.684902
H      0.795408     0.736461     0.787473
H      0.370295     1.537393     1.987796
6
BHMC Sample 3062
O      0.179170    -0.303327    -0.199511
H     -0.382954    -0.339441     0.583076
H      0.203784     0.642768    -0.383565
O      4.394964    -1.818681    -0.127704
H      4.117376    -2.735694    -0.013297
H      4.017952    -1.389377     0.650431
6
BHMC Sample 3063
O     -0.696245    -2.494337    -2.049090
H     -1.258369    -2.530450    -1.266503
H     -0.671631    -1.548241    -2.233144
O      4.394964    -1.818681    -0.127704
H      4.117376    -2.735694    -0.013297
H      4.017952    -1.389377     0.650431
6
BHMC Sample 3064
O     -0.472449    -2.810972    -3.795836
H     -1.034573    -2.847086    -3.013250
H     -0.447834    -1.864877    -3.979891
O      4.394964    -1.818681    -0.127704
H      4.117376    -2.735694    -0.013297
H      4.017952    -1.389377     0.650431
6
BHMC Sample 3065
O      3.668379    -1.292126     4.785747
H      4.025952    -0.406295     4.654697
H      4.214574    -1.817560     4.189786
O      0.218199     0.162570    -0.297514
H     -0.059388    -0.754443    -0.183107
H     -0.158812     0.591874     0.480621
6
BHMC Sample 3066
O      3.668379    -1.292126     4.785747
H      4.025952    -0.406295     4.654697
H      4.214574    -1.817560     4.189786
O      1.256064    -0.273679    -0.450419
H      0.978476    -1.190692    -0.336012
H      0.879052     0.155625     0.327716
6
BHMC Sample 3067
O      3.668379    -1.292126     4.785747
H      4.025952    -0.406295     4.654697
H      4.214574    -1.817560     4.189786
O     -0.885671     1.377440     2.329780
H     -1.316446     1.042351     3.125521
H     -0.177661     1.924580     2.692127
6
BHMC Sample 3068
O      3.668379    -1.292126     4.785747
H      4.025952    -0.406295     4.654697
H      4.214574    -1.817560     4.189786
O     -0.478576     0.690097     1.197311
H     -0.261112     1.522888     1.633459
H      0.367318     0.431610     0.810551
6
BHMC Sample 3069
O      3.668379    -1.292126     4.785747
H      4.025952    -0.406295     4.654697
H      4.214574    -1.817560     4.189786
O     -2.480263     2.469117     2.097591
H     -2.262799     3.301908     2.533739
H     -1.634369     2.210630     1.710831
6
BHMC Sample 3070
O      3.668379    -1.292126     4.785747
H      4.025952    -0.406295     4.654697
H      4.214574    -1.817560     4.189786
O     -2.472737     2.541063     2.083203
H     -1.675184     2.767458     2.576874
H     -2.341435     1.603152     1.896073
6
BHMC Sample 3071
O      3.668379    -1.292126     4.785747
H      4.025952    -0.406295     4.654697
H      4.214574    -1.817560     4.189786
O     -2.436292     2.508693     2.034904
H     -2.415779     3.176636     2.730956
H     -2.179286     1.707754     2.508591
6
BHMC Sample 3072
O      3.668379    -1.292126     4.785747
H      4.025952    -0.406295     4.654697
H      4.214574    -1.817560     4.189786
O     -2.417518     2.473947     2.038514
H     -1.695215     2.729661     2.624981
H     -3.197830     2.706214     2.557263
6
BHMC Sample 3073
O      3.668379    -1.292126     4.785747
H      4.025952    -0.406295     4.654697
H      4.214574    -1.817560     4.189786
O     -2.374668     2.528040     2.058668
H     -2.410953     1.637021     2.427212
H     -3.162220     2.940295     2.435153
6
BHMC Sample 3074
O      3.668379    -1.292126     4.785747
H      4.025952    -0.406295     4.654697
H      4.214574    -1.817560     4.189786
O     -1.701732     3.221416     1.697191
H     -1.738018     2.330397     2.065735
H     -2.489284     3.633672     2.073676
6
BHMC Sample 3075
O      3.668379    -1.292126     4.785747
H      4.025952    -0.406295     4.654697
H      4.214574    -1.817560     4.189786
O     -1.822730     2.195284     1.244892
H     -1.859016     1.304265     1.613436
H     -2.610283     2.607540     1.621377
6
BHMC Sample 3076
O      3.785126    -1.280657     4.757855
H      3.322870    -0.488148     4.461244
H      3.064657    -1.917736     4.825932
O     -1.822730     2.195284     1.244892
H     -1.859016     1.304265     1.613436
H     -2.610283     2.607540     1.621377
6
BHMC Sample 3077
O      3.785126    -1.280657     4.757855
H      3.322870    -0.488148     4.461244
H      3.064657    -1.917736     4.825932
O     -2.696346     0.802300     0.750928
H     -2.732632    -0.088719     1.119472
H     -3.483898     1.214556     1.127413
6
BHMC Sample 3078
O      3.785126    -1.280657     4.757855
H      3.322870    -0.488148     4.461244
H      3.064657    -1.917736     4.825932
O     -2.792415     0.745286     0.826812
H     -1.947210     1.074056     1.156350
H     -2.744510     0.956716    -0.113899
6
BHMC Sample 3079
O      3.785126    -1.280657     4.757855
H      3.322870    -0.488148     4.461244
H      3.064657    -1.917736     4.825932
O     -3.728091    -0.629283     2.306127
H     -2.888675    -0.159335     2.380873
H     -3.923419    -0.556049     1.363567
6
BHMC Sample 3080
O      3.785126    -1.280657     4.757855
H      3.322870    -0.488148     4.461244
H      3.064657    -1.917736     4.825932
O     -2.421888     2.103419     1.179005
H     -1.679334     2.265802     1.773397
H     -2.277558     2.757263     0.483598
6
BHMC Sample 3081
O      3.785126    -1.280657     4.757855
H      3.322870    -0.488148     4.461244
H      3.064657    -1.917736     4.825932
O     -1.683208     3.030664     1.244865
H     -0.940655     3.193046     1.839257
H     -1.538878     3.684508     0.549457
6
BHMC Sample 3082
O      3.785126    -1.280657     4.757855
H      3.322870    -0.488148     4.461244
H      3.064657    -1.917736     4.825932
O     -1.006228     3.984284     1.486847
H     -0.263674     4.146667     2.081239
H     -0.861898     4.638129     0.791440
6
BHMC Sample 3083
O      3.785126    -1.280657     4.757855
H      3.322870    -0.488148     4.461244
H      3.064657    -1.917736     4.825932
O     -1.071238     2.696933     2.527102
H     -0.328685     2.859316     3.121494
H     -0.926908     3.350777     1.831695
6
BHMC Sample 3084
O      3.785126    -1.280657     4.757855
H      3.322870    -0.488148     4.461244
H      3.064657    -1.917736     4.825932
O     -1.128550     1.804635     3.475884
H     -0.385997     1.967018     4.070276
H     -0.984220     2.458479     2.780477
6
BHMC Sample 3085
O      3.138396    -4.719637     1.484823
H      2.352288    -4.225288     1.225240
H      3.831146    -4.055610     1.391315
O     -0.295628    -0.272076     0.033672
H      0.446926    -0.109693     0.628064
H     -0.151298     0.381769    -0.661736
6
BHMC Sample 3086
O      0.916294    -4.739728     3.498546
H      0.509824    -4.219223     2.795989
H      1.640521    -4.167381     3.776921
O     -0.295628    -0.272076     0.033672
H      0.446926    -0.109693     0.628064
H     -0.151298     0.381769    -0.661736
6
BHMC Sample 3087
O      0.916294    -4.739728     3.498546
H      0.509824    -4.219223     2.795989
H      1.640521    -4.167381     3.776921
O      0.416510     0.446853     0.978223
H      1.319990     0.108458     0.994621
H      0.452015     1.098188     0.266579
6
BHMC Sample 3088
O      0.916294    -4.739728     3.498546
H      0.509824    -4.219223     2.795989
H      1.640521    -4.167381     3.776921
O      1.706894     0.364639    -0.244681
H      2.610374     0.026244    -0.228283
H      1.742400     1.015973    -0.956325
6
BHMC Sample 3089
O     -0.250965    -4.713494     3.699255
H     -0.657435    -4.192989     2.996698
H      0.473262    -4.141147     3.977630
O      1.706894     0.364639    -0.244681
H      2.610374     0.026244    -0.228283
H      1.742400     1.015973    -0.956325
6
BHMC Sample 3090
O     -0.250965    -4.713494     3.699255
H     -0.657435    -4.192989     2.996698
H      0.473262    -4.141147     3.977630
O     -0.656132     0.653606     1.397898
H      0.247348     0.315211     1.414297
H     -0.620626     1.304940     0.686254
6
BHMC Sample 3091
O      4.441196    -4.020294    -0.688829
H      3.688152    -3.615429    -1.134630
H      4.311336    -3.732927     0.222288
O     -0.312995    -0.104313     0.231749
H      0.590485    -0.442708     0.248147
H     -0.277489     0.547021    -0.479895
6
BHMC Sample 3092
O      4.441196    -4.020294    -0.688829
H      3.688152    -3.615429    -1.134630
H      4.311336    -3.732927     0.222288
O     -0.022719     0.158272     0.495720
H      0.858720    -0.233000     0.463672
H      0.015199     0.812877    -0.212792
6
BHMC Sample 3093
O      4.441196    -4.020294    -0.688829
H      3.688152    -3.615429    -1.134630
H      4.311336    -3.732927     0.222288
O     -0.028219     0.199781     0.429361
H      0.517571    -0.507187     0.064168
H      0.443654     0.428245     1.239962
6
BHMC Sample 3094
O      0.078124     0.134274     0.428247
H     -0.674920     0.539139    -0.017554
H     -0.051736     0.421642     1.339364
O      4.334853    -3.954788    -0.687715
H      4.880643    -4.661756    -1.052908
H      4.806726    -3.726323     0.122886
6
BHMC Sample 3095
O      0.028834     0.105062     0.452831
H      0.068496     0.728323    -0.281813
H     -0.012831     0.696110     1.213426
O      4.334853    -3.954788    -0.687715
H      4.880643    -4.661756    -1.052908
H      4.806726    -3.726323     0.122886
6
BHMC Sample 3096
O      1.718086     0.797905    -3.306373
H      0.777558     0.701782    -3.116904
H      1.712109     0.993298    -4.250494
O      4.334853    -3.954788    -0.687715
H      4.880643    -4.661756    -1.052908
H      4.806726    -3.726323     0.122886
6
BHMC Sample 3097
O      4.444755    -3.987116    -0.620568
H      3.504228    -4.083239    -0.431100
H      4.438778    -3.791723    -1.564689
O      1.608184     0.830233    -3.373520
H      2.153974     0.123265    -3.738713
H      2.080057     1.058698    -2.562919
6
BHMC Sample 3098
O      1.718086     0.797905    -3.306373
H      0.777558     0.701782    -3.116904
H      1.712109     0.993298    -4.250494
O      4.334853    -3.954788    -0.687715
H      4.880643    -4.661756    -1.052908
H      4.806726    -3.726323     0.122886
6
BHMC Sample 3099
O     -2.852160     3.616161    -4.394663
H     -3.779219     3.351923    -4.416312
H     -2.919521     4.577782    -4.376568
O     -0.339221     0.159501    -0.148469
H      0.206569    -0.547467    -0.513662
H      0.132652     0.387966     0.662132
6
BHMC Sample 3100
O     -2.713006     3.748630    -4.365935
H     -3.643148     3.498808    -4.412335
H     -2.766806     4.710505    -4.327453
O     -0.339221     0.159501    -0.148469
H      0.206569    -0.547467    -0.513662
H      0.132652     0.387966     0.662132
6
BHMC Sample 3101
O     -0.227225     0.092885    -0.123104
H     -1.157367    -0.156937    -0.169505
H     -0.281025     1.054760    -0.084622
O     -2.825002     3.815245    -4.391300
H     -2.279212     3.108278    -4.756493
H     -2.353129     4.043710    -3.580699
6
BHMC Sample 3102
O      2.347227    -4.669681     2.729797
H      1.402598    -4.738676     2.910477
H      2.356347    -4.493209     1.781982
O     -0.339221     0.159501    -0.148469
H      0.206569    -0.547467    -0.513662
H      0.132652     0.387966     0.662132
6
BHMC Sample 3103
O      2.347227    -4.669681     2.729797
H      1.402598    -4.738676     2.910477
H      2.356347    -4.493209     1.781982
O     -0.254870     0.145056    -0.062909
H     -1.074243     0.490677    -0.437381
H      0.074639    -0.420902    -0.772169
6
BHMC Sample 3104
O      2.347227    -4.669681     2.729797
H      1.402598    -4.738676     2.910477
H      2.356347    -4.493209     1.781982
O     -1.678901    -0.201842    -1.199714
H     -2.498275     0.143779    -1.574186
H     -1.349393    -0.767800    -1.908974
6
BHMC Sample 3105
O      1.722778    -4.047747     0.195457
H      0.778149    -4.116742     0.376136
H      1.731898    -3.871275    -0.752358
O     -1.678901    -0.201842    -1.199714
H     -2.498275     0.143779    -1.574186
H     -1.349393    -0.767800    -1.908974
6
BHMC Sample 3106
O     -1.653966    -0.220184    -1.217428
H     -2.598595    -0.289179    -1.036749
H     -1.644846    -0.043713    -2.165243
O      1.697842    -4.029405     0.213171
H      0.878469    -3.683784    -0.161301
H      2.027351    -4.595362    -0.496089
6
BHMC Sample 3107
O      0.550392     0.083019    -0.496072
H     -0.394237     0.014024    -0.315393
H      0.559513     0.259491    -1.443887
O      1.697842    -4.029405     0.213171
H      0.878469    -3.683784    -0.161301
H      2.027351    -4.595362    -0.496089
6
BHMC Sample 3108
O      0.971352     1.074435    -1.642691
H      0.026723     1.005440    -1.462011
H      0.980472     1.250907    -2.590506
O      1.697842    -4.029405     0.213171
H      0.878469    -3.683784    -0.161301
H      2.027351    -4.595362    -0.496089
6
BHMC Sample 3109
O      0.971352     1.074435    -1.642691
H      0.026723     1.005440    -1.462011
H      0.980472     1.250907    -2.590506
O     -0.246720    -3.643643     0.892487
H     -0.812984    -3.192617     0.254540
H      0.091180    -4.388381     0.379532
6
BHMC Sample 3110
O      0.311836    -0.035825     0.255712
H     -0.632793    -0.104821     0.436391
H      0.320956     0.140646    -0.692103
O     -1.210371     3.357205     4.298152
H     -1.751030     3.125349     3.533307
H     -0.934201     4.258761     4.091122
6
BHMC Sample 3111
O     -1.172825     3.388663     4.286696
H     -2.117454     3.319668     4.467375
H     -1.163705     3.565135     3.338881
O      0.274290    -0.067284     0.267168
H     -0.266369    -0.299139    -0.497677
H      0.550461     0.834272     0.060138
6
BHMC Sample 3112
O     -1.227534     3.443499     4.290989
H     -1.942778     2.895606     3.947525
H     -0.470050     3.118842     3.790594
O      0.274290    -0.067284     0.267168
H     -0.266369    -0.299139    -0.497677
H      0.550461     0.834272     0.060138
6
BHMC Sample 3113
O     -1.227534     3.443499     4.290989
H     -1.942778     2.895606     3.947525
H     -0.470050     3.118842     3.790594
O      2.097901    -1.454300    -0.299113
H      1.557242    -1.686155    -1.063958
H      2.374071    -0.552744    -0.506143
6
BHMC Sample 3114
O      2.080739    -1.368005    -0.306276
H      1.365494    -1.915899    -0.649741
H      2.838223    -1.692662    -0.806671
O     -1.210371     3.357205     4.298152
H     -1.751030     3.125349     3.533307
H     -0.934201     4.258761     4.091122
6
BHMC Sample 3115
O     -1.227534     3.443499     4.290989
H     -1.942778     2.895606     3.947525
H     -0.470050     3.118842     3.790594
O      2.097901    -1.454300    -0.299113
H      1.557242    -1.686155    -1.063958
H      2.374071    -0.552744    -0.506143
6
BHMC Sample 3116
O     -1.227534     3.443499     4.290989
H     -1.942778     2.895606     3.947525
H     -0.470050     3.118842     3.790594
O      1.937591    -0.680846     0.600601
H      1.396932    -0.912702    -0.164243
H      2.213761     0.220710     0.393572
6
BHMC Sample 3117
O     -3.208284    -3.468388     4.298666
H     -2.880905    -2.733401     4.830029
H     -2.904866    -3.226694     3.416000
O      0.088163    -0.223234     0.323958
H     -0.452496    -0.455089    -0.440886
H      0.364333     0.678322     0.116928
6
BHMC Sample 3118
O     -3.669170     2.528961    -3.780375
H     -4.082077     2.729040    -2.932315
H     -2.856598     2.087790    -3.507111
O      0.088163    -0.223234     0.323958
H     -0.452496    -0.455089    -0.440886
H      0.364333     0.678322     0.116928
6
BHMC Sample 3119
O      0.051001    -0.172272     0.206837
H     -0.361906     0.027807     1.054896
H      0.863573    -0.613442     0.480101
O     -3.632008     2.477999    -3.663254
H     -4.172667     2.246144    -4.428098
H     -3.355838     3.379555    -3.870283
6
BHMC Sample 3120
O      0.010887    -0.187585     0.242896
H      0.863905    -0.205308    -0.206297
H      0.274455    -0.137280     1.168952
O     -3.632008     2.477999    -3.663254
H     -4.172667     2.246144    -4.428098
H     -3.355838     3.379555    -3.870283
6
BHMC Sample 3121
O     -0.590148    -1.401858    -0.555032
H      0.262870    -1.419581    -1.004225
H     -0.326580    -1.351553     0.371024
O     -3.632008     2.477999    -3.663254
H     -4.172667     2.246144    -4.428098
H     -3.355838     3.379555    -3.870283
6
BHMC Sample 3122
O     -3.709284     2.513648    -3.744315
H     -2.856266     2.495925    -4.193509
H     -3.445716     2.563953    -2.818259
O     -0.512872    -1.437507    -0.473970
H     -1.053531    -1.669362    -1.238815
H     -0.236702    -0.535951    -0.681000
6
BHMC Sample 3123
O     -0.590148    -1.401858    -0.555032
H      0.262870    -1.419581    -1.004225
H     -0.326580    -1.351553     0.371024
O     -3.632008     2.477999    -3.663254
H     -4.172667     2.246144    -4.428098
H     -3.355838     3.379555    -3.870283
6
BHMC Sample 3124
O     -0.418679    -2.393495    -4.132262
H     -0.994266    -2.985878    -4.629768
H      0.428128    -2.519775    -4.575602
O     -3.632008     2.477999    -3.663254
H     -4.172667     2.246144    -4.428098
H     -3.355838     3.379555    -3.870283
6
BHMC Sample 3125
O     -3.661983     2.555683    -3.664990
H     -4.237570     1.963301    -4.162495
H     -2.815176     2.429404    -4.108330
O     -0.388704    -2.471179    -4.130526
H     -0.929363    -2.703034    -4.895371
H     -0.112534    -1.569623    -4.337556
6
BHMC Sample 3126
O     -3.514492     2.672684    -4.353840
H     -4.157095     2.009813    -4.632037
H     -2.735708     2.421391    -4.863669
O     -0.388704    -2.471179    -4.130526
H     -0.929363    -2.703034    -4.895371
H     -0.112534    -1.569623    -4.337556
6
BHMC Sample 3127
O     -3.514492     2.672684    -4.353840
H     -4.157095     2.009813    -4.632037
H     -2.735708     2.421391    -4.863669
O      0.045766     0.285151    -3.118294
H     -0.494893     0.053295    -3.883138
H      0.321936     1.186707    -3.325323
6
BHMC Sample 3128
O     -0.045394     0.304721     0.262675
H     -0.687997    -0.358149    -0.015522
H      0.733390     0.053428    -0.247154
O     -1.290248    -3.473619     2.281726
H     -0.960823    -3.453635     1.375009
H     -2.042347    -2.869689     2.242362
6
BHMC Sample 3129
O     -2.723260    -2.572409     1.880678
H     -2.125888    -1.887440     2.202693
H     -3.566626    -2.105805     1.856309
O      0.140891    -0.207972     0.315360
H      0.470316    -0.187987    -0.591357
H     -0.611208     0.395959     0.275997
6
BHMC Sample 3130
O     -2.723260    -2.572409     1.880678
H     -2.125888    -1.887440     2.202693
H     -3.566626    -2.105805     1.856309
O      0.090978     0.291462     1.907176
H      0.420402     0.311447     1.000459
H     -0.661122     0.895392     1.867812
6
BHMC Sample 3131
O     -2.723260    -2.572409     1.880678
H     -2.125888    -1.887440     2.202693
H     -3.566626    -2.105805     1.856309
O      0.602685    -0.383575     1.487693
H      0.856026    -0.499322     0.563855
H     -0.008177     0.362615     1.443177
6
BHMC Sample 3132
O     -2.788522    -2.528549     1.936618
H     -2.456537    -1.635416     1.788869
H     -2.200151    -3.053979     1.382252
O      0.602685    -0.383575     1.487693
H      0.856026    -0.499322     0.563855
H     -0.008177     0.362615     1.443177
6
BHMC Sample 3133
O      0.531184    -0.368874     1.472796
H      0.863169     0.524258     1.325047
H      1.119555    -0.894304     0.918430
O     -2.717020    -2.543250     1.951515
H     -2.463679    -2.658996     1.027677
H     -3.327882    -1.797059     1.906999
6
BHMC Sample 3134
O      0.977432    -1.374907     2.133302
H      1.309417    -0.481775     1.985554
H      1.565803    -1.900337     1.578937
O     -2.717020    -2.543250     1.951515
H     -2.463679    -2.658996     1.027677
H     -3.327882    -1.797059     1.906999
6
BHMC Sample 3135
O     -2.788522    -2.528549     1.936618
H     -2.456537    -1.635416     1.788869
H     -2.200151    -3.053979     1.382252
O      1.048933    -1.389608     2.148200
H      1.302274    -1.505354     1.224361
H      0.438071    -0.643418     2.103683
6
BHMC Sample 3136
O     -2.788522    -2.528549     1.936618
H     -2.456537    -1.635416     1.788869
H     -2.200151    -3.053979     1.382252
O     -0.116408    -0.887558     1.435310
H      0.136933    -1.003304     0.511472
H     -0.727270    -0.141367     1.390794
6
BHMC Sample 3137
O     -3.067436    -0.944164    -0.568102
H     -2.448083    -0.557615     0.061749
H     -2.481609    -1.465108    -1.129353
O      0.119174    -0.210148     0.322785
H      0.372515    -0.325894    -0.601054
H     -0.491688     0.536042     0.278269
6
BHMC Sample 3138
O      1.532650     2.868416     0.215691
H      0.931637     2.243517     0.637607
H      2.050368     2.291023    -0.357166
O      0.119174    -0.210148     0.322785
H      0.372515    -0.325894    -0.601054
H     -0.491688     0.536042     0.278269
6
BHMC Sample 3139
O      1.532650     2.868416     0.215691
H      0.931637     2.243517     0.637607
H      2.050368     2.291023    -0.357166
O      0.107774    -0.126316     0.222250
H      0.775873    -0.657376     0.672444
H     -0.714109    -0.463056     0.600467
6
BHMC Sample 3140
O      1.532650     2.868416     0.215691
H      0.931637     2.243517     0.637607
H      2.050368     2.291023    -0.357166
O      1.726237     0.133484    -0.618628
H      2.394336    -0.397576    -0.168434
H      0.904354    -0.203256    -0.240411
6
BHMC Sample 3141
O      1.532650     2.868416     0.215691
H      0.931637     2.243517     0.637607
H      2.050368     2.291023    -0.357166
O      1.773215     0.067065     0.757203
H      2.257539    -0.158486     1.560704
H      0.859484    -0.119419     1.006713
6
BHMC Sample 3142
O      0.027765     0.400764     0.050313
H     -0.573248    -0.224135     0.472230
H      0.545483    -0.176629    -0.522543
O     -0.982880    -2.138818    -0.802796
H     -1.747041    -2.103170    -1.390881
H     -1.374677    -2.434497     0.028470
6
BHMC Sample 3143
O     -0.075208     3.064820     0.207921
H     -0.596362     2.378423    -0.224498
H      0.810595     2.684648     0.187919
O      0.385319     0.086677    -0.081060
H     -0.378842     0.122326    -0.669145
H     -0.006478    -0.209002     0.750206
6
BHMC Sample 3144
O      3.250377    -0.414976     0.539264
H      2.715270     0.387015     0.525123
H      2.773401    -0.983534    -0.076215
O      0.385319     0.086677    -0.081060
H     -0.378842     0.122326    -0.669145
H     -0.006478    -0.209002     0.750206
6
BHMC Sample 3145
O      0.377269     0.059066    -0.032224
H     -0.157838     0.861057    -0.046365
H     -0.099707    -0.509492    -0.647703
O      3.258428    -0.387365     0.490428
H      2.494267    -0.351716    -0.097657
H      2.866630    -0.683044     1.321694
6
BHMC Sample 3146
O      3.250377    -0.414976     0.539264
H      2.715270     0.387015     0.525123
H      2.773401    -0.983534    -0.076215
O      0.385319     0.086677    -0.081060
H     -0.378842     0.122326    -0.669145
H     -0.006478    -0.209002     0.750206
6
BHMC Sample 3147
O      0.337361    -0.077811     0.209873
H     -0.197746     0.724180     0.195733
H     -0.139615    -0.646369    -0.405606
O     -2.502871    -0.163246    -0.668095
H     -3.280494     0.190759    -1.116469
H     -2.888600    -0.602415     0.100200
6
BHMC Sample 3148
O      0.337361    -0.077811     0.209873
H     -0.197746     0.724180     0.195733
H     -0.139615    -0.646369    -0.405606
O     -2.341330    -0.925036    -0.748966
H     -3.170762    -0.799848    -1.225858
H     -2.617915    -1.447301     0.014365
6
BHMC Sample 3149
O      0.337361    -0.077811     0.209873
H     -0.197746     0.724180     0.195733
H     -0.139615    -0.646369    -0.405606
O     -2.423094     1.008545     0.099588
H     -3.255998     1.215822    -0.341279
H     -2.712112     0.780292     0.991947
6
BHMC Sample 3150
O     -2.100157    -1.992321     0.217353
H     -1.725134    -1.142011     0.474376
H     -2.438035    -1.802311    -0.665434
O     -2.423094     1.008545     0.099588
H     -3.255998     1.215822    -0.341279
H     -2.712112     0.780292     0.991947
6
BHMC Sample 3151
O     -2.100157    -1.992321     0.217353
H     -1.725134    -1.142011     0.474376
H     -2.438035    -1.802311    -0.665434
O     -2.190654     0.814390    -0.917152
H     -2.292543     0.761390    -1.875205
H     -3.092844     0.671978    -0.604570
6
BHMC Sample 3152
O     -0.251038     3.014780    -0.374416
H     -1.089289     2.981656    -0.849777
H     -0.063336     2.079232    -0.236229
O     -2.190654     0.814390    -0.917152
H     -2.292543     0.761390    -1.875205
H     -3.092844     0.671978    -0.604570
6
BHMC Sample 3153
O      1.528147     2.182245     1.944754
H      0.738353     2.154529     1.392318
H      1.792925     1.255299     1.960344
O      0.334693     0.065137     0.215157
H      0.232804     0.012138    -0.742896
H     -0.567497    -0.077275     0.527739
6
BHMC Sample 3154
O      2.140817    -1.406353     2.078118
H      1.393319    -1.681812     1.534889
H      2.083292    -0.445472     2.023550
O      0.334693     0.065137     0.215157
H      0.232804     0.012138    -0.742896
H     -0.567497    -0.077275     0.527739
6
BHMC Sample 3155
O      2.580386    -1.415063     1.502116
H      1.722028    -1.691481     1.160731
H      2.500110    -0.454359     1.488615
O      0.334693     0.065137     0.215157
H      0.232804     0.012138    -0.742896
H     -0.567497    -0.077275     0.527739
6
BHMC Sample 3156
O      1.947057     2.294542     1.364256
H      1.049871     2.245553     1.014419
H      2.189807     1.363186     1.421070
O      0.334693     0.065137     0.215157
H      0.232804     0.012138    -0.742896
H     -0.567497    -0.077275     0.527739
6
BHMC Sample 3157
O      0.218146     0.326781     0.097674
H     -0.679041     0.277793    -0.252163
H      0.460895    -0.604574     0.154488
O     -1.051235    -2.168188    -0.929074
H     -0.686803    -2.582250    -1.720780
H     -1.165336    -2.920799    -0.335364
6
BHMC Sample 3158
O      0.218146     0.326781     0.097674
H     -0.679041     0.277793    -0.252163
H      0.460895    -0.604574     0.154488
O      1.505339    -2.252793     0.687903
H      1.549513    -2.932836     0.004787
H      2.408322    -2.242839     1.029160
6
BHMC Sample 3159
O      0.218146     0.326781     0.097674
H     -0.679041     0.277793    -0.252163
H      0.460895    -0.604574     0.154488
O      0.537333    -2.579705    -0.404806
H      0.661738    -2.886988    -1.310983
H      1.226563    -3.058082     0.072740
6
BHMC Sample 3160
O     -3.010718     0.315339     1.280541
H     -3.205724     1.094070     0.746425
H     -2.060170     0.218325     1.151602
O     -0.271212     0.261887     0.142877
H     -0.146806    -0.045396    -0.763300
H      0.418019    -0.216491     0.620423
6
BHMC Sample 3161
O     -0.251847    -0.227239     0.221018
H     -0.446853     0.551492    -0.313098
H      0.698701    -0.324253     0.092079
O      2.646644     0.275819    -0.163311
H      3.064848     0.996939     0.322639
H      3.264314    -0.453046    -0.024844
6
BHMC Sample 3162
O     -3.236177    -0.312477    -0.482865
H     -3.112640    -0.771302    -1.321881
H     -2.350045     0.024789    -0.307939
O     -0.345291     0.002582    -0.208139
H      0.072912     0.723702     0.277811
H      0.272379    -0.726283    -0.069672
6
BHMC Sample 3163
O     -3.053408    -0.280196    -1.250083
H     -2.708888    -0.385216    -2.144513
H     -2.267881    -0.001371    -0.765541
O     -0.345291     0.002582    -0.208139
H      0.072912     0.723702     0.277811
H      0.272379    -0.726283    -0.069672
6
BHMC Sample 3164
O     -2.578097    -0.757522    -1.924164
H     -1.976512    -0.937516    -2.655893
H     -1.996171    -0.322656    -1.290261
O     -0.345291     0.002582    -0.208139
H      0.072912     0.723702     0.277811
H      0.272379    -0.726283    -0.069672
6
BHMC Sample 3165
O     -3.265529    -0.091835    -0.283126
H     -3.235192    -0.415883    -1.190761
H     -2.347925     0.162398    -0.131639
O     -0.345291     0.002582    -0.208139
H      0.072912     0.723702     0.277811
H      0.272379    -0.726283    -0.069672
6
BHMC Sample 3166
O      3.613682    -2.302114     3.925685
H      2.897645    -2.142923     4.551526
H      4.170677    -2.919875     4.413237
O      2.763648    -0.834607    -2.211580
H      2.915002    -0.525216    -3.112927
H      2.842501    -0.021431    -1.697323
6
BHMC Sample 3167
O      2.785428    -0.746137    -2.295537
H      2.069390    -0.586946    -1.669696
H      3.342422    -1.363898    -1.807986
O      3.591903    -2.390584     4.009642
H      3.743257    -2.081193     3.108296
H      3.670756    -1.577407     4.523899
6
BHMC Sample 3168
O      0.053014     0.152857    -0.371131
H     -0.663023     0.312048     0.254710
H      0.610009    -0.464904     0.116421
O     -0.775572    -3.948916     4.688395
H     -0.587572    -3.584449     3.814967
H     -1.578569    -4.461069     4.530823
6
BHMC Sample 3169
O      0.053014     0.152857    -0.371131
H     -0.663023     0.312048     0.254710
H      0.610009    -0.464904     0.116421
O     -2.402654    -2.955758     4.864899
H     -2.301744    -2.538132     4.000919
H     -2.521878    -3.885281     4.633153
6
BHMC Sample 3170
O      0.053014     0.152857    -0.371131
H     -0.663023     0.312048     0.254710
H      0.610009    -0.464904     0.116421
O      3.277678    -2.441509     4.633827
H      2.716198    -1.852100     4.115760
H      4.073012    -1.909782     4.762844
6
BHMC Sample 3171
O      0.053014     0.152857    -0.371131
H     -0.663023     0.312048     0.254710
H      0.610009    -0.464904     0.116421
O      2.815810    -1.294356     2.662292
H      2.254329    -0.704948     2.144225
H      3.611143    -0.762629     2.791309
6
BHMC Sample 3172
O      0.053014     0.152857    -0.371131
H     -0.663023     0.312048     0.254710
H      0.610009    -0.464904     0.116421
O     -2.149583     2.750732    -2.923301
H     -1.950329     2.094222    -2.244812
H     -2.919003     2.367634    -3.362804
6
BHMC Sample 3173
O      0.053014     0.152857    -0.371131
H     -0.663023     0.312048     0.254710
H      0.610009    -0.464904     0.116421
O     -2.023196     2.940678    -2.827015
H     -1.683017     2.495964    -2.041163
H     -1.917406     3.872929    -2.599748
6
BHMC Sample 3174
O      0.744635     3.982617    -0.700636
H      0.036284     4.096753    -0.056476
H      1.041349     4.890326    -0.833313
O     -0.148656    -0.162512    -0.337707
H      0.191523    -0.607227     0.448146
H     -0.042866     0.769739    -0.110439
6
BHMC Sample 3175
O      0.137212    -0.340615    -0.170494
H     -0.571138    -0.226479     0.473666
H      0.433927     0.567094    -0.303171
O      0.660274     0.404742    -4.486737
H      1.400943    -0.099881    -4.844257
H      0.794448     0.323169    -3.534226
6
BHMC Sample 3176
O      0.137212    -0.340615    -0.170494
H     -0.571138    -0.226479     0.473666
H      0.433927     0.567094    -0.303171
O     -0.372679    -2.186946     3.976049
H     -1.247048    -2.161198     4.383325
H     -0.543534    -1.829799     3.095601
6
BHMC Sample 3177
O     -1.751742    -2.306326     3.348662
H     -1.350216    -2.543879     2.504818
H     -2.605247    -2.751611     3.295472
O      0.348408    -0.127631     0.157724
H     -0.525961    -0.101884     0.565000
H      0.177553     0.229515    -0.722724
6
BHMC Sample 3178
O      0.150659     0.227613     0.299012
H      0.552186    -0.009940    -0.544833
H     -0.702845    -0.217672     0.245821
O     -2.774271    -2.767406     1.965855
H     -1.943555    -2.831537     1.479177
H     -2.693757    -3.483218     2.608557
6
BHMC Sample 3179
O      0.150659     0.227613     0.299012
H      0.552186    -0.009940    -0.544833
H     -0.702845    -0.217672     0.245821
O      1.951355    -2.836405     2.714170
H      2.224438    -2.110029     2.140706
H      2.702736    -3.439758     2.656499
6
BHMC Sample 3180
O      0.464823    -4.241753     0.616496
H      0.836097    -4.395005    -0.260087
H     -0.455059    -4.502069     0.491472
O     -0.341488    -0.041007     0.210379
H     -0.068405     0.685368    -0.363085
H      0.409893    -0.644361     0.152707
6
BHMC Sample 3181
O      1.071255    -4.169166     0.243032
H      0.161280    -4.475777     0.155491
H      1.405761    -4.279337    -0.654491
O     -0.341488    -0.041007     0.210379
H     -0.068405     0.685368    -0.363085
H      0.409893    -0.644361     0.152707
6
BHMC Sample 3182
O     -0.251966    -0.010803     0.230182
H     -1.161941    -0.317415     0.142641
H      0.082539    -0.120975    -0.667341
O      0.981734    -4.199369     0.223229
H      1.254817    -3.472994    -0.350235
H      1.733114    -4.802723     0.165557
6
BHMC Sample 3183
O      0.191823     0.138928     0.328355
H     -0.718152    -0.167684     0.240813
H      0.526329     0.028756    -0.569168
O      1.855322    -3.738382     1.057007
H      2.210302    -2.952698     0.623710
H      2.509826    -4.411893     0.833529
6
BHMC Sample 3184
O      1.810165     1.161170     0.660535
H      0.900190     0.854558     0.572994
H      2.144670     1.050998    -0.236988
O      1.855322    -3.738382     1.057007
H      2.210302    -2.952698     0.623710
H      2.509826    -4.411893     0.833529
6
BHMC Sample 3185
O      0.191823     0.138928     0.328355
H     -0.718152    -0.167684     0.240813
H      0.526329     0.028756    -0.569168
O      2.498739     2.821139     3.007085
H      1.718611     2.276664     2.845828
H      2.295165     3.227968     3.858544
6
BHMC Sample 3186
O     -1.790981    -2.965666    -2.706482
H     -2.522156    -3.585441    -2.601644
H     -1.288746    -3.369611    -3.423538
O      0.327900     0.045882    -0.230067
H     -0.452228    -0.498593    -0.391324
H      0.124327     0.452711     0.621392
6
BHMC Sample 3187
O     -1.790981    -2.965666    -2.706482
H     -2.522156    -3.585441    -2.601644
H     -1.288746    -3.369611    -3.423538
O     -0.063235     0.875341    -1.312768
H     -0.716688     0.172158    -1.214848
H     -0.223261     1.417448    -0.530178
6
BHMC Sample 3188
O     -1.764238    -3.534562    -1.925212
H     -2.371462    -4.256170    -1.724487
H     -1.507802    -3.736569    -2.832412
O      0.271160     0.053692    -0.293503
H     -0.382294    -0.649491    -0.195583
H      0.111134     0.595799     0.489086
6
BHMC Sample 3189
O      0.245271     0.096359    -0.204706
H     -0.361953    -0.625249    -0.003982
H      0.501707    -0.105648    -1.111906
O     -1.738349    -3.577229    -2.014009
H     -2.391803    -4.280412    -1.916088
H     -1.898375    -3.035122    -1.231419
6
BHMC Sample 3190
O      0.245271     0.096359    -0.204706
H     -0.361953    -0.625249    -0.003982
H      0.501707    -0.105648    -1.111906
O     -1.414851    -4.035615    -3.990426
H     -2.068304    -4.738798    -3.892506
H     -1.574877    -3.493508    -3.207836
6
BHMC Sample 3191
O      0.116929     0.307872     0.235492
H     -0.490295    -0.413736     0.436216
H      0.373365     0.105865    -0.671708
O      1.462798     3.850111     3.556147
H      2.191605     4.481153     3.515127
H      1.664548     3.252657     2.825203
6
BHMC Sample 3192
O     -1.188208     0.435699    -1.354068
H     -1.795431    -0.285909    -1.153344
H     -0.931772     0.233692    -2.261268
O      1.462798     3.850111     3.556147
H      2.191605     4.481153     3.515127
H      1.664548     3.252657     2.825203
6
BHMC Sample 3193
O      0.537507    -0.702644     0.099029
H     -0.069717    -1.424252     0.299754
H      0.793943    -0.904651    -0.808171
O      1.462798     3.850111     3.556147
H      2.191605     4.481153     3.515127
H      1.664548     3.252657     2.825203
6
BHMC Sample 3194
O      0.537507    -0.702644     0.099029
H     -0.069717    -1.424252     0.299754
H      0.793943    -0.904651    -0.808171
O      3.498597     2.752644    -3.564963
H      4.399297     3.081774    -3.457870
H      3.376845     2.219351    -2.769533
6
BHMC Sample 3195
O     -4.152772     0.520795    -3.954815
H     -4.720716     0.985153    -4.580547
H     -3.766835     1.250514    -3.456676
O     -0.259649     0.068054    -0.300841
H      0.641050     0.397185    -0.193748
H     -0.381401    -0.465239     0.494589
6
BHMC Sample 3196
O     -4.152772     0.520795    -3.954815
H     -4.720716     0.985153    -4.580547
H     -3.766835     1.250514    -3.456676
O     -0.083192    -2.192816    -1.832575
H      0.870845    -2.073989    -1.750423
H     -0.225190    -3.040175    -1.392400
6
BHMC Sample 3197
O     -4.152772     0.520795    -3.954815
H     -4.720716     0.985153    -4.580547
H     -3.766835     1.250514    -3.456676
O      2.450237    -2.631882    -2.644371
H      3.404275    -2.513054    -2.562219
H      2.308240    -3.479240    -2.204196
6
BHMC Sample 3198
O      2.505858    -2.739458    -2.608006
H      1.937914    -2.275100    -3.233738
H      2.891795    -2.009739    -2.109868
O     -4.208393     0.628371    -3.991180
H     -3.254355     0.747199    -3.909028
H     -4.350390    -0.218988    -3.551005
6
BHMC Sample 3199
O      2.532629    -2.673393    -2.672175
H      2.742496    -3.045005    -1.807542
H      1.662298    -2.288424    -2.517575
O     -4.208393     0.628371    -3.991180
H     -3.254355     0.747199    -3.909028
H     -4.350390    -0.218988    -3.551005
6
BHMC Sample 3200
O      2.532629    -2.673393    -2.672175
H      2.742496    -3.045005    -1.807542
H      1.662298    -2.288424    -2.517575
O     -4.198709     0.533359    -3.980904
H     -4.309001     1.453708    -4.248951
H     -3.449444     0.582546    -3.374177
6
BHMC Sample 3201
O      2.532629    -2.673393    -2.672175
H      2.742496    -3.045005    -1.807542
H      1.662298    -2.288424    -2.517575
O     -3.770312     1.438897    -3.504618
H     -3.771436     2.364397    -3.777574
H     -2.975769     1.384682    -2.959002
6
BHMC Sample 3202
O      2.532629    -2.673393    -2.672175
H      2.742496    -3.045005    -1.807542
H      1.662298    -2.288424    -2.517575
O     -4.216706     0.542072    -3.867763
H     -4.217830     1.467571    -4.140720
H     -3.422163     0.487857    -3.322147
6
BHMC Sample 3203
O      3.297118    -1.727204    -3.262656
H      3.506986    -2.098815    -2.398023
H      2.426787    -1.342235    -3.108056
O     -4.216706     0.542072    -3.867763
H     -4.217830     1.467571    -4.140720
H     -3.422163     0.487857    -3.322147
6
BHMC Sample 3204
O      3.297118    -1.727204    -3.262656
H      3.506986    -2.098815    -2.398023
H      2.426787    -1.342235    -3.108056
O     -4.124421    -2.338366    -3.911028
H     -4.125546    -1.412866    -4.183985
H     -3.329878    -2.392581    -3.365412
6
BHMC Sample 3205
O      3.297118    -1.727204    -3.262656
H      3.506986    -2.098815    -2.398023
H      2.426787    -1.342235    -3.108056
O     -4.023194    -2.255598    -3.881872
H     -4.399506    -2.477843    -4.742135
H     -4.662596    -2.641298    -3.270043
6
BHMC Sample 3206
O      2.186561    -3.586168    -3.024083
H      2.396428    -3.957780    -2.159451
H      1.316229    -3.201200    -2.869484
O     -4.023194    -2.255598    -3.881872
H     -4.399506    -2.477843    -4.742135
H     -4.662596    -2.641298    -3.270043
6
BHMC Sample 3207
O      2.099321    -3.626594    -2.986924
H      2.587444    -3.621530    -2.155395
H      2.509890    -2.895812    -3.463336
O     -4.023194    -2.255598    -3.881872
H     -4.399506    -2.477843    -4.742135
H     -4.662596    -2.641298    -3.270043
6
BHMC Sample 3208
O      3.618485    -3.528072    -4.062980
H      4.106608    -3.523008    -3.231451
H      4.029054    -2.797289    -4.539392
O     -4.023194    -2.255598    -3.881872
H     -4.399506    -2.477843    -4.742135
H     -4.662596    -2.641298    -3.270043
6
BHMC Sample 3209
O      3.685840    -3.440718    -4.089956
H      4.137520    -4.258137    -3.850078
H      2.929088    -3.448638    -3.492593
O     -4.023194    -2.255598    -3.881872
H     -4.399506    -2.477843    -4.742135
H     -4.662596    -2.641298    -3.270043
6
BHMC Sample 3210
O      3.685840    -3.440718    -4.089956
H      4.137520    -4.258137    -3.850078
H      2.929088    -3.448638    -3.492593
O     -2.944673    -3.787232     0.065490
H     -3.446177    -4.569413    -0.194785
H     -3.033996    -3.794112     1.026691
6
BHMC Sample 3211
O      3.685840    -3.440718    -4.089956
H      4.137520    -4.258137    -3.850078
H      2.929088    -3.448638    -3.492593
O     -3.903328    -3.627213    -2.212248
H     -4.426000    -3.455784    -3.005017
H     -4.389124    -4.350187    -1.796021
6
BHMC Sample 3212
O      3.685840    -3.440718    -4.089956
H      4.137520    -4.258137    -3.850078
H      2.929088    -3.448638    -3.492593
O     -3.958506    -3.720909    -2.208207
H     -4.721039    -3.184308    -2.456519
H     -3.218302    -3.134517    -2.408649
6
BHMC Sample 3213
O      3.718857    -3.442172    -4.053570
H      3.715621    -4.232072    -3.500599
H      2.826939    -3.451631    -4.419591
O     -3.958506    -3.720909    -2.208207
H     -4.721039    -3.184308    -2.456519
H     -3.218302    -3.134517    -2.408649
6
BHMC Sample 3214
O      3.718857    -3.442172    -4.053570
H      3.715621    -4.232072    -3.500599
H      2.826939    -3.451631    -4.419591
O     -2.857310    -2.702152    -1.602223
H     -3.619843    -2.165551    -1.850535
H     -2.117106    -2.115760    -1.802665
6
BHMC Sample 3215
O      3.718857    -3.442172    -4.053570
H      3.715621    -4.232072    -3.500599
H      2.826939    -3.451631    -4.419591
O     -0.105463     1.180559    -0.419095
H     -0.706854     1.899273    -0.648954
H      0.544682     1.218394    -1.131706
6
BHMC Sample 3216
O     -0.052648     1.267617    -0.482290
H     -0.055885     0.477717     0.070681
H     -0.944567     1.258158    -0.848311
O      3.666042    -3.529230    -3.990375
H      3.064651    -2.810516    -4.220234
H      4.316187    -3.491395    -4.702986
6
BHMC Sample 3217
O     -0.147168     1.209422    -0.422201
H     -0.253139     1.110910    -1.375508
H      0.752897     1.548630    -0.355859
O      3.666042    -3.529230    -3.990375
H      3.064651    -2.810516    -4.220234
H      4.316187    -3.491395    -4.702986
6
BHMC Sample 3218
O     -0.127906     1.460339    -0.751015
H     -0.249955     1.282547    -1.690815
H      0.769808     1.811385    -0.729667
O      3.666042    -3.529230    -3.990375
H      3.064651    -2.810516    -4.220234
H      4.316187    -3.491395    -4.702986
6
BHMC Sample 3219
O     -0.040245     1.427161    -0.831070
H     -0.586994     1.301189    -0.046898
H     -0.284509     2.319346    -1.102953
O      3.666042    -3.529230    -3.990375
H      3.064651    -2.810516    -4.220234
H      4.316187    -3.491395    -4.702986
6
BHMC Sample 3220
O     -0.040245     1.427161    -0.831070
H     -0.586994     1.301189    -0.046898
H     -0.284509     2.319346    -1.102953
O      3.671662    -3.539656    -3.967308
H      3.068578    -2.823404    -4.200391
H      4.320815    -3.504537    -4.680962
6
BHMC Sample 3221
O     -0.067347     2.741757    -1.580958
H     -0.614096     2.615786    -0.796786
H     -0.311611     3.633942    -1.852841
O      3.671662    -3.539656    -3.967308
H      3.068578    -2.823404    -4.200391
H      4.320815    -3.504537    -4.680962
6
BHMC Sample 3222
O      0.281425     2.689523     0.358288
H     -0.265324     2.563551     1.142460
H      0.037161     3.581707     0.086406
O      3.671662    -3.539656    -3.967308
H      3.068578    -2.823404    -4.200391
H      4.320815    -3.504537    -4.680962
6
BHMC Sample 3223
O      0.281425     2.689523     0.358288
H     -0.265324     2.563551     1.142460
H      0.037161     3.581707     0.086406
O      2.806547    -4.694391    -2.500108
H      2.347874    -3.948421    -2.905330
H      3.492433    -4.893574    -3.149586
6
BHMC Sample 3224
O      2.863520    -4.706668    -2.587786
H      2.316771    -4.832640    -1.803615
H      2.619256    -3.814484    -2.859669
O      0.224452     2.701800     0.445967
H     -0.234221     3.447770     0.040745
H      0.910337     2.502617    -0.203511
6
BHMC Sample 3225
O      2.863520    -4.706668    -2.587786
H      2.316771    -4.832640    -1.803615
H      2.619256    -3.814484    -2.859669
O     -2.631221    -0.707879     2.406618
H     -3.408623    -0.166583     2.223043
H     -1.979701    -0.350679     1.790287
6
BHMC Sample 3226
O     -2.594004    -0.700477     2.333196
H     -3.140754    -0.826449     3.117368
H     -2.838269     0.191707     2.061314
O      2.826304    -4.714070    -2.514365
H      2.048901    -4.172774    -2.697940
H      3.477824    -4.356870    -3.130696
6
BHMC Sample 3227
O     -2.594004    -0.700477     2.333196
H     -3.140754    -0.826449     3.117368
H     -2.838269     0.191707     2.061314
O      2.059777    -3.381998    -3.275210
H      1.282374    -2.840702    -3.458786
H      2.711297    -3.024798    -3.891541
6
BHMC Sample 3228
O     -2.693287    -0.674267     2.398103
H     -2.063424     0.041014     2.544303
H     -2.339788    -1.091761     1.604178
O      2.059777    -3.381998    -3.275210
H      1.282374    -2.840702    -3.458786
H      2.711297    -3.024798    -3.891541
6
BHMC Sample 3229
O     -2.693287    -0.674267     2.398103
H     -2.063424     0.041014     2.544303
H     -2.339788    -1.091761     1.604178
O      2.299729    -1.911678    -3.580698
H      1.469595    -1.430651    -3.683397
H      2.908516    -1.392073    -4.120441
6
BHMC Sample 3230
O     -2.650845    -0.702290     2.411496
H     -1.943992    -0.049701     2.346568
H     -3.132854    -0.556273     1.589349
O      2.299729    -1.911678    -3.580698
H      1.469595    -1.430651    -3.683397
H      2.908516    -1.392073    -4.120441
6
BHMC Sample 3231
O     -2.650845    -0.702290     2.411496
H     -1.943992    -0.049701     2.346568
H     -3.132854    -0.556273     1.589349
O      2.335027    -1.856727    -3.568629
H      1.454450    -1.463440    -3.537553
H      2.363400    -2.231470    -4.457840
6
BHMC Sample 3232
O      0.780898     3.897578     1.549112
H      1.699909     3.853267     1.260695
H      0.323006     4.099251     0.724951
O      2.335027    -1.856727    -3.568629
H      1.454450    -1.463440    -3.537553
H      2.363400    -2.231470    -4.457840
6
BHMC Sample 3233
O      2.261543    -1.864495    -3.554392
H      3.180553    -1.908805    -3.842810
H      1.803650    -1.662822    -4.378553
O      0.854383     3.905345     1.534875
H     -0.026194     4.298633     1.565951
H      0.882756     3.530603     0.645664
6
BHMC Sample 3234
O      2.503180    -1.741533    -3.617727
H      3.443310    -1.817604    -3.817972
H      2.137027    -1.489800    -4.473380
O      0.854383     3.905345     1.534875
H     -0.026194     4.298633     1.565951
H      0.882756     3.530603     0.645664
6
BHMC Sample 3235
O      0.774583     3.896554     1.545941
H      1.714713     3.820484     1.345696
H      0.408430     4.148287     0.690288
O      2.582979    -1.732742    -3.628793
H      1.702403    -1.339455    -3.597717
H      2.611352    -2.107485    -4.518004
6
BHMC Sample 3236
O      2.503180    -1.741533    -3.617727
H      3.443310    -1.817604    -3.817972
H      2.137027    -1.489800    -4.473380
O      0.854383     3.905345     1.534875
H     -0.026194     4.298633     1.565951
H      0.882756     3.530603     0.645664
6
BHMC Sample 3237
O      0.774583     3.896554     1.545941
H      1.714713     3.820484     1.345696
H      0.408430     4.148287     0.690288
O      2.582979    -1.732742    -3.628793
H      1.702403    -1.339455    -3.597717
H      2.611352    -2.107485    -4.518004
6
BHMC Sample 3238
O     -0.508437     3.873273     0.946440
H     -0.720756     3.971268     0.011001
H     -0.934780     3.035486     1.160738
O      2.582979    -1.732742    -3.628793
H      1.702403    -1.339455    -3.597717
H      2.611352    -2.107485    -4.518004
6
BHMC Sample 3239
O      2.571031    -1.690311    -3.636458
H      2.358712    -1.592316    -4.571897
H      2.144688    -2.528098    -3.422160
O     -0.496489     3.830842     0.954105
H     -1.377066     4.224129     0.985181
H     -0.468116     3.456099     0.064894
6
BHMC Sample 3240
O     -0.508437     3.873273     0.946440
H     -0.720756     3.971268     0.011001
H     -0.934780     3.035486     1.160738
O      2.582979    -1.732742    -3.628793
H      1.702403    -1.339455    -3.597717
H      2.611352    -2.107485    -4.518004
6
BHMC Sample 3241
O     -0.557870     3.891262     0.936167
H     -0.352255     3.712037     0.011327
H     -0.518689     3.009193     1.323463
O      2.582979    -1.732742    -3.628793
H      1.702403    -1.339455    -3.597717
H      2.611352    -2.107485    -4.518004
6
BHMC Sample 3242
O     -4.199150     1.176058    -0.734509
H     -3.879274     0.577185    -1.419169
H     -3.425307     1.259539    -0.165495
O      2.582979    -1.732742    -3.628793
H      1.702403    -1.339455    -3.597717
H      2.611352    -2.107485    -4.518004
6
BHMC Sample 3243
O     -4.199150     1.176058    -0.734509
H     -3.879274     0.577185    -1.419169
H     -3.425307     1.259539    -0.165495
O      2.556441    -1.668966    -3.690846
H      2.861766    -2.506493    -4.060145
H      1.873211    -1.952706    -3.070666
6
BHMC Sample 3244
O      2.474098    -1.702867    -3.670337
H      2.793975    -2.301739    -4.354998
H      3.247941    -1.619386    -3.101324
O     -4.116808     1.209959    -0.755017
H     -3.811483     0.372432    -1.124316
H     -4.800038     0.926219    -0.134837
6
BHMC Sample 3245
O      2.540016    -1.719939    -3.743576
H      3.049129    -1.333998    -3.021369
H      1.946546    -2.316153    -3.272512
O     -4.116808     1.209959    -0.755017
H     -3.811483     0.372432    -1.124316
H     -4.800038     0.926219    -0.134837
6
BHMC Sample 3246
O     -4.133233     1.158986    -0.807747
H     -3.624119     1.544927    -0.085540
H     -4.726703     0.562772    -0.336683
O      2.556441    -1.668966    -3.690846
H      2.861766    -2.506493    -4.060145
H      1.873211    -1.952706    -3.070666
6
BHMC Sample 3247
O      2.540016    -1.719939    -3.743576
H      3.049129    -1.333998    -3.021369
H      1.946546    -2.316153    -3.272512
O     -4.116808     1.209959    -0.755017
H     -3.811483     0.372432    -1.124316
H     -4.800038     0.926219    -0.134837
6
BHMC Sample 3248
O      2.540016    -1.719939    -3.743576
H      3.049129    -1.333998    -3.021369
H      1.946546    -2.316153    -3.272512
O     -1.916043     3.129917    -0.102675
H     -1.610718     2.292390    -0.471974
H     -2.599273     2.846176     0.517505
6
BHMC Sample 3249
O      3.704165    -1.420762    -2.175248
H      4.086052    -0.657070    -1.727291
H      3.316812    -1.909741    -1.440104
O     -1.916043     3.129917    -0.102675
H     -1.610718     2.292390    -0.471974
H     -2.599273     2.846176     0.517505
6
BHMC Sample 3250
O      3.704165    -1.420762    -2.175248
H      4.086052    -0.657070    -1.727291
H      3.316812    -1.909741    -1.440104
O     -1.945356     4.011872    -0.944976
H     -1.640030     3.174345    -1.314275
H     -2.628585     3.728132    -0.324796
6
BHMC Sample 3251
O      3.986520    -1.795323    -0.756279
H      4.368407    -1.031631    -0.308322
H      3.599167    -2.284302    -0.021136
O     -1.945356     4.011872    -0.944976
H     -1.640030     3.174345    -1.314275
H     -2.628585     3.728132    -0.324796
6
BHMC Sample 3252
O      3.986520    -1.795323    -0.756279
H      4.368407    -1.031631    -0.308322
H      3.599167    -2.284302    -0.021136
O     -0.548670     4.793824    -2.929278
H     -0.365783     3.862207    -3.101609
H     -1.361121     4.752860    -2.409490
6
BHMC Sample 3253
O      4.431661    -0.759713    -0.249840
H      4.813548     0.003980     0.198117
H      4.044307    -1.248691     0.485303
O     -0.548670     4.793824    -2.929278
H     -0.365783     3.862207    -3.101609
H     -1.361121     4.752860    -2.409490
6
BHMC Sample 3254
O      4.431661    -0.759713    -0.249840
H      4.813548     0.003980     0.198117
H      4.044307    -1.248691     0.485303
O     -0.335057     2.631166    -2.111537
H     -0.152170     1.699548    -2.283868
H     -1.147509     2.590201    -1.591749
6
BHMC Sample 3255
O      4.432039    -0.759800    -0.117466
H      4.068849    -1.263483    -0.855116
H      4.783009     0.020162    -0.562503
O     -0.335057     2.631166    -2.111537
H     -0.152170     1.699548    -2.283868
H     -1.147509     2.590201    -1.591749
6
BHMC Sample 3256
O      2.646538     2.981128     3.277194
H      2.971714     2.168563     2.872562
H      3.007435     3.654670     2.689254
O     -0.335057     2.631166    -2.111537
H     -0.152170     1.699548    -2.283868
H     -1.147509     2.590201    -1.591749
6
BHMC Sample 3257
O     -0.408672     2.584525    -2.036558
H     -0.083496     1.771960    -2.441190
H     -0.047774     3.258067    -2.624498
O      2.720152     3.027769     3.202215
H      2.903039     2.096151     3.029884
H      1.907701     2.986804     3.722003
6
BHMC Sample 3258
O      2.646538     2.981128     3.277194
H      2.971714     2.168563     2.872562
H      3.007435     3.654670     2.689254
O     -0.335057     2.631166    -2.111537
H     -0.152170     1.699548    -2.283868
H     -1.147509     2.590201    -1.591749
6
BHMC Sample 3259
O     -0.199604     2.545514     3.689471
H      0.125572     1.732948     3.284839
H      0.161293     3.219055     3.101531
O     -0.335057     2.631166    -2.111537
H     -0.152170     1.699548    -2.283868
H     -1.147509     2.590201    -1.591749
6
BHMC Sample 3260
O     -0.408672     2.584525    -2.036558
H     -0.083496     1.771960    -2.441190
H     -0.047774     3.258067    -2.624498
O     -0.125990     2.592154     3.614492
H      0.056897     1.660537     3.442161
H     -0.938441     2.551189     4.134280
6
BHMC Sample 3261
O      0.104787     1.192242    -2.634347
H      0.429963     0.379677    -3.038979
H      0.465685     1.865784    -3.222287
O     -0.125990     2.592154     3.614492
H      0.056897     1.660537     3.442161
H     -0.938441     2.551189     4.134280
6
BHMC Sample 3262
O     -1.375350     1.754462    -3.526276
H     -1.050174     0.941896    -3.930909
H     -1.014452     2.428003    -4.114216
O     -0.125990     2.592154     3.614492
H      0.056897     1.660537     3.442161
H     -0.938441     2.551189     4.134280
6
BHMC Sample 3263
O     -1.375350     1.754462    -3.526276
H     -1.050174     0.941896    -3.930909
H     -1.014452     2.428003    -4.114216
O     -0.134115     2.580282     3.679051
H     -0.983901     2.124448     3.712741
H      0.231308     2.275713     2.839028
6
BHMC Sample 3264
O     -0.664584     1.053601    -2.294253
H     -0.339407     0.241036    -2.698885
H     -0.303686     1.727142    -2.882193
O     -0.134115     2.580282     3.679051
H     -0.983901     2.124448     3.712741
H      0.231308     2.275713     2.839028
6
BHMC Sample 3265
O      1.152862    -0.092244    -3.050759
H      1.478038    -0.904809    -3.455392
H      1.513760     0.581297    -3.638699
O     -0.134115     2.580282     3.679051
H     -0.983901     2.124448     3.712741
H      0.231308     2.275713     2.839028
6
BHMC Sample 3266
O      1.125032    -0.104218    -3.091594
H      1.666685    -0.694702    -3.627942
H      1.766827     0.561242    -2.818025
O     -0.134115     2.580282     3.679051
H     -0.983901     2.124448     3.712741
H      0.231308     2.275713     2.839028
6
BHMC Sample 3267
O     -0.227434     2.533540     3.648637
H      0.314219     1.943056     3.112289
H      0.414361     3.199000     3.922206
O      1.218352    -0.057476    -3.061180
H      0.368566    -0.513310    -3.027490
H      1.583775    -0.362045    -3.901203
6
BHMC Sample 3268
O      0.268366     1.491953     2.394007
H      0.810019     0.901469     1.857659
H      0.910162     2.157413     2.667576
O      1.218352    -0.057476    -3.061180
H      0.368566    -0.513310    -3.027490
H      1.583775    -0.362045    -3.901203
6
BHMC Sample 3269
O      0.268366     1.491953     2.394007
H      0.810019     0.901469     1.857659
H      0.910162     2.157413     2.667576
O     -2.048255     2.637880    -2.701265
H     -2.094655     1.685478    -2.849027
H     -2.283096     2.993692    -3.567395
6
BHMC Sample 3270
O      0.268366     1.491953     2.394007
H      0.810019     0.901469     1.857659
H      0.910162     2.157413     2.667576
O     -1.396447     1.992475    -1.469502
H     -1.442847     1.040073    -1.617264
H     -1.631288     2.348288    -2.335632
6
BHMC Sample 3271
O      0.268366     1.491953     2.394007
H      0.810019     0.901469     1.857659
H      0.910162     2.157413     2.667576
O     -1.847166     2.949933    -0.964734
H     -1.912432     2.070804    -1.357072
H     -2.184209     3.516999    -1.669555
6
BHMC Sample 3272
O     -0.394483    -0.024992     0.087593
H      0.147170    -0.615476    -0.448755
H      0.247313     0.640468     0.361162
O      0.704268     1.636463    -3.984976
H      0.703157     0.761396    -4.391562
H      0.641820     2.220913    -4.750779
6
BHMC Sample 3273
O     -1.284191     3.358504     3.256072
H     -0.780614     3.675240     2.497245
H     -0.597224     2.947711     3.793571
O      0.021187     0.096873     0.390796
H      0.020075    -0.778195    -0.015789
H     -0.041261     0.681322    -0.375007
6
BHMC Sample 3274
O     -0.048985     0.085875     0.337581
H      0.454592     0.402610    -0.421246
H      0.637982    -0.324918     0.875080
O     -1.214019     3.369502     3.309287
H     -1.215131     2.494434     2.902702
H     -1.276467     3.953951     2.543484
6
BHMC Sample 3275
O     -1.317241    -3.254430    -2.428412
H     -1.925451    -2.967748    -3.119515
H     -1.910827    -3.699839    -1.812908
O      0.021187     0.096873     0.390796
H      0.020075    -0.778195    -0.015789
H     -0.041261     0.681322    -0.375007
6
BHMC Sample 3276
O      0.400599     0.052909     0.025200
H     -0.207612     0.339591    -0.665903
H     -0.192987    -0.392500     0.640703
O     -3.997462     2.541926     0.512282
H     -3.051255     2.433520     0.357376
H     -4.131031     2.049740     1.331945
6
BHMC Sample 3277
O     -1.316446     4.533883    -0.696711
H     -0.518030     4.245636    -0.239354
H     -1.284742     4.007376    -1.503782
O     -0.270880     0.200197    -0.221585
H      0.675328     0.091792    -0.376492
H     -0.404448    -0.291989     0.598077
6
BHMC Sample 3278
O     -1.630826     3.152451    -0.709326
H     -0.832410     2.864204    -0.251970
H     -1.599121     2.625943    -1.516397
O     -0.270880     0.200197    -0.221585
H      0.675328     0.091792    -0.376492
H     -0.404448    -0.291989     0.598077
6
BHMC Sample 3279
O     -1.630826     3.152451    -0.709326
H     -0.832410     2.864204    -0.251970
H     -1.599121     2.625943    -1.516397
O      0.705275     0.742407     0.469931
H      1.651482     0.634001     0.315024
H      0.571706     0.250221     1.289593
6
BHMC Sample 3280
O      0.704296     0.754390     0.526694
H      1.502712     0.466143     0.984050
H      0.736001     0.227883    -0.280377
O     -1.629848     3.140468    -0.766089
H     -0.683640     3.032062    -0.920995
H     -1.763416     2.648282     0.053573
6
BHMC Sample 3281
O     -1.630826     3.152451    -0.709326
H     -0.832410     2.864204    -0.251970
H     -1.599121     2.625943    -1.516397
O      0.705275     0.742407     0.469931
H      1.651482     0.634001     0.315024
H      0.571706     0.250221     1.289593
6
BHMC Sample 3282
O      0.704296     0.754390     0.526694
H      1.502712     0.466143     0.984050
H      0.736001     0.227883    -0.280377
O     -1.629848     3.140468    -0.766089
H     -0.683640     3.032062    -0.920995
H     -1.763416     2.648282     0.053573
6
BHMC Sample 3283
O     -1.630826     3.152451    -0.709326
H     -0.832410     2.864204    -0.251970
H     -1.599121     2.625943    -1.516397
O      0.705275     0.742407     0.469931
H      1.651482     0.634001     0.315024
H      0.571706     0.250221     1.289593
6
BHMC Sample 3284
O     -2.494621     1.609123    -2.599933
H     -2.008023     1.545268    -1.769948
H     -2.838463     0.713794    -2.698610
O     -0.270880     0.200197    -0.221585
H      0.675328     0.091792    -0.376492
H     -0.404448    -0.291989     0.598077
6
BHMC Sample 3285
O     -2.494621     1.609123    -2.599933
H     -2.008023     1.545268    -1.769948
H     -2.838463     0.713794    -2.698610
O     -0.247308     0.103196    -0.193433
H      0.456376     0.571716    -0.658594
H     -0.559627     0.767685     0.433341
6
BHMC Sample 3286
O     -2.537911     1.582991    -2.523929
H     -1.879016     0.941521    -2.233923
H     -2.280371     1.732315    -3.440965
O     -0.247308     0.103196    -0.193433
H      0.456376     0.571716    -0.658594
H     -0.559627     0.767685     0.433341
6
BHMC Sample 3287
O     -0.885234    -3.352702    -0.103814
H     -0.365069    -2.562086     0.080804
H     -0.202590    -3.986856    -0.351654
O     -0.247308     0.103196    -0.193433
H      0.456376     0.571716    -0.658594
H     -0.559627     0.767685     0.433341
6
BHMC Sample 3288
O     -0.400936    -0.052154     0.021074
H      0.119228     0.738462     0.205692
H      0.281708    -0.686308    -0.226766
O      0.410232     2.843746     1.841509
H      1.203224     3.023579     2.361009
H      0.030996     3.724538     1.730512
6
BHMC Sample 3289
O     -0.400936    -0.052154     0.021074
H      0.119228     0.738462     0.205692
H      0.281708    -0.686308    -0.226766
O      1.389492     2.210000     2.084462
H      2.182484     2.389833     2.603962
H      1.010256     3.090792     1.973464
6
BHMC Sample 3290
O      1.345342     2.260591     2.110857
H      1.865506     3.051208     2.295474
H      2.027986     1.626437     1.863017
O     -0.356786    -0.102745    -0.005320
H      0.436206     0.077087     0.514179
H     -0.736021     0.778047    -0.116318
6
BHMC Sample 3291
O      2.201141     2.155169     0.957440
H      2.498571     2.894948     1.499649
H      2.368135     1.403322     1.537456
O     -0.137919    -0.353541    -0.136167
H      0.655073    -0.173709     0.383332
H     -0.517154     0.527250    -0.247165
6
BHMC Sample 3292
O      2.245935     2.262422     0.519235
H      2.534186     3.117337     0.859470
H      2.276094     1.712640     1.310695
O     -0.137919    -0.353541    -0.136167
H      0.655073    -0.173709     0.383332
H     -0.517154     0.527250    -0.247165
6
BHMC Sample 3293
O     -3.303326    -1.452278    -1.113943
H     -4.078955    -1.483273    -1.685929
H     -2.686340    -2.025108    -1.583807
O     -0.137919    -0.353541    -0.136167
H      0.655073    -0.173709     0.383332
H     -0.517154     0.527250    -0.247165
6
BHMC Sample 3294
O     -0.105891    -0.260410    -0.055015
H     -0.881520    -0.291405    -0.627002
H      0.511095    -0.833240    -0.524879
O     -3.335354    -1.545409    -1.195095
H     -2.542362    -1.365577    -0.675595
H     -3.714589    -0.664618    -1.306093
6
BHMC Sample 3295
O      2.158992     0.718612     2.501090
H      1.308644     0.670563     2.049061
H      2.092381    -0.010243     3.128714
O     -0.137919    -0.353541    -0.136167
H      0.655073    -0.173709     0.383332
H     -0.517154     0.527250    -0.247165
6
BHMC Sample 3296
O     -2.522369    -1.963818     1.101894
H     -2.062195    -1.360657     0.506776
H     -3.148523    -1.374360     1.537841
O     -0.137919    -0.353541    -0.136167
H      0.655073    -0.173709     0.383332
H     -0.517154     0.527250    -0.247165
6
BHMC Sample 3297
O     -1.601765    -2.513241     1.597205
H     -0.874235    -2.069640     1.145932
H     -1.324454    -2.462978     2.519242
O     -0.137919    -0.353541    -0.136167
H      0.655073    -0.173709     0.383332
H     -0.517154     0.527250    -0.247165
6
BHMC Sample 3298
O     -1.601765    -2.513241     1.597205
H     -0.874235    -2.069640     1.145932
H     -1.324454    -2.462978     2.519242
O     -0.107364    -0.790680    -0.540378
H      0.692584    -0.524676    -0.070930
H     -0.469584     0.056296    -0.829104
6
BHMC Sample 3299
O      0.718585     1.198777    -2.909855
H      0.674857     0.836665    -2.017279
H      1.623071     1.530704    -2.946037
O     -0.107364    -0.790680    -0.540378
H      0.692584    -0.524676    -0.070930
H     -0.469584     0.056296    -0.829104
6
BHMC Sample 3300
O      0.720693     1.197674    -2.910038
H      0.676666     0.835625    -2.017451
H      1.625622     1.528367    -2.946419
O     -0.107364    -0.790680    -0.540378
H      0.692584    -0.524676    -0.070930
H     -0.469584     0.056296    -0.829104
6
BHMC Sample 3301
O      0.019161     0.970870    -3.795677
H     -0.024866     0.608821    -2.903090
H      0.924091     1.301563    -3.832058
O     -0.107364    -0.790680    -0.540378
H      0.692584    -0.524676    -0.070930
H     -0.469584     0.056296    -0.829104
6
BHMC Sample 3302
O      0.019161     0.970870    -3.795677
H     -0.024866     0.608821    -2.903090
H      0.924091     1.301563    -3.832058
O     -0.898031    -1.389108    -1.907180
H     -0.098083    -1.123104    -1.437733
H     -1.260250    -0.542132    -2.195906
6
BHMC Sample 3303
O      0.884360    -3.005620    -3.839370
H      0.689088    -2.724681    -2.937887
H      1.040812    -3.949992    -3.724203
O     -0.898031    -1.389108    -1.907180
H     -0.098083    -1.123104    -1.437733
H     -1.260250    -0.542132    -2.195906
6
BHMC Sample 3304
O      1.652611    -2.156441    -3.836884
H      1.457339    -1.875501    -2.935401
H      1.809062    -3.100813    -3.721718
O     -0.898031    -1.389108    -1.907180
H     -0.098083    -1.123104    -1.437733
H     -1.260250    -0.542132    -2.195906
6
BHMC Sample 3305
O      1.652611    -2.156441    -3.836884
H      1.457339    -1.875501    -2.935401
H      1.809062    -3.100813    -3.721718
O     -1.237076    -0.875065    -3.502088
H     -0.437127    -0.609061    -3.032641
H     -1.599295    -0.028089    -3.790814
6
BHMC Sample 3306
O      1.652611    -2.156441    -3.836884
H      1.457339    -1.875501    -2.935401
H      1.809062    -3.100813    -3.721718
O      3.369415    -1.779570    -1.129124
H      3.686181    -1.698839    -2.036978
H      3.743412    -0.995219    -0.708584
6
BHMC Sample 3307
O     -1.749287     1.794127     2.105550
H     -2.013697     1.215300     1.381136
H     -1.567777     1.161362     2.809994
O     -0.230254    -0.288360     0.162438
H      0.086512    -0.207630    -0.745416
H      0.143743     0.495991     0.582978
6
BHMC Sample 3308
O      0.027634     0.403864     0.006657
H     -0.236777    -0.174963    -0.717757
H      0.209144    -0.228901     0.711101
O      2.336297    -1.774515     0.593824
H      3.114321    -1.749799     1.164019
H      2.422011    -0.955155     0.090597
6
BHMC Sample 3309
O     -0.633737     0.094748    -3.209637
H     -1.580043     0.142035    -3.030754
H     -0.357363    -0.625121    -2.630859
O     -0.287913    -0.281358    -0.022323
H      0.490112    -0.256643     0.547873
H     -0.202199     0.538001    -0.525550
6
BHMC Sample 3310
O     -0.633737     0.094748    -3.209637
H     -1.580043     0.142035    -3.030754
H     -0.357363    -0.625121    -2.630859
O     -0.934476     1.149280    -0.185652
H     -0.298317     1.538574     0.426564
H     -0.807687     1.680353    -0.981779
6
BHMC Sample 3311
O     -1.681753     1.345267    -2.589400
H     -2.628058     1.392554    -2.410517
H     -1.405378     0.625398    -2.010622
O     -0.934476     1.149280    -0.185652
H     -0.298317     1.538574     0.426564
H     -0.807687     1.680353    -0.981779
6
BHMC Sample 3312
O      0.708990    -0.582964     2.379074
H     -0.130214    -0.565240     2.853574
H      0.508618    -1.171239     1.641944
O     -0.254316    -0.306789     0.061304
H      0.381843     0.082505     0.673519
H     -0.127527     0.224284    -0.734824
6
BHMC Sample 3313
O     -1.001593    -0.110802    -2.342444
H     -1.947898    -0.063515    -2.163561
H     -0.725218    -0.830671    -1.763666
O     -0.254316    -0.306789     0.061304
H      0.381843     0.082505     0.673519
H     -0.127527     0.224284    -0.734824
6
BHMC Sample 3314
O     -1.161824     0.036568    -2.269656
H     -1.064352    -0.876143    -2.564930
H     -1.543784    -0.077808    -1.391816
O     -0.254316    -0.306789     0.061304
H      0.381843     0.082505     0.673519
H     -0.127527     0.224284    -0.734824
6
BHMC Sample 3315
O      0.548759    -0.435594     2.451863
H      0.753331    -1.377867     2.452205
H     -0.309948    -0.418376     2.013794
O     -0.254316    -0.306789     0.061304
H      0.381843     0.082505     0.673519
H     -0.127527     0.224284    -0.734824
6
BHMC Sample 3316
O      0.218045     0.308352     0.145909
H      0.422617    -0.633922     0.146251
H     -0.640662     0.325570    -0.292160
O      1.335426    -1.295362    -1.452754
H      1.429813    -0.417314    -1.063937
H      2.148338    -1.383267    -1.965960
6
BHMC Sample 3317
O      0.986192    -1.901229    -1.383882
H      0.520140    -1.939985    -0.540660
H      0.278258    -2.087146    -2.011452
O     -0.302433    -0.263381     0.041463
H     -0.208046     0.614667     0.430280
H      0.510479    -0.351286    -0.471743
6
BHMC Sample 3318
O      0.391328     0.074891    -0.071884
H     -0.074723     0.036135     0.771338
H     -0.316605    -0.111026    -0.699454
O     -1.334445     1.446932    -1.302349
H     -1.396304     2.229977    -1.862770
H     -0.398310     1.433953    -1.066941
6
BHMC Sample 3319
O     -0.756236     1.483405     1.150216
H     -1.222288     1.444649     1.993438
H     -1.464169     1.297488     0.522646
O     -1.334445     1.446932    -1.302349
H     -1.396304     2.229977    -1.862770
H     -0.398310     1.433953    -1.066941
6
BHMC Sample 3320
O     -0.176626     3.683706    -0.734972
H     -0.201210     4.346773    -0.035353
H     -0.709417     2.974900    -0.356414
O     -1.334445     1.446932    -1.302349
H     -1.396304     2.229977    -1.862770
H     -0.398310     1.433953    -1.066941
6
BHMC Sample 3321
O      0.185792     0.015246    -0.359392
H      0.161208     0.678313     0.340227
H     -0.347000    -0.693560     0.019165
O      0.767706     2.473895     0.171455
H      0.314783     2.201482    -0.635829
H      1.462048     1.808334     0.254230
6
BHMC Sample 3322
O      0.812401     2.423971     0.070589
H      0.787817     3.087038     0.770208
H      0.279610     1.715165     0.449146
O      0.141096     0.065170    -0.258526
H     -0.311826    -0.207243    -1.065811
H      0.835439    -0.600391    -0.175751
6
BHMC Sample 3323
O      0.812401     2.423971     0.070589
H      0.787817     3.087038     0.770208
H      0.279610     1.715165     0.449146
O     -0.208581     0.223403     0.680782
H     -0.200272    -0.121908     1.581752
H     -1.121931     0.069963     0.408415
6
BHMC Sample 3324
O      0.185792     0.015246    -0.359392
H      0.161208     0.678313     0.340227
H     -0.347000    -0.693560     0.019165
O      0.679290     1.902156     1.206832
H      0.769351     1.777488     2.159409
H      0.111318     2.680866     1.152488
6
BHMC Sample 3325
O     -0.978075     0.448812    -1.883005
H     -1.002658     1.111879    -1.183385
H     -1.510866    -0.259994    -1.504447
O      0.679290     1.902156     1.206832
H      0.769351     1.777488     2.159409
H      0.111318     2.680866     1.152488
6
BHMC Sample 3326
O     -0.978075     0.448812    -1.883005
H     -1.002658     1.111879    -1.183385
H     -1.510866    -0.259994    -1.504447
O      0.600860    -2.742732    -3.000245
H      1.228044    -3.422926    -2.726324
H      1.105592    -2.248173    -3.657961
6
BHMC Sample 3327
O     -0.978075     0.448812    -1.883005
H     -1.002658     1.111879    -1.183385
H     -1.510866    -0.259994    -1.504447
O      0.642722    -2.788328    -2.968058
H      0.263807    -1.991875    -3.359393
H      1.405401    -2.955537    -3.535769
6
BHMC Sample 3328
O      3.839260    -0.804116    -3.627056
H      4.798074    -0.871171    -3.703921
H      3.715880    -0.800485    -2.670843
O      0.642722    -2.788328    -2.968058
H      0.263807    -1.991875    -3.359393
H      1.405401    -2.955537    -3.535769
6
BHMC Sample 3329
O      0.173266    -1.098442    -3.382849
H      0.606772    -1.686733    -4.011908
H     -0.523258    -1.663512    -3.029114
O     -0.127921    -0.209748     0.319682
H     -0.506836     0.586705    -0.071653
H      0.634758    -0.376957    -0.248029
6
BHMC Sample 3330
O      0.173266    -1.098442    -3.382849
H      0.606772    -1.686733    -4.011908
H     -0.523258    -1.663512    -3.029114
O      2.552648     0.252580    -0.652877
H      2.173733     1.049032    -1.044212
H      3.315328     0.085371    -1.220588
6
BHMC Sample 3331
O      0.173266    -1.098442    -3.382849
H      0.606772    -1.686733    -4.011908
H     -0.523258    -1.663512    -3.029114
O      2.552719     0.250139    -0.651680
H      2.174262     1.046956    -1.042715
H      3.315442     0.082844    -1.219307
6
BHMC Sample 3332
O      0.087673     0.384454     0.091774
H      0.521179    -0.203838    -0.537284
H     -0.608851    -0.180616     0.445510
O      1.246113    -3.622346     1.544323
H      0.613888    -3.938562     0.887547
H      2.061846    -3.557142     1.032206
6
BHMC Sample 3333
O      0.087673     0.384454     0.091774
H      0.521179    -0.203838    -0.537284
H     -0.608851    -0.180616     0.445510
O      1.253448    -3.590128     1.429610
H      0.967616    -3.513537     2.348027
H      1.591704    -4.493531     1.392456
6
BHMC Sample 3334
O      1.880562    -1.641088    -2.405203
H      2.505084    -2.327154    -2.142498
H      1.033078    -2.078761    -2.264519
O      1.253448    -3.590128     1.429610
H      0.967616    -3.513537     2.348027
H      1.591704    -4.493531     1.392456
6
BHMC Sample 3335
O      0.074321     0.374580    -0.134463
H      0.698843    -0.311486     0.128242
H     -0.773163    -0.063093     0.006221
O     -0.433010    -3.589177    -1.845915
H     -0.682513    -4.123613    -2.609579
H     -0.108967    -4.253519    -1.224965
6
BHMC Sample 3336
O     -0.416364    -3.593376    -1.876472
H      0.208159    -4.279442    -1.613766
H     -1.263847    -4.031049    -1.735787
O      0.057674     0.378778    -0.103907
H     -0.191829    -0.155658    -0.867571
H      0.381717    -0.285564     0.517044
6
BHMC Sample 3337
O      0.674777    -2.554418    -0.395354
H      1.299299    -3.240484    -0.132648
H     -0.172707    -2.992092    -0.254670
O      0.057674     0.378778    -0.103907
H     -0.191829    -0.155658    -0.867571
H      0.381717    -0.285564     0.517044
6
BHMC Sample 3338
O     -3.587425    -3.339117     0.633790
H     -3.269034    -3.813817     1.410332
H     -4.480146    -3.093489     0.902665
O      2.763648    -0.834607    -2.211580
H      2.915002    -0.525216    -3.112927
H      2.842501    -0.021431    -1.697323
6
BHMC Sample 3339
O      2.808664    -0.758978    -2.291734
H      3.127055    -1.233679    -1.515193
H      1.915943    -0.513350    -2.022859
O     -3.632442    -3.414746     0.713944
H     -3.481088    -3.105354    -0.187402
H     -3.553589    -2.601569     1.228201
6
BHMC Sample 3340
O     -3.587425    -3.339117     0.633790
H     -3.269034    -3.813817     1.410332
H     -4.480146    -3.093489     0.902665
O      2.763648    -0.834607    -2.211580
H      2.915002    -0.525216    -3.112927
H      2.842501    -0.021431    -1.697323
6
BHMC Sample 3341
O      2.808664    -0.758978    -2.291734
H      3.127055    -1.233679    -1.515193
H      1.915943    -0.513350    -2.022859
O     -3.632442    -3.414746     0.713944
H     -3.481088    -3.105354    -0.187402
H     -3.553589    -2.601569     1.228201
6
BHMC Sample 3342
O      0.605870     1.586740     4.527008
H      1.030066     0.749181     4.746740
H     -0.298638     1.309238     4.341437
O     -3.632442    -3.414746     0.713944
H     -3.481088    -3.105354    -0.187402
H     -3.553589    -2.601569     1.228201
6
BHMC Sample 3343
O      0.531640     1.555079     4.566757
H      0.428337     0.842870     3.925028
H      1.481281     1.718076     4.532245
O     -3.632442    -3.414746     0.713944
H     -3.481088    -3.105354    -0.187402
H     -3.553589    -2.601569     1.228201
6
BHMC Sample 3344
O      0.531640     1.555079     4.566757
H      0.428337     0.842870     3.925028
H      1.481281     1.718076     4.532245
O     -3.575708    -3.305123     0.670698
H     -3.796426    -4.155850     0.272446
H     -4.138723    -3.291002     1.454757
6
BHMC Sample 3345
O      0.531640     1.555079     4.566757
H      0.428337     0.842870     3.925028
H      1.481281     1.718076     4.532245
O     -3.573252    -2.306240     2.308465
H     -3.793970    -3.156967     1.910213
H     -4.136267    -2.292119     3.092524
6
BHMC Sample 3346
O      0.531640     1.555079     4.566757
H      0.428337     0.842870     3.925028
H      1.481281     1.718076     4.532245
O     -3.615073    -2.419834     2.340833
H     -2.990076    -1.742269     2.626036
H     -4.276383    -1.903854     1.862954
6
BHMC Sample 3347
O     -3.664460    -2.322321     2.367890
H     -3.767763    -3.034529     1.726161
H     -2.714819    -2.159324     2.333378
O      0.581027     1.457566     4.539700
H      1.206024     2.135131     4.824903
H     -0.080283     1.973546     4.061822
6
BHMC Sample 3348
O      0.531640     1.555079     4.566757
H      0.428337     0.842870     3.925028
H      1.481281     1.718076     4.532245
O     -3.615073    -2.419834     2.340833
H     -2.990076    -1.742269     2.626036
H     -4.276383    -1.903854     1.862954
6
BHMC Sample 3349
O     -0.282113     0.183070     0.225414
H     -0.385416    -0.529138    -0.416316
H      0.667529     0.346068     0.190902
O     -4.070291    -4.024537    -2.287017
H     -3.403873    -3.373854    -2.034913
H     -4.135116    -3.895684    -3.241547
6
BHMC Sample 3350
O      0.003874     0.517688    -1.910908
H     -0.099429    -0.194520    -2.552637
H      0.953516     0.680685    -1.945420
O     -4.070291    -4.024537    -2.287017
H     -3.403873    -3.373854    -2.034913
H     -4.135116    -3.895684    -3.241547
6
BHMC Sample 3351
O     -4.263465     0.121473     3.940093
H     -3.430775    -0.361083     3.880968
H     -4.403066     0.161764     4.893228
O     -0.200531    -0.259845     0.234142
H      0.465887     0.390838     0.486246
H     -0.265356    -0.130992    -0.720388
6
BHMC Sample 3352
O     -4.263465     0.121473     3.940093
H     -3.430775    -0.361083     3.880968
H     -4.403066     0.161764     4.893228
O      0.580467     1.860571    -0.209003
H      1.246884     2.511253     0.043100
H      0.515641     1.989423    -1.163534
6
BHMC Sample 3353
O     -4.263465     0.121473     3.940093
H     -3.430775    -0.361083     3.880968
H     -4.403066     0.161764     4.893228
O      0.616597     1.854233    -0.293899
H      1.346174     2.316184     0.136654
H     -0.157116     2.285086     0.090376
6
BHMC Sample 3354
O     -3.906716    -0.643634     2.536349
H     -3.074026    -1.126191     2.477224
H     -4.046317    -0.603343     3.489485
O      0.616597     1.854233    -0.293899
H      1.346174     2.316184     0.136654
H     -0.157116     2.285086     0.090376
6
BHMC Sample 3355
O     -3.906716    -0.643634     2.536349
H     -3.074026    -1.126191     2.477224
H     -4.046317    -0.603343     3.489485
O      1.720481     2.190595    -2.396599
H      2.450058     2.652546    -1.966046
H      0.946768     2.621448    -2.012323
6
BHMC Sample 3356
O     -3.906716    -0.643634     2.536349
H     -3.074026    -1.126191     2.477224
H     -4.046317    -0.603343     3.489485
O      1.697699     2.209946    -2.294163
H      1.200185     2.798745    -2.874552
H      2.558232     2.168104    -2.729672
6
BHMC Sample 3357
O     -3.906716    -0.643634     2.536349
H     -3.074026    -1.126191     2.477224
H     -4.046317    -0.603343     3.489485
O      0.955693     1.606709    -1.708455
H      0.458179     2.195508    -2.288844
H      1.816226     1.564867    -2.143964
6
BHMC Sample 3358
O      0.937224     1.662059    -1.815321
H      1.769914     1.179503    -1.874446
H      0.797624     1.702350    -0.862186
O     -3.888248    -0.698985     2.643215
H     -4.385762    -0.110185     2.062826
H     -3.027715    -0.740826     2.207707
6
BHMC Sample 3359
O      0.937224     1.662059    -1.815321
H      1.769914     1.179503    -1.874446
H      0.797624     1.702350    -0.862186
O     -1.343324    -4.687104    -3.547628
H     -2.157509    -4.189128    -3.405575
H     -0.668016    -3.999136    -3.496692
6
BHMC Sample 3360
O      0.229517     3.294390     0.291254
H      1.062207     2.811834     0.232128
H      0.089916     3.334682     1.244389
O     -1.343324    -4.687104    -3.547628
H     -2.157509    -4.189128    -3.405575
H     -0.668016    -3.999136    -3.496692
6
BHMC Sample 3361
O      0.203345     3.256729     0.326014
H      0.654811     4.106309     0.390215
H      0.912719     2.637966     0.534578
O     -1.343324    -4.687104    -3.547628
H     -2.157509    -4.189128    -3.405575
H     -0.668016    -3.999136    -3.496692
6
BHMC Sample 3362
O      0.203345     3.256729     0.326014
H      0.654811     4.106309     0.390215
H      0.912719     2.637966     0.534578
O     -2.664177    -4.786826    -2.657321
H     -3.478362    -4.288850    -2.515269
H     -1.988869    -4.098859    -2.606385
6
BHMC Sample 3363
O      0.333122     3.251326     0.332288
H     -0.471066     2.775465     0.094448
H     -0.021237     4.054578     0.730778
O     -2.664177    -4.786826    -2.657321
H     -3.478362    -4.288850    -2.515269
H     -1.988869    -4.098859    -2.606385
6
BHMC Sample 3364
O      0.333122     3.251326     0.332288
H     -0.471066     2.775465     0.094448
H     -0.021237     4.054578     0.730778
O     -3.119362    -3.991245    -1.217770
H     -3.933547    -3.493269    -1.075718
H     -2.444054    -3.303278    -1.166834
6
BHMC Sample 3365
O     -3.062308    -3.943206    -1.215960
H     -3.866496    -4.419067    -1.453800
H     -3.416667    -3.139954    -0.817470
O      0.276068     3.203287     0.330478
H     -0.538117     3.701263     0.472530
H      0.951377     3.891254     0.381414
6
BHMC Sample 3366
O     -1.553471    -3.172107    -3.175140
H     -2.357659    -3.647968    -3.412979
H     -1.907831    -2.368855    -2.776650
O      0.276068     3.203287     0.330478
H     -0.538117     3.701263     0.472530
H      0.951377     3.891254     0.381414
6
BHMC Sample 3367
O     -1.649968    -3.199783    -3.204880
H     -0.750000    -3.213306    -2.859043
H     -1.983889    -2.364242    -2.858546
O      0.276068     3.203287     0.330478
H     -0.538117     3.701263     0.472530
H      0.951377     3.891254     0.381414
6
BHMC Sample 3368
O      0.236626     3.223650     0.302547
H      1.136594     3.210127     0.648384
H     -0.097295     4.059190     0.648881
O     -1.610525    -3.220146    -3.176949
H     -2.424710    -2.722170    -3.034897
H     -0.935217    -2.532179    -3.126013
6
BHMC Sample 3369
O      0.236626     3.223650     0.302547
H      1.136594     3.210127     0.648384
H     -0.097295     4.059190     0.648881
O      0.630574    -2.641846    -3.508813
H     -0.183611    -2.143870    -3.366761
H      1.305882    -1.953879    -3.457878
6
BHMC Sample 3370
O      0.591131    -2.621483    -3.536744
H      1.491099    -2.635006    -3.190907
H      0.257211    -1.785943    -3.190410
O      0.276068     3.203287     0.330478
H     -0.538117     3.701263     0.472530
H      0.951377     3.891254     0.381414
6
BHMC Sample 3371
O      0.603222    -2.619585    -3.538602
H      1.537558    -2.552082    -3.310154
H      0.245174    -1.811378    -3.153659
O      0.276068     3.203287     0.330478
H     -0.538117     3.701263     0.472530
H      0.951377     3.891254     0.381414
6
BHMC Sample 3372
O      0.236053     3.220645     0.306955
H      1.170389     3.288148     0.535403
H     -0.121996     4.028853     0.691898
O      0.643238    -2.636944    -3.515079
H     -0.170947    -2.138968    -3.373027
H      1.318546    -1.948976    -3.464143
6
BHMC Sample 3373
O      0.603222    -2.619585    -3.538602
H      1.537558    -2.552082    -3.310154
H      0.245174    -1.811378    -3.153659
O      0.276068     3.203287     0.330478
H     -0.538117     3.701263     0.472530
H      0.951377     3.891254     0.381414
6
BHMC Sample 3374
O      0.653437    -2.517407    -3.542592
H      1.211524    -3.109060    -3.024697
H     -0.225795    -2.876163    -3.375786
O      0.276068     3.203287     0.330478
H     -0.538117     3.701263     0.472530
H      0.951377     3.891254     0.381414
6
BHMC Sample 3375
O      0.653437    -2.517407    -3.542592
H      1.211524    -3.109060    -3.024697
H     -0.225795    -2.876163    -3.375786
O      0.321329     3.235953     0.316120
H     -0.019624     4.102396     0.062975
H     -0.285499     2.971648     1.018856
6
BHMC Sample 3376
O     -3.106657    -2.839386     0.230994
H     -3.044842    -3.156335     1.139538
H     -4.014123    -2.515759     0.194262
O      0.321329     3.235953     0.316120
H     -0.019624     4.102396     0.062975
H     -0.285499     2.971648     1.018856
6
BHMC Sample 3377
O     -3.106657    -2.839386     0.230994
H     -3.044842    -3.156335     1.139538
H     -4.014123    -2.515759     0.194262
O      0.578388     0.762650     1.642092
H      0.237435     1.629094     1.388946
H     -0.028440     0.498346     2.344827
6
BHMC Sample 3378
O      0.572674     0.795968     1.618467
H      0.634489     0.479019     2.527010
H     -0.334793     1.119596     1.581735
O     -3.100942    -2.872704     0.254619
H     -3.441896    -2.006261     0.001473
H     -3.707771    -3.137008     0.957354
6
BHMC Sample 3379
O      0.572674     0.795968     1.618467
H      0.634489     0.479019     2.527010
H     -0.334793     1.119596     1.581735
O     -2.119035    -3.419510    -0.292662
H     -1.748265    -2.930073    -1.036999
H     -3.068065    -3.286545    -0.409269
6
BHMC Sample 3380
O     -2.104074    -3.385058    -0.389615
H     -2.042259    -3.702007     0.518928
H     -3.011540    -3.061431    -0.426348
O      0.557712     0.761517     1.715420
H      0.928482     1.250953     0.971084
H     -0.391318     0.894482     1.598814
6
BHMC Sample 3381
O     -2.165734    -3.389075    -0.274550
H     -2.725284    -3.084026    -0.998137
H     -1.349845    -3.615656    -0.735598
O      0.557712     0.761517     1.715420
H      0.928482     1.250953     0.971084
H     -0.391318     0.894482     1.598814
6
BHMC Sample 3382
O     -0.476520    -3.055677    -1.894838
H     -1.279055    -2.825220    -2.377079
H      0.206354    -2.642050    -2.435369
O      0.557712     0.761517     1.715420
H      0.928482     1.250953     0.971084
H     -0.391318     0.894482     1.598814
6
BHMC Sample 3383
O     -0.476520    -3.055677    -1.894838
H     -1.279055    -2.825220    -2.377079
H      0.206354    -2.642050    -2.435369
O      0.474806     0.754770     1.684474
H      0.544711     1.708144     1.815805
H      1.308335     0.544374     1.245273
6
BHMC Sample 3384
O     -0.476520    -3.055677    -1.894838
H     -1.279055    -2.825220    -2.377079
H      0.206354    -2.642050    -2.435369
O      2.529819     1.352065     0.270901
H      2.599724     2.305439     0.402231
H      3.363348     1.141669    -0.168301
6
BHMC Sample 3385
O     -0.427294    -3.033234    -1.988212
H     -0.558516    -3.074353    -1.033844
H     -1.295497    -2.749125    -2.296570
O      2.529819     1.352065     0.270901
H      2.599724     2.305439     0.402231
H      3.363348     1.141669    -0.168301
6
BHMC Sample 3386
O      2.636290     1.380041     0.217528
H      2.505069     1.338923     1.171896
H      1.768088     1.664151    -0.090829
O     -0.533766    -3.061210    -1.934840
H     -0.463861    -2.107836    -1.803509
H      0.299763    -3.271606    -2.374041
6
BHMC Sample 3387
O      2.435386     1.305520     1.637480
H      2.304165     1.264401     2.591848
H      1.567184     1.589629     1.329123
O     -0.533766    -3.061210    -1.934840
H     -0.463861    -2.107836    -1.803509
H      0.299763    -3.271606    -2.374041
6
BHMC Sample 3388
O      2.435386     1.305520     1.637480
H      2.304165     1.264401     2.591848
H      1.567184     1.589629     1.329123
O     -2.803648    -3.222634    -2.539633
H     -2.733744    -2.269260    -2.408302
H     -1.970120    -3.433029    -2.978835
6
BHMC Sample 3389
O     -2.697177    -3.194658    -2.593006
H     -2.828399    -3.235776    -1.638638
H     -3.565380    -2.910548    -2.901363
O      2.328915     1.277544     1.690853
H      2.398820     2.230918     1.822184
H      3.162444     1.067148     1.251651
6
BHMC Sample 3390
O     -2.697177    -3.194658    -2.593006
H     -2.828399    -3.235776    -1.638638
H     -3.565380    -2.910548    -2.901363
O      2.354564     1.337684     1.733755
H      2.734619     1.890437     1.040156
H      2.419537     0.453075     1.352732
6
BHMC Sample 3391
O      2.435386     1.305520     1.637480
H      2.304165     1.264401     2.591848
H      1.567184     1.589629     1.329123
O     -2.777999    -3.162493    -2.496731
H     -2.397944    -2.609741    -3.190330
H     -2.713026    -4.047102    -2.877754
6
BHMC Sample 3392
O      2.435386     1.305520     1.637480
H      2.304165     1.264401     2.591848
H      1.567184     1.589629     1.329123
O     -2.874511    -3.437316    -2.047694
H     -2.552176    -2.896505    -2.778911
H     -2.805223    -4.331464    -2.404951
6
BHMC Sample 3393
O      2.435386     1.305520     1.637480
H      2.304165     1.264401     2.591848
H      1.567184     1.589629     1.329123
O     -2.954297    -3.652108    -1.630015
H     -2.760270    -3.059951    -2.366736
H     -2.868712    -4.523555    -2.036449
6
BHMC Sample 3394
O     -2.882731    -3.681331    -1.730125
H     -3.013953    -3.722450    -0.775756
H     -3.750934    -3.397222    -2.038482
O      2.363820     1.334743     1.737590
H      2.557848     1.926901     1.000868
H      2.449405     0.463296     1.331155
6
BHMC Sample 3395
O     -1.811682    -3.228296     0.197254
H     -1.942904    -3.269415     1.151623
H     -2.679885    -2.944187    -0.111103
O      2.363820     1.334743     1.737590
H      2.557848     1.926901     1.000868
H      2.449405     0.463296     1.331155
6
BHMC Sample 3396
O      2.435386     1.305520     1.637480
H      2.304165     1.264401     2.591848
H      1.567184     1.589629     1.329123
O     -1.883249    -3.199073     0.297364
H     -1.689221    -2.606915    -0.439358
H     -1.797664    -4.070520    -0.109070
6
BHMC Sample 3397
O      2.340501     1.282265     1.631884
H      3.232389     1.620085     1.489959
H      2.144977     1.603046     2.519830
O     -1.883249    -3.199073     0.297364
H     -1.689221    -2.606915    -0.439358
H     -1.797664    -4.070520    -0.109070
6
BHMC Sample 3398
O      2.290691     1.226519     1.927732
H      3.157073     1.618576     1.768353
H      2.156112     1.414588     2.863732
O     -1.883249    -3.199073     0.297364
H     -1.689221    -2.606915    -0.439358
H     -1.797664    -4.070520    -0.109070
6
BHMC Sample 3399
O     -0.291852     0.899790     1.035177
H      0.574531     1.291847     0.875799
H     -0.426430     1.087859     1.971178
O     -1.883249    -3.199073     0.297364
H     -1.689221    -2.606915    -0.439358
H     -1.797664    -4.070520    -0.109070
6
BHMC Sample 3400
O      2.275061     3.414734    -2.057342
H      3.021148     3.927141    -1.724894
H      2.583893     3.159189    -2.934211
O     -0.093204     0.093097     0.381052
H      0.100823     0.685254    -0.355670
H     -0.007619    -0.778351    -0.025382
6
BHMC Sample 3401
O     -1.511358     2.353963    -3.565163
H     -1.385794     2.058159    -4.474262
H     -2.437230     2.622892    -3.569304
O     -0.093204     0.093097     0.381052
H      0.100823     0.685254    -0.355670
H     -0.007619    -0.778351    -0.025382
6
BHMC Sample 3402
O     -3.029308     1.553072    -3.640173
H     -2.903744     1.257267    -4.549273
H     -3.955180     1.822000    -3.644314
O     -0.093204     0.093097     0.381052
H      0.100823     0.685254    -0.355670
H     -0.007619    -0.778351    -0.025382
6
BHMC Sample 3403
O     -2.337995     1.186773    -2.137293
H     -2.212431     0.890969    -3.046393
H     -3.263867     1.455702    -2.141435
O     -0.093204     0.093097     0.381052
H      0.100823     0.685254    -0.355670
H     -0.007619    -0.778351    -0.025382
6
BHMC Sample 3404
O     -2.337995     1.186773    -2.137293
H     -2.212431     0.890969    -3.046393
H     -3.263867     1.455702    -2.141435
O     -1.681967     2.577066     0.054423
H     -1.487940     3.169224    -0.682299
H     -1.596382     1.705619    -0.352012
6
BHMC Sample 3405
O     -2.441126     0.742682    -1.730001
H     -2.349723     0.231559    -2.542484
H     -3.356715     1.039994    -1.783675
O     -1.681967     2.577066     0.054423
H     -1.487940     3.169224    -0.682299
H     -1.596382     1.705619    -0.352012
6
BHMC Sample 3406
O     -2.441126     0.742682    -1.730001
H     -2.349723     0.231559    -2.542484
H     -3.356715     1.039994    -1.783675
O     -2.167725     0.658950     0.925181
H     -1.685320     1.491495     0.853004
H     -2.033946     0.265662     0.053767
6
BHMC Sample 3407
O     -2.087131     0.695491     0.920848
H     -1.995728     0.184368     0.108366
H     -3.002720     0.992803     0.867175
O     -2.521720     0.706141    -1.725669
H     -2.039314     1.538686    -1.797846
H     -2.387941     0.312852    -2.597082
6
BHMC Sample 3408
O     -2.805034     1.342926     1.317370
H     -2.713631     0.831803     0.504888
H     -3.720623     1.640238     1.263697
O     -2.521720     0.706141    -1.725669
H     -2.039314     1.538686    -1.797846
H     -2.387941     0.312852    -2.597082
6
BHMC Sample 3409
O     -2.441126     0.742682    -1.730001
H     -2.349723     0.231559    -2.542484
H     -3.356715     1.039994    -1.783675
O     -2.885628     1.306385     1.321703
H     -2.403223     2.138930     1.249526
H     -2.751849     0.913097     0.450289
6
BHMC Sample 3410
O      0.274729     0.071271     0.288719
H      0.366132    -0.439853    -0.523764
H     -0.640860     0.368582     0.235045
O      0.508205     2.522279     2.229412
H      0.480180     1.933926     2.993684
H      0.560306     1.901624     1.491843
6
BHMC Sample 3411
O      0.274729     0.071271     0.288719
H      0.366132    -0.439853    -0.523764
H     -0.640860     0.368582     0.235045
O      0.268733     0.753030     3.341591
H      0.489881    -0.159655     3.563302
H      0.339791     0.755508     2.378845
6
BHMC Sample 3412
O      0.274729     0.071271     0.288719
H      0.366132    -0.439853    -0.523764
H     -0.640860     0.368582     0.235045
O      0.812865     2.267746     2.449914
H      1.503266     2.661333     1.902655
H      0.594340     1.464105     1.961712
6
BHMC Sample 3413
O     -0.160521    -2.446312    -1.419209
H      0.067931    -3.056467    -2.130018
H      0.053186    -2.965026    -0.635089
O     -0.157292     0.136685     0.345154
H      0.533109     0.530272    -0.202105
H     -0.375817    -0.666957    -0.143048
6
BHMC Sample 3414
O     -0.147387     0.376290    -0.024437
H      0.081066    -0.233866    -0.735246
H      0.066320    -0.142424     0.759683
O     -1.857790     2.289646     1.763983
H     -2.645204     2.105744     1.237471
H     -1.164333     1.842382     1.262978
6
BHMC Sample 3415
O      1.863063    -1.060003    -1.851960
H      2.122605    -1.505422    -2.666802
H      2.332945    -0.221288    -1.925083
O      0.031319     0.210389     0.342506
H     -0.756095     0.026487    -0.184006
H      0.724776    -0.236876    -0.158499
6
BHMC Sample 3416
O     -2.048311    -0.366180    -1.922160
H     -2.416667    -0.700218    -2.748272
H     -2.198311     0.582494    -2.006409
O      0.031319     0.210389     0.342506
H     -0.756095     0.026487    -0.184006
H      0.724776    -0.236876    -0.158499
6
BHMC Sample 3417
O      0.172785    -0.204878     0.303454
H     -0.195571    -0.538917    -0.522658
H      0.022786     0.743795     0.219205
O      1.693328    -2.914250     0.668248
H      1.061251    -2.185187     0.669595
H      2.541286    -2.453462     0.692262
6
BHMC Sample 3418
O      0.169904    -0.226303     0.223866
H     -0.347187    -0.144429     1.033584
H      0.220126     0.689361    -0.073819
O      1.693328    -2.914250     0.668248
H      1.061251    -2.185187     0.669595
H      2.541286    -2.453462     0.692262
6
BHMC Sample 3419
O      0.155623    -0.332512    -0.170678
H     -0.361468    -0.250639     0.639040
H      0.205845     0.583151    -0.468363
O      2.624500    -1.630418    -1.571950
H      1.867018    -1.085730    -1.325795
H      3.048346    -1.793175    -0.720011
6
BHMC Sample 3420
O      0.179416    -0.240723    -0.170888
H     -0.507791    -0.771208    -0.590485
H     -0.025470    -0.353162     0.764504
O      2.624500    -1.630418    -1.571950
H      1.867018    -1.085730    -1.325795
H      3.048346    -1.793175    -0.720011
6
BHMC Sample 3421
O      0.297364     0.214308    -0.171931
H     -0.389842    -0.316177    -0.591529
H      0.092478     0.101869     0.763460
O      3.364730    -0.126765    -0.198454
H      2.458761     0.195973    -0.120251
H      3.301887    -0.743568    -0.938412
6
BHMC Sample 3422
O     -0.557723    -1.993956    -1.870518
H     -1.439765    -2.307655    -2.101435
H     -0.141905    -2.797025    -1.536223
O      0.322938     0.098022     0.220585
H     -0.583032     0.420760     0.298788
H      0.260094    -0.518782    -0.519373
6
BHMC Sample 3423
O     -0.533853    -2.011223    -1.855896
H     -0.525498    -2.963169    -1.702736
H     -1.435027    -1.867454    -2.167016
O      0.322938     0.098022     0.220585
H     -0.583032     0.420760     0.298788
H      0.260094    -0.518782    -0.519373
6
BHMC Sample 3424
O      0.717020    -1.532470    -2.216254
H      1.239778    -1.250393    -2.975784
H     -0.104761    -1.814963    -2.633928
O      0.322938     0.098022     0.220585
H     -0.583032     0.420760     0.298788
H      0.260094    -0.518782    -0.519373
6
BHMC Sample 3425
O      0.717020    -1.532470    -2.216254
H      1.239778    -1.250393    -2.975784
H     -0.104761    -1.814963    -2.633928
O      1.399491    -3.103663     0.189124
H      0.912722    -3.935879     0.228220
H      1.202047    -2.789726    -0.702164
6
BHMC Sample 3426
O      0.301465     1.286404    -2.449920
H     -0.052973     2.099475    -2.828097
H      0.082990     0.638710    -3.129877
O      0.228071     0.172760     0.284064
H     -0.258699    -0.659456     0.323160
H      0.030627     0.486696    -0.607224
6
BHMC Sample 3427
O      0.301465     1.286404    -2.449920
H     -0.052973     2.099475    -2.828097
H      0.082990     0.638710    -3.129877
O     -1.766092     1.568218    -0.307544
H     -1.994703     2.492344    -0.150112
H     -1.013535     1.640238    -0.907881
6
BHMC Sample 3428
O      0.190971    -0.055126     0.352711
H     -0.163467     0.757945    -0.025465
H     -0.027504    -0.702819    -0.327245
O      2.900751     1.175097     0.056682
H      2.865237     2.137557     0.115556
H      2.002030     0.919301     0.299176
6
BHMC Sample 3429
O      0.103682     0.515004    -0.522312
H     -0.250756     1.328075    -0.900488
H     -0.114793    -0.132690    -1.202269
O      2.900751     1.175097     0.056682
H      2.865237     2.137557     0.115556
H      2.002030     0.919301     0.299176
6
BHMC Sample 3430
O      0.103682     0.515004    -0.522312
H     -0.250756     1.328075    -0.900488
H     -0.114793    -0.132690    -1.202269
O      2.597236     2.058239    -0.260524
H      2.294232     2.959189    -0.426460
H      1.801558     1.631601     0.081253
6
BHMC Sample 3431
O      2.567817     2.075525    -0.191479
H      2.213379     2.888597    -0.569655
H      2.349342     1.427832    -0.871435
O      0.133101     0.497718    -0.591357
H     -0.169903     1.398667    -0.757294
H     -0.662577     0.071080    -0.249580
6
BHMC Sample 3432
O      2.567817     2.075525    -0.191479
H      2.213379     2.888597    -0.569655
H      2.349342     1.427832    -0.871435
O      0.481967    -0.480142    -0.235272
H      0.178963     0.420808    -0.401209
H     -0.313711    -0.906780     0.106505
6
BHMC Sample 3433
O      2.567817     2.075525    -0.191479
H      2.213379     2.888597    -0.569655
H      2.349342     1.427832    -0.871435
O      0.452330    -0.487882    -0.274337
H      0.794516    -0.193369     0.578439
H     -0.458865    -0.169750    -0.253106
6
BHMC Sample 3434
O      0.190971    -0.055126     0.352711
H     -0.163467     0.757945    -0.025465
H     -0.027504    -0.702819    -0.327245
O     -2.346268     1.915965     1.207231
H     -1.926415     1.375439     1.887386
H     -3.185405     1.459365     1.068308
6
BHMC Sample 3435
O     -0.200342    -0.404990     2.319750
H     -0.155558     0.234030     1.599072
H     -0.243944    -1.241293     1.841970
O     -2.346268     1.915965     1.207231
H     -1.926415     1.375439     1.887386
H     -3.185405     1.459365     1.068308
6
BHMC Sample 3436
O     -1.426338    -1.296766     0.847408
H     -1.594438    -0.593399     0.209641
H     -2.158130    -1.900523     0.675547
O     -2.346268     1.915965     1.207231
H     -1.926415     1.375439     1.887386
H     -3.185405     1.459365     1.068308
6
BHMC Sample 3437
O     -1.426338    -1.296766     0.847408
H     -1.594438    -0.593399     0.209641
H     -2.158130    -1.900523     0.675547
O     -0.807947     1.584675     2.379546
H     -0.275854     1.220863     1.661511
H     -0.717350     0.912024     3.066035
6
BHMC Sample 3438
O      0.572955    -1.324446     3.272101
H      1.132072    -0.963670     2.574277
H      0.553770    -2.261823     3.047304
O     -0.807947     1.584675     2.379546
H     -0.275854     1.220863     1.661511
H     -0.717350     0.912024     3.066035
6
BHMC Sample 3439
O     -0.803316     1.558945     2.429405
H     -0.244199     1.919720     1.731581
H     -0.822501     0.621567     2.204608
O      0.568324    -1.298715     3.222242
H      1.100417    -1.662527     2.504207
H      0.658921    -1.971366     3.908731
6
BHMC Sample 3440
O     -0.774489     1.575771     2.424759
H     -0.060874     0.965901     2.204439
H     -1.463368     1.308311     1.805493
O      0.568324    -1.298715     3.222242
H      1.100417    -1.662527     2.504207
H      0.658921    -1.971366     3.908731
6
BHMC Sample 3441
O      1.037442     1.926210     3.625929
H      1.443823     1.124823     3.276124
H      0.594418     2.281324     2.846697
O      0.568324    -1.298715     3.222242
H      1.100417    -1.662527     2.504207
H      0.658921    -1.971366     3.908731
6
BHMC Sample 3442
O      0.605216    -1.331738     3.283650
H      1.011597    -2.133125     2.933845
H      0.162192    -0.976624     2.504419
O      1.000550     1.959233     3.564520
H      1.532643     1.595421     2.846485
H      1.091147     1.286582     4.251009
6
BHMC Sample 3443
O      0.012215     0.148758     0.376345
H      0.418595    -0.652629     0.026541
H     -0.430810     0.503872    -0.402886
O      2.943790    -0.013212     1.940023
H      3.048638     0.204645     1.005891
H      2.163726     0.499489     2.186140
6
BHMC Sample 3444
O      0.012215     0.148758     0.376345
H      0.418595    -0.652629     0.026541
H     -0.430810     0.503872    -0.402886
O     -0.293801    -2.052738     2.851264
H     -0.873214    -2.265934     2.109723
H     -0.360670    -1.090759     2.896648
6
BHMC Sample 3445
O     -0.048265     0.105112     0.342426
H      0.815675     0.245777     0.746838
H      0.132052     0.298212    -0.584815
O     -0.293801    -2.052738     2.851264
H     -0.873214    -2.265934     2.109723
H     -0.360670    -1.090759     2.896648
6
BHMC Sample 3446
O      0.150580     1.198012    -2.753138
H      0.593999     0.376403    -2.994113
H      0.517330     1.817721    -3.394258
O      0.215427    -0.249594     0.232053
H     -0.363986    -0.462790    -0.509489
H      0.148559     0.712384     0.277437
6
BHMC Sample 3447
O      0.150580     1.198012    -2.753138
H      0.593999     0.376403    -2.994113
H      0.517330     1.817721    -3.394258
O      0.185133    -0.190518     0.258298
H      0.272768    -1.061569    -0.147469
H     -0.007369     0.373500    -0.501150
6
BHMC Sample 3448
O      0.368570    -1.020580    -2.962934
H     -0.567917    -1.205269    -2.826515
H      0.595960    -1.647859    -3.658918
O      0.185133    -0.190518     0.258298
H      0.272768    -1.061569    -0.147469
H     -0.007369     0.373500    -0.501150
6
BHMC Sample 3449
O      0.368570    -1.020580    -2.962934
H     -0.567917    -1.205269    -2.826515
H      0.595960    -1.647859    -3.658918
O      1.218927    -1.382891     0.242052
H      0.787774    -2.012625    -0.348370
H      1.201766    -0.568221    -0.275589
6
BHMC Sample 3450
O      0.368570    -1.020580    -2.962934
H     -0.567917    -1.205269    -2.826515
H      0.595960    -1.647859    -3.658918
O      2.849808     1.172024    -2.945617
H      2.869875     0.216179    -3.076051
H      1.935517     1.325323    -2.676349
6
BHMC Sample 3451
O      0.183864     1.119019    -1.019271
H     -0.770113     1.011943    -0.928766
H      0.501415     0.805852    -0.164480
O      2.849808     1.172024    -2.945617
H      2.869875     0.216179    -3.076051
H      1.935517     1.325323    -2.676349
6
BHMC Sample 3452
O     -2.970579     0.503574    -0.330980
H     -3.846860     0.359234     0.044556
H     -3.143709     0.425742    -1.276256
O      0.298075     0.267515    -0.046278
H      0.318142    -0.688330    -0.176712
H     -0.616216     0.420815     0.222990
6
BHMC Sample 3453
O     -2.481760    -1.125846    -0.170609
H     -3.358040    -1.270187     0.204928
H     -2.654889    -1.203679    -1.115885
O      0.298075     0.267515    -0.046278
H      0.318142    -0.688330    -0.176712
H     -0.616216     0.420815     0.222990
6
BHMC Sample 3454
O     -1.657886    -2.105557    -0.523272
H     -1.867794    -3.042314    -0.432980
H     -2.080547    -1.886658    -1.361735
O      0.298075     0.267515    -0.046278
H      0.318142    -0.688330    -0.176712
H     -0.616216     0.420815     0.222990
6
BHMC Sample 3455
O      0.283434     0.262777     0.003353
H      0.073526    -0.673981     0.093645
H     -0.139227     0.481675    -0.835110
O     -1.643246    -2.100818    -0.572903
H     -1.623179    -3.056664    -0.703337
H     -2.557537    -1.947519    -0.303635
6
BHMC Sample 3456
O      3.095573     1.595576     0.157219
H      2.219292     1.451236     0.532756
H      2.922443     1.517743    -0.788057
O      0.298075     0.267515    -0.046278
H      0.318142    -0.688330    -0.176712
H     -0.616216     0.420815     0.222990
6
BHMC Sample 3457
O      0.306758     0.235042    -0.006631
H     -0.569523     0.090701     0.368905
H      0.133629     0.157209    -0.951907
O      3.086890     1.628050     0.117572
H      3.106957     0.672204    -0.012862
H      2.172598     1.781349     0.386841
6
BHMC Sample 3458
O      3.095573     1.595576     0.157219
H      2.219292     1.451236     0.532756
H      2.922443     1.517743    -0.788057
O      0.298075     0.267515    -0.046278
H      0.318142    -0.688330    -0.176712
H     -0.616216     0.420815     0.222990
6
BHMC Sample 3459
O      0.349803     0.074058     0.189913
H     -0.526477    -0.070283     0.565450
H      0.176674    -0.003775    -0.755363
O     -1.246216     0.451744    -2.409728
H     -1.329714     1.376884    -2.670880
H     -1.820648     0.004712    -3.043861
6
BHMC Sample 3460
O      0.362104     2.103820    -0.337873
H     -0.493200     2.515189    -0.167695
H      0.110112     1.321690    -0.842207
O     -1.246216     0.451744    -2.409728
H     -1.329714     1.376884    -2.670880
H     -1.820648     0.004712    -3.043861
6
BHMC Sample 3461
O     -0.564829     2.101845     0.128563
H     -1.522870     2.189172     0.193828
H     -0.473120     1.389920    -0.515123
O     -1.246216     0.451744    -2.409728
H     -1.329714     1.376884    -2.670880
H     -1.820648     0.004712    -3.043861
6
BHMC Sample 3462
O      2.812078     1.226975     1.291225
H      3.076948     1.145549     0.367675
H      2.054430     0.632255     1.334307
O      0.219310    -0.159369     0.298428
H      0.135812     0.765771     0.037277
H     -0.355122    -0.606402    -0.335705
6
BHMC Sample 3463
O      0.164260     0.225382     0.293489
H      0.429129     0.143956    -0.630060
H     -0.593389    -0.369338     0.336571
O      1.991543    -0.030824    -1.940960
H      2.298554    -0.643221    -1.261423
H      2.819447     0.299854    -2.311312
6
BHMC Sample 3464
O     -2.213330    -2.148827    -0.117155
H     -1.945339    -1.222748    -0.134153
H     -2.969067    -2.126519     0.481128
O     -0.378305     0.093907    -0.103061
H     -0.071294    -0.518491     0.576475
H      0.449599     0.424584    -0.473414
6
BHMC Sample 3465
O     -2.213330    -2.148827    -0.117155
H     -1.945339    -1.222748    -0.134153
H     -2.969067    -2.126519     0.481128
O     -3.950600    -0.738675     1.785529
H     -3.048290    -0.619231     2.105883
H     -4.363973     0.103978     2.011343
6
BHMC Sample 3466
O     -3.354865     0.045274    -1.003194
H     -3.316830     0.853935    -0.479410
H     -3.635277    -0.603667    -0.347586
O     -3.950600    -0.738675     1.785529
H     -3.048290    -0.619231     2.105883
H     -4.363973     0.103978     2.011343
6
BHMC Sample 3467
O     -3.354865     0.045274    -1.003194
H     -3.316830     0.853935    -0.479410
H     -3.635277    -0.603667    -0.347586
O     -3.981929    -0.585397     1.818769
H     -3.079864    -0.464315     2.139198
H     -4.382461     0.274646     1.997189
6
BHMC Sample 3468
O      0.518263     0.270572    -2.981861
H      1.100491     0.771064    -2.398555
H     -0.000445    -0.243427    -2.352316
O     -0.167178    -0.327042    -0.166283
H      0.734887    -0.205960     0.154146
H     -0.567710     0.533002     0.012137
6
BHMC Sample 3469
O     -0.021174     0.004502    -0.404284
H      0.561055     0.504994     0.179023
H     -0.539881    -0.509496     0.225261
O      0.757409     0.755972     2.349524
H      0.578803    -0.118774     2.715549
H     -0.058550     1.233203     2.545472
6
BHMC Sample 3470
O      3.339041     1.723875     1.444810
H      2.633578     1.786962     2.099081
H      3.056767     0.965924     0.920014
O      0.757409     0.755972     2.349524
H      0.578803    -0.118774     2.715549
H     -0.058550     1.233203     2.545472
6
BHMC Sample 3471
O      0.757027     0.772610     2.373723
H      0.051564     0.835697     3.027995
H      0.474752     0.014660     1.848928
O      3.339423     1.707237     1.420610
H      3.160817     0.832491     1.786636
H      2.523464     2.184468     1.616558
6
BHMC Sample 3472
O      3.339041     1.723875     1.444810
H      2.633578     1.786962     2.099081
H      3.056767     0.965924     0.920014
O      0.757409     0.755972     2.349524
H      0.578803    -0.118774     2.715549
H     -0.058550     1.233203     2.545472
6
BHMC Sample 3473
O      0.757027     0.772610     2.373723
H      0.051564     0.835697     3.027995
H      0.474752     0.014660     1.848928
O      3.339423     1.707237     1.420610
H      3.160817     0.832491     1.786636
H      2.523464     2.184468     1.616558
6
BHMC Sample 3474
O      3.339041     1.723875     1.444810
H      2.633578     1.786962     2.099081
H      3.056767     0.965924     0.920014
O      0.757409     0.755972     2.349524
H      0.578803    -0.118774     2.715549
H     -0.058550     1.233203     2.545472
6
BHMC Sample 3475
O      3.339041     1.723875     1.444810
H      2.633578     1.786962     2.099081
H      3.056767     0.965924     0.920014
O      0.710990     2.305271     2.475331
H      0.193468     1.747293     3.068531
H      0.221665     3.137229     2.493838
6
BHMC Sample 3476
O      2.623160     0.436030     3.636092
H      2.082014     0.861777     2.961090
H      3.297320     1.105012     3.802076
O      0.710990     2.305271     2.475331
H      0.193468     1.747293     3.068531
H      0.221665     3.137229     2.493838
6
BHMC Sample 3477
O     -0.044338    -0.364910     0.169673
H     -0.585484     0.060837    -0.505330
H      0.629822     0.304072     0.335657
O     -1.321274    -0.385997    -2.275618
H     -0.936814    -1.264391    -2.167584
H     -1.353532    -0.290510    -3.235709
6
BHMC Sample 3478
O     -0.044338    -0.364910     0.169673
H     -0.585484     0.060837    -0.505330
H      0.629822     0.304072     0.335657
O      2.593655     0.398151     0.433155
H      2.605111    -0.554954     0.283104
H      3.453421     0.672308     0.090262
6
BHMC Sample 3479
O     -0.044338    -0.364910     0.169673
H     -0.585484     0.060837    -0.505330
H      0.629822     0.304072     0.335657
O     -0.877102     1.516400    -1.724020
H     -0.374540     0.861451    -2.223550
H     -1.500298     1.846406    -2.383305
6
BHMC Sample 3480
O      0.092112     2.254557     0.758164
H     -0.508582     1.938347     0.073396
H      0.830468     2.589341     0.236312
O     -0.877102     1.516400    -1.724020
H     -0.374540     0.861451    -2.223550
H     -1.500298     1.846406    -2.383305
6
BHMC Sample 3481
O     -0.891554     1.497179    -1.721346
H     -1.492249     1.180970    -2.406113
H     -0.153198     1.831963    -2.243197
O      0.106565     2.273778     0.755489
H      0.609126     1.618829     0.255959
H     -0.516632     2.603784     0.096204
6
BHMC Sample 3482
O      0.092112     2.254557     0.758164
H     -0.508582     1.938347     0.073396
H      0.830468     2.589341     0.236312
O     -0.877102     1.516400    -1.724020
H     -0.374540     0.861451    -2.223550
H     -1.500298     1.846406    -2.383305
6
BHMC Sample 3483
O     -0.045887    -0.006192     0.402206
H     -0.646582    -0.322401    -0.282561
H      0.692469     0.328593    -0.119645
O      1.590103     0.522183    -1.763431
H      1.895304    -0.228713    -2.286941
H      1.834727     1.274084    -2.317271
6
BHMC Sample 3484
O      3.621088     0.532229     0.179046
H      3.453808    -0.417355     0.173131
H      2.966418     0.853723    -0.451531
O      1.590103     0.522183    -1.763431
H      1.895304    -0.228713    -2.286941
H      1.834727     1.274084    -2.317271
6
BHMC Sample 3485
O      0.479792     0.531326     0.766633
H     -0.322270     0.743186     0.275165
H      1.142883     0.512163     0.066975
O      1.590103     0.522183    -1.763431
H      1.895304    -0.228713    -2.286941
H      1.834727     1.274084    -2.317271
6
BHMC Sample 3486
O     -1.293156    -0.001768     2.889386
H     -2.074585    -0.296973     2.407773
H     -0.632708     0.044034     2.188466
O     -0.183275    -0.000335     0.359117
H      0.121926    -0.751231    -0.164394
H      0.061349     0.751566    -0.194723
6
BHMC Sample 3487
O     -1.601568    -0.006808     2.730520
H     -2.345622     0.205785     2.155267
H     -0.865950    -0.021531     2.107441
O     -0.183275    -0.000335     0.359117
H      0.121926    -0.751231    -0.164394
H      0.061349     0.751566    -0.194723
6
BHMC Sample 3488
O     -0.624807     0.153392     3.172460
H     -1.368861     0.365985     2.597206
H      0.110811     0.138669     2.549381
O     -0.183275    -0.000335     0.359117
H      0.121926    -0.751231    -0.164394
H      0.061349     0.751566    -0.194723
6
BHMC Sample 3489
O     -0.624807     0.153392     3.172460
H     -1.368861     0.365985     2.597206
H      0.110811     0.138669     2.549381
O     -0.482996     0.915839     0.425887
H     -0.519512     0.363052    -0.364144
H     -0.018002     1.700152     0.108761
6
BHMC Sample 3490
O      0.638506     1.360801    -2.869431
H      1.080032     0.572883    -2.531836
H      0.122395     1.642683    -2.105395
O     -0.142826    -0.077175     0.369052
H     -0.179342    -0.629963    -0.420979
H      0.322168     0.707138     0.051927
6
BHMC Sample 3491
O      0.584929     1.378570    -2.800429
H      1.453008     1.478630    -3.208052
H      0.599791     0.454904    -2.524388
O     -0.142826    -0.077175     0.369052
H     -0.179342    -0.629963    -0.420979
H      0.322168     0.707138     0.051927
6
BHMC Sample 3492
O      1.257497     0.104582    -2.903952
H      2.171223    -0.078424    -3.151625
H      1.042308    -0.660035    -2.357478
O     -0.142826    -0.077175     0.369052
H     -0.179342    -0.629963    -0.420979
H      0.322168     0.707138     0.051927
6
BHMC Sample 3493
O      2.599488     1.290365    -3.616884
H      3.513215     1.107358    -3.864557
H      2.384299     0.525748    -3.070410
O     -0.142826    -0.077175     0.369052
H     -0.179342    -0.629963    -0.420979
H      0.322168     0.707138     0.051927
6
BHMC Sample 3494
O     -2.411152    -0.728507     3.893566
H     -3.301469    -0.480175     4.168147
H     -2.205672    -0.046580     3.243694
O     -0.142826    -0.077175     0.369052
H     -0.179342    -0.629963    -0.420979
H      0.322168     0.707138     0.051927
