6
BHMC Sample 1
O     -1.259221    -2.347247    -0.413106
H     -0.368635    -2.497314    -0.759124
H     -1.209495    -2.769882     0.454203
O      0.319662    -0.058696     0.251026
H     -0.461286    -0.605464     0.075791
H      0.156905     0.713861    -0.302431
6
BHMC Sample 2
O      0.117601     2.628860    -0.586484
H     -0.089140     2.609906     0.358199
H      1.067506     2.804652    -0.578512
O      0.286820    -0.090302     0.279751
H     -0.466698    -0.637826     0.031176
H      0.191514     0.671671    -0.311733
6
BHMC Sample 3
O     -1.173752     1.044356     2.350124
H     -1.998647     1.177265     1.862070
H     -1.244164     0.119477     2.624382
O      0.846059    -0.209881     0.740860
H      1.706597     0.084431     1.060466
H      0.246907     0.426070     1.164427
6
BHMC Sample 4
O     -2.558769     0.405087    -1.155085
H     -2.700987     1.282578    -1.527217
H     -1.894450     0.581225    -0.471782
O      0.002262     0.385192     0.095994
H      0.013984    -0.024654    -0.780048
H      0.051162    -0.383268     0.679736
6
BHMC Sample 5
O     -0.440790     0.280937    -0.206785
H     -1.197468     0.865449    -0.067457
H     -0.115535     0.571467    -1.070301
O      1.996879     1.751345    -0.075923
H      1.239431     1.249412     0.261394
H      2.724532     1.134482     0.065902
6
BHMC Sample 6
O     -0.336796    -0.051080     1.064526
H     -0.871128    -0.091837     0.259732
H     -0.369991    -0.963853     1.381651
O      2.400185     0.118092     0.099267
H      2.780866     0.872946     0.564452
H      1.494484     0.106438     0.449600
6
BHMC Sample 7
O      1.109030     1.500099     1.917858
H      0.236541     1.913736     1.926400
H      1.009154     0.832398     1.224385
O      0.880489    -1.304697     1.696711
H      0.966493    -0.659842     2.413839
H      1.768764    -1.681521     1.659206
6
BHMC Sample 8
O      1.561303    -1.446432     0.164743
H      0.654215    -1.412049     0.509043
H      2.054522    -0.988508     0.855135
O     -1.227987    -1.539008     0.974331
H     -1.354727    -2.488650     0.843929
H     -1.659101    -1.162992     0.195279
