6
Sampled Configuration 1
O      0.438404    -0.968815    -1.103373
H      1.182818    -0.553068    -1.512704
H      0.179364    -0.365285    -0.416441
O     -0.417909     0.919118     1.045043
H     -1.327403     1.163218     0.942024
H     -0.360048     0.543866     1.912861
6
Sampled Configuration 2
O      0.390083    -1.405619    -0.469370
H      1.057017    -1.690240     0.137868
H      0.160988    -0.531370    -0.175381
O     -0.372230     1.332043     0.445692
H     -0.198844     2.001028    -0.202125
H     -1.302501     1.388285     0.615428
6
Sampled Configuration 3
O      1.021979    -1.140217    -0.085526
H      0.388236    -0.434157    -0.033151
H      1.185941    -1.377036     0.815290
O     -0.969127     1.078605     0.079207
H     -0.659072     1.904253    -0.266843
H     -1.753899     0.884766    -0.415012
6
Sampled Configuration 4
O      0.619092    -1.249533    -0.637626
H      1.143242    -1.629313     0.052033
H      0.235476    -0.475264    -0.242121
O     -0.587500     1.183695     0.603038
H     -0.345647     1.981141     0.152650
H     -1.534470     1.168343     0.586384
