6
BHMC Sample 1
O     -0.144403    -0.080884    -0.350688
H      0.758011     0.088534    -0.124739
H     -0.615141    -0.006965     0.472495
O     -1.764377     0.263774     2.131339
H     -2.369296     0.976046     1.973775
H     -2.305959    -0.482066     2.350789
6
BHMC Sample 2
O     -0.140835    -0.122101    -0.340728
H      0.757850     0.095336    -0.140570
H     -0.605722     0.055577     0.469463
O     -1.558279     0.560176     2.182515
H     -2.276292     1.141740     1.971623
H     -1.951369    -0.149366     2.672022
6
BHMC Sample 3
O      1.870679    -0.965514    -2.454016
H      2.724031    -0.574526    -2.334584
H      1.380599    -0.691425    -1.687100
O      0.408156    -0.224366     0.040478
H     -0.372646     0.309005    -0.022339
H      0.120243    -1.036618     0.434534
6
BHMC Sample 4
O      1.878455    -0.990864    -2.432557
H      2.721524    -0.572165    -2.338210
H      1.364620    -0.636061    -1.715488
O      0.357820     0.064844    -0.105638
H     -0.385927     0.624211    -0.283231
H      0.003778    -0.670690     0.375902
6
BHMC Sample 5
O     -0.140835    -0.122101    -0.340728
H      0.757850     0.095336    -0.140570
H     -0.605722     0.055577     0.469463
O     -1.558279     0.560176     2.182515
H     -2.276292     1.141740     1.971623
H     -1.951369    -0.149366     2.672022
6
BHMC Sample 6
O     -0.153675    -0.032811    -0.355171
H      0.760349     0.077962    -0.137761
H     -0.587384    -0.071939     0.490089
O     -1.439806    -0.263696     2.315777
H     -1.960307    -1.055649     2.327053
H     -2.034053     0.425623     2.579016
6
BHMC Sample 7
O      2.013734     0.808713     2.345324
H      2.795580     0.280099     2.270566
H      1.505186     0.590321     1.573013
O      0.328174    -0.002835     0.016234
H     -0.205887     0.683510    -0.360187
H     -0.284646    -0.676824     0.276168
6
BHMC Sample 8
O      1.289907    -0.784893    -2.813119
H      2.146071    -0.407773    -2.955216
H      1.048365    -0.500159    -1.939508
O      0.442211     0.249012    -0.140992
H     -0.092142     1.023821    -0.247538
H     -0.082840    -0.340951     0.381955
6
BHMC Sample 9
O      1.150095    -1.283198    -2.690814
H      1.977695    -1.700971    -2.498918
H      0.912693    -0.844822    -1.881963
O      0.307823    -0.052123    -0.102446
H     -0.174027     0.760654    -0.174470
H     -0.269318    -0.639655     0.365619
6
BHMC Sample 10
O      1.869933    -0.950917    -2.464749
H      2.764345    -0.654215    -2.380605
H      1.424677    -0.575531    -1.713566
O      0.463490     0.249572    -0.114388
H     -0.078552     1.001951    -0.307866
H     -0.099278    -0.342518     0.364776
6
BHMC Sample 11
O     -0.073515     0.263685     0.282577
H      0.628004    -0.337839     0.059433
H     -0.692404     0.180284    -0.428272
O      2.087643    -1.724984    -0.289995
H      2.955014    -1.444406    -0.032803
H      1.938046    -2.529286     0.187620
6
BHMC Sample 12
O     -0.387637    -0.009118     0.041011
H      0.289420    -0.670211     0.055543
H      0.079364     0.818178     0.025045
O      0.898021     2.648873     0.320106
H      1.299339     2.691280     1.178670
H      0.167448     3.252720     0.362651
6
BHMC Sample 13
O     -0.362920     0.017637     0.141421
H      0.311973    -0.645791     0.147173
H     -0.034855     0.694442    -0.439093
O      0.355995     2.061720    -1.883728
H      0.336182     1.647957    -2.737184
H     -0.384999     2.654247    -1.883078
6
BHMC Sample 14
O     -0.784615     2.657824     1.678280
H     -0.412193     1.937890     1.180222
H     -0.114785     2.872993     2.311229
O      0.234171     0.247566     0.261577
H      0.217595     0.287070    -0.685308
H     -0.419383    -0.399276     0.492398
6
BHMC Sample 15
O      0.171164     0.269870    -0.296886
H      0.306650    -0.665436    -0.395410
H      0.956076     0.578102     0.131213
O      0.563893    -2.660876    -0.708965
H      0.628020    -2.854477    -1.634899
H     -0.167954    -3.177232    -0.399250
6
BHMC Sample 16
O     -1.430083     2.294753    -1.814867
H     -0.942308     1.605228    -1.379458
H     -0.842220     2.620686    -2.480230
O      0.100864     0.148561    -0.388488
H      0.392227     0.405459     0.476676
H     -0.388108    -0.654332    -0.255527
6
BHMC Sample 17
O      0.453607     0.140310     0.226549
H      0.531088    -0.760911    -0.067690
H      1.337134     0.386160     0.461823
O      0.667662    -2.684334    -0.727891
H      0.392771    -2.755483    -1.631856
H      0.094662    -3.269729    -0.251010
6
BHMC Sample 18
O     -0.188090     0.328436     0.237914
H      0.344461    -0.366071     0.607289
H     -0.297044     0.081733    -0.669322
O      1.476555    -1.876673     1.372787
H      2.279067    -1.580959     1.781596
H      1.037603    -2.392032     2.035097
6
BHMC Sample 19
O     -0.784615     2.657824     1.678280
H     -0.412193     1.937890     1.180222
H     -0.114785     2.872993     2.311229
O      0.234171     0.247566     0.261577
H      0.217595     0.287070    -0.685308
H     -0.419383    -0.399276     0.492398
6
BHMC Sample 20
O     -0.803275     2.650170     1.716681
H     -0.484493     1.883225     1.255736
H     -0.060487     2.946743     2.221966
O      0.107243     0.155697     0.353130
H     -0.080410     0.139794    -0.576229
H     -0.371370    -0.577437     0.714790
6
BHMC Sample 21
O     -2.506955    -1.460485     1.197793
H     -2.138698    -2.221631     1.622694
H     -1.750262    -0.942341     0.944951
O     -0.238974    -0.029872    -0.061372
H     -0.504961    -0.214287    -0.952938
H     -0.209553     0.916527    -0.005069
6
BHMC Sample 22
O      1.988470     1.322996     1.147959
H      1.909726     1.628961     2.040245
H      1.489915     0.515511     1.122269
O     -0.381598     0.128315    -0.027788
H     -0.350671    -0.274739    -0.884325
H     -0.061202     1.010270    -0.164626
6
BHMC Sample 23
O      1.984192     1.328247     1.138247
H      1.883742     1.629410     2.029534
H      1.541166     0.488849     1.113531
O     -0.208610    -0.010994    -0.235019
H     -0.048815    -0.401972    -1.082739
H      0.096028     0.882438    -0.321250
6
BHMC Sample 24
O     -0.120785     0.129163    -0.438774
H     -0.032005     0.397486     0.467202
H     -0.555826    -0.710967    -0.404362
O      1.908679     1.161713     1.323956
H      1.970827     0.846853     0.430655
H      2.076813     2.091731     1.263627
6
BHMC Sample 25
O     -0.010851     0.040902     0.151930
H      0.638863     0.027095    -0.537854
H      0.429035     0.434052     0.894821
O     -0.558642     2.390594     1.745222
H     -0.959216     1.973430     0.992716
H     -1.209756     2.332117     2.430438
6
BHMC Sample 26
O      1.984192     1.328247     1.138247
H      1.883742     1.629410     2.029534
H      1.541166     0.488849     1.113531
O     -0.208610    -0.010994    -0.235019
H     -0.048815    -0.401972    -1.082739
H      0.096028     0.882438    -0.321250
6
BHMC Sample 27
O      0.185075    -0.130221    -0.389295
H      1.106069     0.008479    -0.201760
H     -0.241797    -0.065177     0.452155
O      3.122343     0.403909    -0.046174
H      3.314959     1.144246    -0.604568
H      3.642999    -0.302194    -0.402716
6
BHMC Sample 28
O     -3.146598     0.519381     1.055293
H     -3.333221    -0.278553     1.527799
H     -2.272689     0.391753     0.705492
O     -0.409683     0.073810    -0.061593
H     -0.408462    -0.137928    -0.985199
H      0.163232     0.824991     0.021223
6
BHMC Sample 29
O      0.570107    -2.773738     0.121930
H      0.897124    -3.306616     0.835887
H      1.204548    -2.074332     0.025538
O      0.321806     0.100792     0.082794
H      0.036314     0.402827    -0.767298
H     -0.252959    -0.625979     0.290309
6
BHMC Sample 30
O     -0.161404    -0.087155    -0.348187
H      0.752975     0.097538    -0.168091
H     -0.590929    -0.003620     0.490274
O      2.791318     0.339512     0.012321
H      3.204533    -0.454211    -0.297940
H      3.113257     1.015283    -0.567744
6
BHMC Sample 31
O     -0.163480    -0.072593    -0.350539
H      0.757494     0.066138    -0.162973
H     -0.590385    -0.007546     0.490892
O      2.773730     0.461519    -0.007434
H      2.966399     1.201856    -0.565814
H      3.294450    -0.244525    -0.363972
6
BHMC Sample 32
O     -3.068840    -0.981163     0.029726
H     -2.198256    -0.635864     0.189156
H     -3.471556    -1.016079     0.884767
O     -0.235292    -0.022813     0.314617
H     -0.068662     0.725521    -0.241050
H      0.305641    -0.710544    -0.048070
6
BHMC Sample 33
O      0.293322     0.272052     3.197078
H      0.029410     0.194479     2.287743
H     -0.494086     0.093746     3.689708
O     -0.287212    -0.042167     0.265716
H     -0.043675     0.734829    -0.217507
H      0.310078    -0.708885    -0.043894
6
BHMC Sample 34
O      0.353630     0.105034     0.136944
H      0.101538    -0.017796    -0.770758
H     -0.429018    -0.091470     0.630239
O     -0.254632    -0.103064    -2.798239
H      0.346038    -0.692481    -3.232188
H     -0.054036     0.747899    -3.162594
6
BHMC Sample 35
O      0.356402     0.101700     0.117338
H      0.051973    -0.015215    -0.770179
H     -0.400722    -0.089900     0.659849
O     -1.891924    -0.361486     2.033316
H     -1.695079    -1.018052     2.687698
H     -2.011032     0.446217     2.514509
6
BHMC Sample 36
O     -2.454388    -0.537861    -2.015213
H     -2.233080    -0.547699    -2.934448
H     -1.625376    -0.406436    -1.568320
O      0.001221    -0.043212    -0.382649
H      0.152756    -0.708959     0.274500
H     -0.149139     0.758108     0.100428
6
BHMC Sample 37
O     -0.348254    -0.037883     0.179235
H     -0.174721    -0.074054    -0.754110
H      0.500308     0.097762     0.574240
O     -0.049779    -0.061342    -2.810593
H     -0.418987    -0.848260    -3.186087
H     -0.606695     0.635361    -3.129295
6
BHMC Sample 38
O     -0.398887    -0.087134     0.135498
H     -0.074305    -0.022766    -0.751322
H      0.357191     0.096582     0.684243
O      2.079151     0.176169     1.844057
H      2.018625    -0.443028     2.560876
H      2.938912     0.037571     1.470353
6
BHMC Sample 39
O     -2.848716    -0.107389    -1.612869
H     -3.397776    -0.661083    -1.076308
H     -2.088791     0.079054    -1.070394
O     -0.313267     0.196512     0.002093
H     -0.113120    -0.408762     0.703275
H      0.428361     0.144891    -0.587996
6
BHMC Sample 40
O     -2.083535     2.263813    -1.308715
H     -2.958732     2.170209    -0.962597
H     -1.569078     1.619568    -0.834961
O     -0.274334     0.252645    -0.034532
H     -0.219170    -0.406669     0.641584
H      0.496160     0.130470    -0.571092
6
BHMC Sample 41
O      0.071247     1.695403     2.569382
H     -0.656377     2.259493     2.784734
H     -0.077555     1.451059     1.662800
O     -0.287083     0.221008     0.007264
H     -0.235533    -0.554564     0.549823
H      0.488094     0.184341    -0.536563
6
BHMC Sample 42
O     -0.187176    -0.017929    -0.147055
H      0.635527     0.118475    -0.591164
H     -0.728083    -0.504904    -0.754539
O     -2.904514    -0.793275     0.168169
H     -2.803670    -1.493978     0.798409
H     -2.373190    -0.089907     0.519253
6
BHMC Sample 43
O     -0.340655     0.054220     0.189358
H     -0.061822     0.325967    -0.678266
H      0.453011    -0.239692     0.611434
O      0.398353     0.858246    -2.587465
H     -0.119629     0.364528    -3.211185
H      0.212028     1.769030    -2.778323
6
BHMC Sample 44
O     -3.021462    -0.840134     0.337841
H     -2.155666    -0.540638     0.080047
H     -3.357124    -1.269202    -0.435645
O     -0.185037    -0.130236    -0.283342
H      0.282569    -0.733016     0.282312
H      0.075615     0.731709     0.011861
6
BHMC Sample 45
O      0.409559    -0.049162     0.108370
H     -0.249448     0.563559     0.409038
H      0.021859    -0.462705    -0.648593
O     -1.710937     1.753227     1.200379
H     -1.972235     1.335497     2.009492
H     -1.399328     2.610977     1.454665
6
BHMC Sample 46
O     -3.021463    -0.840134     0.337841
H     -2.155666    -0.540638     0.080048
H     -3.357124    -1.269202    -0.435646
O     -0.185037    -0.130236    -0.283342
H      0.282571    -0.733016     0.282311
H      0.075614     0.731709     0.011860
6
BHMC Sample 47
O     -2.587705     1.235141     1.113178
H     -1.848629     0.826578     0.677540
H     -3.167524     1.487942     0.408892
O     -0.170103     0.041219    -0.161372
H      0.048749    -0.810193     0.195296
H      0.577984     0.590116     0.033393
6
BHMC Sample 48
O     -3.001359    -0.861310     0.360157
H     -2.185837    -0.882192    -0.129851
H     -3.668903    -1.062440    -0.280134
O     -0.385930    -0.948396    -1.067572
H      0.169677    -1.623824    -0.701446
H      0.096324    -0.140338    -0.947968
6
BHMC Sample 49
O      2.322101    -1.863901     0.676056
H      1.626809    -1.359393     0.267091
H      1.991025    -2.749005     0.695995
O     -0.000100    -0.231842    -0.137857
H      0.113729     0.577015    -0.616421
H     -0.254043     0.030538     0.736223
6
BHMC Sample 50
O      0.330630     0.156117    -0.052766
H      0.094414    -0.725053    -0.310652
H     -0.415087     0.451138     0.453355
O     -0.106933    -0.614119     2.705153
H      0.640738    -0.378732     2.172024
H      0.131562    -0.379930     3.589582
6
BHMC Sample 51
O     -0.255723     0.037483    -0.241141
H     -0.077810    -0.881639    -0.389749
H     -1.020802     0.053338     0.319339
O     -0.725711     1.637915    -2.716271
H     -0.123640     2.365449    -2.656538
H     -0.544693     1.119815    -1.942558
6
BHMC Sample 52
O      0.168453     0.170381    -0.281194
H      0.281271    -0.741422    -0.047486
H     -0.537946     0.461926     0.280304
O     -2.618865    -0.394031    -0.832426
H     -1.855313    -0.160071    -1.343182
H     -3.358983    -0.073978    -1.326116
6
BHMC Sample 53
O      0.058070    -1.198496    -0.583336
H      0.013616    -2.143710    -0.634103
H     -0.589113    -0.967452     0.069893
O     -2.666619    -0.326483    -0.853570
H     -1.941990    -0.353531    -1.465035
H     -3.413650    -0.031209    -1.354592
6
BHMC Sample 54
O      3.015658     0.476041    -0.100417
H      3.896661     0.662962     0.185841
H      2.477937     0.532600     0.677201
O      0.254238    -0.113963    -0.245284
H      0.462979     0.664381    -0.744353
H      0.930641    -0.722022    -0.510208
6
BHMC Sample 55
O      0.197879    -0.137059    -0.387200
H      1.107368     0.032620    -0.168571
H     -0.260664    -0.068309     0.437649
O      3.062147     0.522247     0.066815
H      3.260593     1.289594    -0.452641
H      3.670792    -0.139094    -0.233270
6
BHMC Sample 56
O     -2.998135    -1.130168    -0.241651
H     -2.164263    -0.731480    -0.019983
H     -3.450433    -1.206406     0.586299
O     -0.270844    -0.035661     0.272186
H     -0.069793     0.732254    -0.245524
H      0.340145    -0.696019    -0.025914
6
BHMC Sample 57
O     -0.124102    -0.104384    -0.351309
H      0.704035     0.292487    -0.126113
H     -0.581052    -0.190071     0.478432
O     -1.614458    -0.569380     2.197826
H     -2.484294    -0.193440     2.199962
H     -1.745859    -1.505792     2.262778
6
BHMC Sample 58
O      1.968303     0.966648     2.357995
H      2.780492     1.328685     2.036578
H      1.464265     0.778106     1.573767
O      0.334177     0.187606    -0.020702
H     -0.535700     0.563456    -0.019993
H      0.202692    -0.748987     0.041381
6
BHMC Sample 59
O      1.752689     1.349772     2.339882
H      2.496677     1.832887     2.012690
H      1.361479     0.960776     1.565144
O      0.334594     0.186853    -0.020660
H     -0.535540     0.562704    -0.020678
H      0.203311    -0.749582     0.042128
6
BHMC Sample 60
O     -2.329498    -2.114275     0.456484
H     -1.547768    -1.774460     0.038337
H     -2.004840    -2.576110     1.215464
O     -0.094223    -0.533896    -0.745772
H      0.512111    -0.072042    -0.182093
H     -0.697633     0.132824    -1.046067
6
BHMC Sample 61
O      0.960884    -2.557613    -1.982451
H      1.872989    -2.657879    -1.754920
H      0.669111    -1.808035    -1.477533
O      0.132444    -0.179312    -0.308160
H      0.683975     0.305122     0.289917
H     -0.748459    -0.066955     0.021853
6
BHMC Sample 62
O      0.862491    -1.366605    -2.963662
H      1.739006    -1.036070    -3.091048
H      0.605782    -1.041464    -2.109072
O      0.138680    -0.254806    -0.245965
H      0.684932     0.293531     0.299466
H     -0.750726    -0.039515    -0.000753
6
BHMC Sample 63
O     -0.268566    -0.221074    -0.225056
H      0.555620     0.149427    -0.518883
H     -0.350358     0.068730     0.671554
O      2.352041     1.014771    -1.091953
H      2.920820     1.563236    -0.568970
H      2.524161     1.264565    -1.989933
6
BHMC Sample 64
O      1.617049     1.406619     2.298078
H      2.140875     2.066600     1.860141
H      1.589427     0.685382     1.686779
O      3.304339     3.502031     0.969073
H      3.887255     3.887885     1.608991
H      2.842429     4.234912     0.581069
6
BHMC Sample 65
O     -0.150694    -0.079424    -0.348447
H      0.758794     0.090255    -0.129817
H     -0.609238    -0.010675     0.476402
O      2.713573     0.579881     0.105569
H      2.912019     1.347229    -0.413889
H      3.322218    -0.081460    -0.194517
6
BHMC Sample 66
O     -3.012310    -1.114837    -0.115661
H     -2.167706    -0.719130     0.068242
H     -3.432625    -1.179262     0.729649
O     -0.268828    -0.034774     0.273708
H     -0.070228     0.732350    -0.245866
H      0.339796    -0.696343    -0.026192
6
BHMC Sample 67
O     -0.144403    -0.080884    -0.350688
H      0.758011     0.088534    -0.124739
H     -0.615141    -0.006965     0.472495
O     -1.764377     0.263774     2.131339
H     -2.369296     0.976046     1.973775
H     -2.305959    -0.482066     2.350789
6
BHMC Sample 68
O     -0.087979    -3.062449    -1.033263
H      0.542439    -3.188774    -1.725587
H     -0.116571    -2.121415    -0.908613
O      0.032904    -0.173621    -0.420890
H      0.619709    -0.105158     0.316807
H     -0.791355     0.173121    -0.106739
6
BHMC Sample 69
O     -3.132919    -0.694693    -0.180215
H     -2.223430    -0.525014     0.038416
H     -3.591462    -0.625944     0.644635
O     -0.268652    -0.035388     0.273802
H     -0.070205     0.731961    -0.245655
H      0.339995    -0.696729    -0.026284
6
BHMC Sample 70
O     -0.150694    -0.079424    -0.348447
H      0.758794     0.090255    -0.129817
H     -0.609238    -0.010675     0.476402
O      2.713573     0.579881     0.105569
H      2.912019     1.347229    -0.413889
H      3.322218    -0.081460    -0.194517
6
BHMC Sample 71
O     -0.230408    -3.151193     0.576138
H      0.372417    -3.631652     0.027490
H     -0.144585    -2.249851     0.287234
O      0.110221    -0.292140    -0.216295
H      0.412990     0.201756     0.533948
H     -0.665866     0.162087    -0.514401
6
BHMC Sample 72
O     -0.144403    -0.080884    -0.350688
H      0.758011     0.088534    -0.124739
H     -0.615141    -0.006965     0.472495
O     -1.764377     0.263774     2.131339
H     -2.369296     0.976046     1.973775
H     -2.305959    -0.482066     2.350789
6
BHMC Sample 73
O     -0.296515    -0.347932     0.728099
H      0.603877    -0.069968     0.596875
H     -0.462658    -0.174100     1.642200
O      2.529186     0.536822     0.313053
H      2.609488     1.262334    -0.290600
H      3.046611    -0.158921    -0.068224
6
BHMC Sample 74
O      0.460742    -1.000990    -0.122755
H      1.014099    -0.287075    -0.416778
H     -0.042171    -0.629885     0.586108
O      2.230383     1.232001    -1.036016
H      3.042382     1.425226    -0.592297
H      2.452714     1.175734    -1.954948
6
BHMC Sample 75
O     -0.209082    -0.254526     1.100745
H      0.677844    -0.003546     0.865812
H     -0.251198    -0.110787     2.034759
O      2.574653     0.543826     0.359745
H      2.597587     1.259684    -0.260997
H      3.055883    -0.158430    -0.056679
6
BHMC Sample 76
O     -0.049907    -0.012602    -0.419823
H      0.873532    -0.098755    -0.631297
H     -0.070189    -0.013741     0.525494
O      2.858168    -0.314581    -1.068915
H      3.035951    -1.094564    -1.577451
H      3.178864     0.400868    -1.600843
6
BHMC Sample 77
O     -1.290105     0.248904     3.291916
H     -1.044493     0.201472     2.374146
H     -2.234078     0.300529     3.274730
O     -0.535107     0.069937     0.399281
H     -0.062879    -0.726867     0.197547
H      0.048353     0.770371     0.141162
6
BHMC Sample 78
O      0.202924    -0.047596     0.352944
H     -0.133930     0.098145    -0.518869
H     -0.545101     0.098483     0.919916
O     -2.236271     0.426753     1.984464
H     -2.344225     1.213665     2.500312
H     -2.556415    -0.276991     2.531522
6
BHMC Sample 79
O      3.154725    -0.602891     2.027723
H      2.427822    -0.054868     1.770741
H      3.198289    -1.265578     1.348242
O      3.140373    -2.592399    -0.170302
H      3.788503    -2.550591    -0.860205
H      3.041824    -3.514544     0.024591
6
BHMC Sample 80
O      0.305909     0.013143    -0.960710
H      1.164852     0.115240    -0.567682
H     -0.277713    -0.074967    -0.220792
O      3.057048     0.520909     0.061235
H      3.264950     1.291167    -0.450829
H      3.671932    -0.137984    -0.232759
6
BHMC Sample 81
O      0.090129     0.094317     0.078728
H      0.580266    -0.266969    -0.646477
H     -0.811809     0.088684    -0.223712
O     -2.596279     0.134261    -1.247772
H     -3.305450    -0.487699    -1.325909
H     -2.913265     0.927558    -1.658197
6
BHMC Sample 82
O      1.028714     1.897681     2.845198
H      1.937796     1.676841     2.985089
H      0.775061     1.374822     2.093519
O      0.409160     0.192692     0.500089
H      0.336721     0.573231    -0.364630
H     -0.286664    -0.448692     0.550065
6
BHMC Sample 83
O     -0.264045     2.505371     2.531403
H     -0.990807     3.053497     2.274217
H     -0.220280     1.842705     1.851917
O     -0.278355     0.515873     0.333205
H      0.369921     0.557624    -0.356571
H     -0.376943    -0.406255     0.528151
6
BHMC Sample 84
O     -2.796669    -1.339507    -0.631573
H     -2.044070    -0.866959    -0.295464
H     -3.398074    -1.365667     0.098825
O     -0.273416    -0.037890     0.268401
H     -0.068722     0.732187    -0.245160
H      0.344175    -0.694850    -0.024368
6
BHMC Sample 85
O      0.322816    -0.184228     0.143934
H     -0.403991     0.363865    -0.113190
H      0.366523    -0.846902    -0.535548
O      0.308508    -2.173726    -2.054208
H      0.956733    -2.131965    -2.744030
H      0.209919    -3.095858    -1.859280
6
BHMC Sample 86
O      0.269393    -0.220066     0.194631
H     -0.359113     0.393923    -0.155738
H      0.105214    -1.022047    -0.287673
O     -0.372843    -2.630501    -1.407595
H     -0.857359    -3.348032    -1.022650
H      0.296036    -3.038162    -1.940943
6
BHMC Sample 87
O     -3.024889    -0.544491    -0.753724
H     -2.165946    -0.442394    -0.360695
H     -3.608510    -0.632602    -0.013806
O     -0.273750    -0.036725     0.268222
H     -0.065848     0.733534    -0.243843
H      0.341135    -0.695619    -0.025773
6
BHMC Sample 88
O      0.477614     1.030573     2.953698
H      0.199174     0.621192     2.142799
H     -0.243749     0.880519     3.547815
O     -0.268281    -0.034266     0.274011
H     -0.070937     0.731245    -0.249230
H      0.340242    -0.696020    -0.026718
6
BHMC Sample 89
O      0.253774     0.200757     0.273708
H     -0.188621     1.038923     0.203094
H     -0.209888    -0.360397    -0.330235
O     -1.076492     2.861123     0.034447
H     -0.455214     3.519792    -0.243847
H     -1.437220     3.189439     0.846558
6
BHMC Sample 90
O     -1.117028    -0.525857     3.065794
H     -0.947011    -0.385013     2.141340
H     -1.782454     0.109530     3.284009
O     -0.334602    -0.066059     0.183437
H     -0.017624     0.756582    -0.161355
H      0.325296    -0.701138    -0.050479
6
BHMC Sample 91
O     -1.925918     0.925800     2.436739
H     -1.496549     0.640199     1.638895
H     -2.827476     1.064831     2.185078
O     -0.426592     0.078971    -0.001427
H      0.218994     0.741444    -0.208359
H      0.074345    -0.704507     0.178577
6
BHMC Sample 92
O      0.008209    -0.252663     0.326683
H      0.505792    -0.445934    -0.459165
H     -0.367788     0.600758     0.166153
O      1.561070    -1.027214    -2.102326
H      1.157109    -1.790985    -2.492252
H      2.432110    -1.307790    -1.858038
6
BHMC Sample 93
O      0.232569    -0.296469     0.062927
H     -0.135508     0.293636     0.713382
H     -0.137112     0.001511    -0.756922
O     -0.946614     1.599627     2.023456
H     -0.326505     2.122193     2.514598
H     -1.511698     1.209084     2.677672
6
BHMC Sample 94
O     -0.071119    -0.173150     0.361395
H      0.688873    -0.120005    -0.198739
H     -0.711950     0.392922    -0.053177
O     -2.192416     1.551690    -0.837882
H     -2.933268     1.022061    -1.098024
H     -2.527742     2.131825    -0.168450
6
BHMC Sample 95
O      1.162721    -2.355560     1.908313
H      0.841929    -2.229088     2.789310
H      0.784425    -1.635824     1.415824
O     -0.017929    -0.105782     0.368001
H      0.636530     0.462892    -0.014176
H     -0.548710    -0.395794    -0.361798
6
BHMC Sample 96
O     -0.091990    -0.120432     0.359110
H      0.529191    -0.527889    -0.224431
H     -0.497312     0.557091    -0.166848
O     -1.386360     1.971090    -1.331075
H     -1.272717     2.863927    -1.039788
H     -2.319417     1.860963    -1.436719
6
BHMC Sample 97
O      1.114955    -2.022524     2.294400
H      0.721133    -1.785955     3.119820
H      0.773090    -1.384632     1.680938
O     -0.013880    -0.035715     0.374493
H      0.615152     0.530074    -0.048742
H     -0.515679    -0.419482    -0.328952
6
BHMC Sample 98
O      0.206423    -0.266446    -0.130242
H     -0.105104    -0.160720     0.756268
H     -0.175348     0.463518    -0.603722
O     -0.976705     1.997815    -1.669576
H     -0.312355     2.545887    -2.063665
H     -1.495879     1.679101    -2.394538
6
BHMC Sample 99
O     -3.012310    -1.114837    -0.115661
H     -2.167706    -0.719130     0.068242
H     -3.432625    -1.179262     0.729649
O     -0.268828    -0.034774     0.273708
H     -0.070228     0.732350    -0.245866
H      0.339796    -0.696343    -0.026192
6
BHMC Sample 100
O      0.264004    -0.124158     0.017081
H     -0.118215     0.009874     0.871391
H     -0.096410     0.576170    -0.514193
O     -0.947180     2.023035    -1.651126
H     -0.353574     2.616801    -2.089285
H     -1.486646     1.660207    -2.339749
6
BHMC Sample 101
O      0.316122    -0.210324    -0.115682
H      0.152221     0.151800     0.742482
H     -0.393318     0.125495    -0.653262
O     -1.870051     1.016267    -1.811849
H     -2.370632     0.406803    -2.335652
H     -1.423048     1.565121    -2.439744
6
BHMC Sample 102
O      2.296079    -1.470266     1.914021
H      2.626637    -2.029276     1.226949
H      1.711886    -0.875166     1.458979
O      0.325555    -0.123273     0.156237
H     -0.510728    -0.566378     0.160272
H      0.180930     0.681367    -0.320335
6
BHMC Sample 103
O     -3.025990    -1.084912    -0.118408
H     -2.146315    -0.783273     0.076561
H     -3.436755    -1.177751     0.728610
O     -0.188714    -0.341933     0.455874
H      0.171882     0.338022    -0.096352
H      0.324410    -1.114264     0.261964
6
BHMC Sample 104
O     -0.130921     0.573947     3.169362
H     -0.223861     0.462062     2.230387
H     -0.964735     0.301238     3.523157
O     -0.303645     0.037230     0.234390
H      0.052334     0.715232    -0.323208
H      0.241995    -0.721277     0.078386
6
BHMC Sample 105
O     -0.111305     0.534872     3.167770
H     -0.460085     0.609607     2.287134
H     -0.848108     0.247496     3.687252
O     -1.325756     0.851180     0.434506
H     -1.443915     1.755273     0.177932
H     -0.899340     0.438456    -0.303412
6
BHMC Sample 106
O      0.327026     0.095327     0.197347
H      0.056236    -0.110096    -0.689893
H     -0.445903    -0.062274     0.719865
O     -0.583041    -0.682225    -2.561853
H     -0.220458    -1.505168    -2.859355
H     -0.439979    -0.076600    -3.275621
6
BHMC Sample 107
O      0.799479     0.421002     3.107305
H      0.526467     0.242628     2.214915
H     -0.003818     0.635916     3.558719
O     -0.138288    -0.017474     0.283338
H      0.119100    -0.811888    -0.163186
H      0.099862     0.685352    -0.305353
6
BHMC Sample 108
O     -0.019979     0.022753     0.391415
H      0.282026    -0.705756    -0.132565
H     -0.328792     0.656122    -0.246855
O     -1.021401     1.894833    -1.718322
H     -0.623057     2.754625    -1.744842
H     -1.953097     2.061720    -1.670175
6
BHMC Sample 109
O      0.297948     0.080341     0.205160
H      0.427870    -0.443750    -0.571922
H     -0.616832     0.336472     0.167720
O     -2.544044     0.979406     0.089749
H     -3.055163     0.748141     0.854221
H     -2.580395     1.926319     0.048521
6
BHMC Sample 110
O      0.032507    -0.373263    -0.140133
H     -0.659448     0.268120    -0.244959
H      0.687252     0.060919     0.384940
O     -2.100475     1.489404    -1.013903
H     -1.759256     1.586575    -1.892564
H     -2.883823     0.963911    -1.111404
6
BHMC Sample 111
O     -0.027510    -0.362658    -0.167151
H     -0.705603     0.296998    -0.193882
H      0.683789     0.043686     0.316362
O      2.497777     0.744198     0.912098
H      2.914603     0.834257     0.064942
H      2.952184     0.024582     1.333153
6
BHMC Sample 112
O      0.112183    -0.167425    -0.403015
H     -0.637821     0.214086     0.037617
H      0.790740    -0.181032     0.255935
O     -2.072349     1.216208     1.156692
H     -2.544228     0.971583     1.940625
H     -2.155084     2.158115     1.099106
6
BHMC Sample 113
O      0.055880    -0.349328    -0.186725
H     -0.693795     0.232948    -0.176491
H      0.693136     0.066944     0.373211
O     -2.580637     0.997700    -0.056729
H     -2.967458     0.349338     0.515909
H     -2.989683     0.855507    -0.900378
6
BHMC Sample 114
O      0.128975     0.459865    -0.434608
H      1.046936     0.373886    -0.204935
H     -0.313227     0.577064     0.393462
O      3.069152     0.549621     0.073508
H      3.291603     1.302718    -0.457708
H      3.634752    -0.145349    -0.232894
6
BHMC Sample 115
O     -0.161694    -0.062000    -0.348119
H      0.763471    -0.008034    -0.138455
H     -0.601499     0.101838     0.473291
O      2.761554    -0.301533     0.207045
H      2.899475    -1.191428    -0.089474
H      3.389686     0.219693    -0.273108
6
BHMC Sample 116
O     -0.282017    -0.351926     3.179568
H     -0.289287    -0.071417     2.271789
H     -1.126419    -0.089788     3.516099
O     -0.281770     0.118681     0.231772
H     -0.142856    -0.771451    -0.063569
H      0.405614     0.625513    -0.177367
6
BHMC Sample 117
O     -2.105661     2.421076     0.112540
H     -1.480445     1.713170     0.209950
H     -2.347074     2.644773     1.000040
O     -0.136610     0.174405     0.299956
H     -0.477560    -0.612630    -0.101514
H      0.649062     0.379464    -0.189994
6
BHMC Sample 118
O      0.211463     0.169390     3.186974
H      0.066757     0.310651     2.258446
H     -0.363354     0.788002     3.613081
O     -0.163363     0.531001     0.242221
H     -0.498259    -0.253622    -0.170110
H      0.666455     0.698388    -0.183612
6
BHMC Sample 119
O      0.219270     0.179261     3.188150
H      0.064441     0.292181     2.257428
H     -0.374460     0.788811     3.601045
O     -0.206451     0.469695     0.242287
H     -0.554952    -0.327495    -0.132344
H      0.621227     0.606803    -0.197822
6
BHMC Sample 120
O     -0.314783    -0.422249     3.193057
H     -0.466563    -0.399630     2.255214
H     -0.891429     0.242030     3.540894
O     -0.723250    -0.367888     0.237364
H     -1.038276    -1.190275    -0.111840
H      0.100132    -0.212541    -0.204393
6
BHMC Sample 121
O     -0.105862     0.165925    -0.343653
H      0.780079    -0.038709    -0.082101
H     -0.639344    -0.103640     0.395249
O     -1.857153    -0.621975     1.941907
H     -2.490926    -1.282534     1.697483
H     -2.372849     0.124020     2.216325
6
BHMC Sample 122
O      0.220169     0.178600     3.205334
H      0.057569     0.197673     2.269184
H     -0.333696     0.861893     3.555579
O     -0.191002     0.229760     0.250335
H     -0.493504    -0.594650    -0.107519
H      0.635532     0.397696    -0.182294
6
BHMC Sample 123
O      3.093888    -0.025225     0.398210
H      3.613258    -0.596869     0.940149
H      2.196213    -0.234922     0.628072
O      0.244773    -0.795203     1.019970
H     -0.151303    -1.374937     0.385983
H     -0.383218    -0.100059     1.148591
6
BHMC Sample 124
O     -1.208839    -0.357735     0.946851
H     -0.472942    -0.958561     0.894934
H     -1.659632    -0.472772     0.123303
O      0.967740    -2.427747     0.739098
H      1.667877    -2.347432     1.375330
H      0.677177    -3.327816     0.807293
6
BHMC Sample 125
O     -0.061767     0.318435     0.255713
H      0.594346    -0.370411     0.271414
H     -0.594483     0.113023    -0.498407
O      2.067730    -1.803511     0.087866
H      2.597821    -1.910789     0.868208
H      2.691094    -1.695375    -0.618482
6
BHMC Sample 126
O     -0.111379     0.263707     0.297757
H      0.624519    -0.337118     0.245840
H     -0.562172     0.148670    -0.525791
O      2.065202    -1.806306     0.090005
H      2.765338    -1.725988     0.726237
H      1.774638    -2.706374     0.158200
6
BHMC Sample 127
O      3.191918     0.080748     0.428898
H      3.443742    -0.563429     1.077633
H      2.249676    -0.023091     0.344563
O      0.212996    -0.200266     0.279374
H     -0.185447    -0.594004    -0.485683
H     -0.231363     0.630625     0.390372
6
BHMC Sample 128
O     -0.146620    -0.065408    -0.353434
H      0.758764     0.085611    -0.123859
H     -0.612480    -0.031042     0.474869
O     -1.731693     0.076464     2.172139
H     -2.297779     0.834130     2.133026
H     -2.312746    -0.663518     2.286711
6
BHMC Sample 129
O     -0.141887    -0.105462    -0.344379
H      0.760286     0.080815    -0.130007
H     -0.613477     0.057282     0.464859
O     -1.650723     0.642470     2.127918
H     -2.002460     1.510528     1.982717
H     -2.404568     0.099991     2.313443
6
BHMC Sample 130
O      2.372089    -0.026947     2.192302
H      3.204334     0.040935     1.748083
H      1.740069    -0.135835     1.490561
O      0.365417    -0.121892    -0.024113
H      0.019071     0.755293    -0.118528
H     -0.390048    -0.667115     0.146152
6
BHMC Sample 131
O      2.303378    -0.286854     2.246318
H      2.954935    -0.902256     1.944128
H      1.733140    -0.161905     1.495973
O      0.375042    -0.085494    -0.031671
H     -0.009659     0.771437    -0.152844
H     -0.353877    -0.655126     0.174617
6
BHMC Sample 132
O      0.176464     0.128956    -0.356855
H      0.424421    -0.643928     0.137233
H     -0.624268     0.421066     0.051614
O      0.834096    -2.374108     1.116196
H      1.712286    -2.451482     1.465890
H      0.740764    -3.108242     0.525450
6
BHMC Sample 133
O     -0.065597     0.108881     0.365637
H      0.611769    -0.473507     0.054891
H     -0.518198     0.384312    -0.423727
O     -1.327475     1.162780    -2.133405
H     -2.259575     1.319475    -2.073018
H     -0.945101     2.014721    -2.295717
6
BHMC Sample 134
O     -0.171617     0.099399     0.333144
H      0.737449    -0.142620     0.230216
H     -0.551094    -0.021271    -0.529597
O     -1.590048    -0.302058    -2.258844
H     -2.085478     0.478954    -2.467017
H     -2.241306    -0.976294    -2.117764
6
BHMC Sample 135
O     -0.239460    -0.258657     0.167776
H      0.033117    -0.175563    -0.737190
H      0.174681     0.476772     0.594413
O      1.178944     0.238246    -2.394534
H      1.415049     1.087447    -2.737841
H      1.941502    -0.308445    -2.522586
6
BHMC Sample 136
O      0.155991     0.807176     0.848888
H      0.580472     0.760164     0.001674
H      0.627158     1.493764     1.297205
O      1.554548     1.321078    -1.720964
H      2.452757     1.603181    -1.812548
H      1.058302     1.852566    -2.327614
6
BHMC Sample 137
O     -2.039895     0.285080     2.552005
H     -1.678080     0.100877     1.694364
H     -1.321213     0.107506     3.140548
O     -0.342115    -0.055649     0.138254
H     -0.033779     0.759910    -0.231459
H      0.379142    -0.661663     0.053120
6
BHMC Sample 138
O     -0.374224     0.040799     0.103552
H      0.027964     0.060634    -0.755629
H      0.359605    -0.060228     0.691515
O      1.318252    -0.326604    -2.309990
H      1.291498    -1.203453    -2.666763
H      2.215776    -0.042488    -2.401916
6
BHMC Sample 139
O      0.034330    -0.389232     0.158458
H      0.538019     0.150264    -0.437635
H     -0.672650     0.168332     0.451162
O      1.523189     1.425381    -1.737696
H      2.457513     1.568142    -1.711241
H      1.231310     1.843039    -2.535449
6
BHMC Sample 140
O     -0.361233     0.106404     0.103050
H      0.000550    -0.077814    -0.754571
H      0.357434    -0.071187     0.691599
O      1.336521    -0.234337    -2.310696
H      1.644868     0.581207    -2.680390
H      2.057799    -0.840335    -2.395823
6
BHMC Sample 141
O     -1.368336     1.268828     2.696728
H     -1.150632     1.074846     1.793889
H     -1.264443     0.437437     3.135341
O     -0.253748     0.231346     0.146145
H     -0.360042    -0.648702    -0.183960
H      0.659213     0.444266     0.012281
6
BHMC Sample 142
O     -0.374224     0.040799     0.103552
H      0.027964     0.060634    -0.755629
H      0.359605    -0.060228     0.691515
O      1.318252    -0.326604    -2.309990
H      1.291498    -1.203453    -2.666763
H      2.215776    -0.042488    -2.401916
6
BHMC Sample 143
O      0.554466    -0.905386    -2.448790
H      1.107262    -1.155212    -3.175617
H      0.137866    -0.100921    -2.735910
O     -0.896606     1.500804    -3.400358
H     -1.826476     1.363188    -3.278601
H     -0.728565     2.369721    -3.061272
6
BHMC Sample 144
O      0.604882    -0.952704    -2.388602
H      1.068355    -1.007939    -3.210551
H      0.052096    -0.183693    -2.473434
O     -1.267502     1.381429    -2.536014
H     -2.127880     1.058008    -2.305461
H     -1.098799     2.084206    -1.919663
6
BHMC Sample 145
O     -0.358356     0.120258     0.071215
H      0.171494    -0.501155     0.553631
H      0.184289     0.355763    -0.666327
O      1.812286    -1.425295     1.389918
H      2.261419    -0.908524     2.043361
H      2.493344    -1.879743     0.916926
6
BHMC Sample 146
O      0.103827    -0.298871     0.260531
H      0.554279     0.249842    -0.371367
H     -0.802844    -0.041569     0.186139
O      1.414302     1.471691    -1.795868
H      2.027377     1.047889    -2.380899
H      1.804854     2.314624    -1.604588
6
BHMC Sample 147
O     -0.151077    -0.076764    -0.348878
H      0.759382     0.086171    -0.129156
H     -0.609272    -0.010436     0.476363
O      2.760989     0.250143     0.158904
H      3.185495    -0.554540    -0.106274
H      3.177233     0.926779    -0.357601
6
BHMC Sample 148
O     -0.150694    -0.079424    -0.348447
H      0.758794     0.090255    -0.129817
H     -0.609238    -0.010675     0.476402
O      2.713573     0.579881     0.105569
H      2.912019     1.347229    -0.413889
H      3.322218    -0.081460    -0.194517
6
BHMC Sample 149
O     -3.012310    -1.114837    -0.115661
H     -2.167706    -0.719130     0.068242
H     -3.432625    -1.179262     0.729649
O     -0.268828    -0.034774     0.273708
H     -0.070228     0.732350    -0.245866
H      0.339796    -0.696343    -0.026192
6
BHMC Sample 150
O      0.118646     0.293143     3.198475
H     -0.084869     0.217514     2.272937
H     -0.685263     0.056217     3.637748
O     -0.273353    -0.036809     0.268918
H     -0.069243     0.732793    -0.244823
H      0.340719    -0.695928    -0.025215
6
BHMC Sample 151
O     -0.320661    -0.019028     3.243627
H     -0.353166     0.015834     2.294577
H     -1.217354    -0.165801     3.506012
O     -0.302593    -0.052139     0.238398
H     -0.061179     0.738814    -0.221816
H      0.343224    -0.694973    -0.020369
6
BHMC Sample 152
O      0.231336     0.077528     0.302471
H      0.159692     0.390174    -0.587364
H     -0.509168    -0.509582     0.397940
O     -1.907810    -1.975063     0.376923
H     -2.509093    -2.017568     1.107428
H     -1.416378    -2.783773     0.410817
6
BHMC Sample 153
O     -0.654705    -0.923379     3.043844
H     -0.566810    -0.718749     2.118536
H     -1.454566    -1.423893     3.100513
O     -0.304386    -0.234428     0.152636
H     -0.171199     0.700195     0.064835
H      0.476487    -0.628592    -0.212395
6
BHMC Sample 154
O      0.236668     0.151436     0.289208
H      0.324437     0.359214    -0.635314
H     -0.562035    -0.350522     0.343857
O      0.586571     0.844100    -2.604253
H      0.722484     1.778102    -2.695802
H      1.367054     0.446519    -2.965665
6
BHMC Sample 155
O     -1.280273     1.253477     2.710369
H     -1.024167     0.874266     1.876042
H     -2.224945     1.259670     2.687254
O     -0.392373     0.071795     0.105071
H      0.094619     0.697385    -0.414002
H      0.215095    -0.638265     0.266571
6
BHMC Sample 156
O      2.031195     1.474442    -0.741862
H      2.694276     2.098907    -0.999864
H      2.092625     1.414204     0.202152
O     -0.188691     0.038641     0.284378
H      0.027032     0.730491    -0.327968
H      0.303238    -0.700671    -0.046540
6
BHMC Sample 157
O     -3.132187     0.427425     0.746407
H     -2.191989     0.330506     0.643148
H     -3.236217     0.817824     1.602061
O     -0.186991     0.157317     0.332765
H      0.101526     0.715612    -0.376774
H      0.051732    -0.721084     0.068641
6
BHMC Sample 158
O      2.553108    -0.343458    -0.462760
H      3.462108    -0.576016    -0.588659
H      2.498412    -0.000698     0.419302
O     -0.162816    -0.050144     0.298250
H     -0.102634     0.710682    -0.263511
H      0.428948    -0.667187    -0.113097
6
BHMC Sample 159
O     -0.273015    -0.076228     0.177873
H      0.526931     0.360330    -0.089125
H     -0.242219    -0.070020     1.123319
O      2.398277     1.065819    -0.677124
H      2.475082     1.813354    -1.252589
H      2.943593     0.396861    -1.067743
6
BHMC Sample 160
O      0.651320     0.275178    -2.514758
H      0.837539     0.416202    -3.431552
H     -0.214269    -0.109642    -2.487484
O     -0.305655    -0.042889     0.138589
H      0.005382     0.716299    -0.336027
H      0.389085    -0.672435     0.002335
6
BHMC Sample 161
O     -1.280273     1.253476     2.710369
H     -1.024167     0.874266     1.876042
H     -2.224945     1.259669     2.687254
O     -0.392373     0.071795     0.105071
H      0.094620     0.697385    -0.414003
H      0.215094    -0.638265     0.266572
6
BHMC Sample 162
O      2.276022     1.005801    -0.795001
H      3.082905     1.425938    -1.054810
H      2.279922     1.011988     0.152639
O     -0.152165     0.026136     0.301054
H      0.029664     0.727215    -0.310336
H      0.312302    -0.706965    -0.078934
6
BHMC Sample 163
O     -3.120125    -0.227079     1.032461
H     -2.196596    -0.190288     0.812673
H     -3.154914     0.051724     1.935636
O     -0.226740     0.036441     0.367991
H     -0.102685     0.724754    -0.270719
H      0.212072    -0.720216     0.005235
6
BHMC Sample 164
O     -0.254842     0.112314     0.097459
H      0.093040    -0.738419    -0.135431
H     -1.192759     0.031366    -0.017847
O     -1.373121     1.155938     2.583353
H     -1.182556     2.072152     2.720500
H     -0.701808     0.854127     1.983272
6
BHMC Sample 165
O     -0.256501    -0.005522    -0.035880
H      0.367634    -0.168304    -0.730309
H      0.280178     0.268514     0.700501
O      1.455370     0.811677     2.254996
H      1.370640     0.235076     3.003152
H      1.289998     1.680957     2.596900
6
BHMC Sample 166
O     -0.022557     1.026675    -3.112247
H     -0.226597     0.798436    -2.214061
H      0.917719     0.950858    -3.157236
O     -0.120181     0.115446    -0.402764
H      0.296647    -0.707671    -0.193686
H     -0.145644     0.620419     0.395936
6
BHMC Sample 167
O     -0.307050     1.117604    -0.158127
H      0.323885     0.979798    -0.848256
H      0.133668     0.824902     0.629523
O      0.994366     0.178994     2.361194
H      0.559773    -0.567092     2.752370
H      1.068962     0.831222     3.045157
6
BHMC Sample 168
O     -3.189491    -0.855186    -0.762987
H     -2.306153    -0.540083    -0.608938
H     -3.079486    -1.598184    -1.337704
O     -0.352848     0.008906    -0.217017
H      0.432480    -0.516297    -0.264463
H     -0.231634     0.577077     0.532099
6
BHMC Sample 169
O     -0.075148     0.123014    -0.279947
H      0.801533     0.186970     0.081909
H     -0.567078    -0.347625     0.377582
O      2.666231     0.314166     0.878367
H      3.332293    -0.146011     0.386921
H      2.982830     1.204296     0.949228
6
BHMC Sample 170
O     -0.258918     1.058391    -0.222946
H      0.353273     0.932678    -0.931393
H      0.279072     1.028640     0.560397
O      1.441404     0.947387     2.236111
H      1.250930     0.206821     2.792402
H      1.349761     1.706504     2.793613
6
BHMC Sample 171
O     -2.634692     1.052460    -1.712529
H     -1.852022     0.838542    -1.218379
H     -2.375388     1.782555    -2.255711
O     -0.157712     0.298258    -0.239837
H      0.104594    -0.579652    -0.481732
H     -0.231153     0.281673     0.704628
6
BHMC Sample 172
O     -0.144403    -0.080884    -0.350688
H      0.758011     0.088534    -0.124739
H     -0.615141    -0.006965     0.472495
O     -1.764377     0.263774     2.131339
H     -2.369296     0.976046     1.973775
H     -2.305959    -0.482066     2.350789
6
BHMC Sample 173
O     -0.139325    -0.116543    -0.344287
H      0.757326     0.088783    -0.125141
H     -0.619899     0.062709     0.454697
O     -1.746697     0.662770     2.057450
H     -2.229653     1.436045     1.801023
H     -2.410723     0.040840     2.325688
6
BHMC Sample 174
O      0.191745     0.022707    -0.285761
H      0.991696     0.434191     0.022084
H     -0.347316    -0.036044     0.490109
O      2.488881     1.415698     0.951775
H      2.504186     2.356074     1.065623
H      3.392606     1.139127     1.018853
6
BHMC Sample 175
O     -0.402978    -0.090025    -0.152407
H      0.440868     0.036298     0.255302
H     -1.006927    -0.167674     0.577271
O     -2.312406    -0.222785     2.136385
H     -2.999642     0.415109     2.002181
H     -2.762175    -1.042630     2.287019
6
BHMC Sample 176
O      0.169618    -0.012718    -0.131402
H      0.889754     0.175131     0.458252
H     -0.600317     0.031534     0.415874
O      2.377128     0.496195     1.839585
H      3.237268     0.112421     1.745121
H      2.363008     0.868485     2.709586
6
BHMC Sample 177
O      4.690679     1.114037    -2.055553
H      4.361803     0.691597    -1.269949
H      3.914269     1.442706    -2.484668
O      3.566996     0.009636     0.460854
H      3.465621    -0.911278     0.657869
H      4.026955     0.374466     1.203723
6
BHMC Sample 178
O      0.275359    -0.144967    -0.108918
H      0.886291    -0.154508     0.618605
H     -0.507496     0.250242     0.245527
O      2.187053    -0.227085     2.172135
H      2.488748    -1.108704     2.342855
H      2.974798     0.289361     2.074510
6
BHMC Sample 179
O      0.238623    -0.240888     0.179933
H      0.159613    -0.153708     1.123300
H     -0.402027     0.364556    -0.163542
O     -0.241786    -0.033671     3.102462
H      0.324446     0.406821     3.720937
H     -0.383961    -0.896619     3.465255
6
BHMC Sample 180
O      0.229614    -0.104994    -0.358970
H      1.163346    -0.088272    -0.181152
H     -0.172187     0.039396     0.485871
O      3.171252    -0.060195     0.147973
H      3.604464     0.589509    -0.388380
H      3.590951    -0.880937    -0.071593
6
BHMC Sample 181
O      0.302753     0.059139    -0.323699
H      1.131115    -0.065124     0.125334
H     -0.341205     0.066281     0.369256
O      2.873357    -0.314105     1.142668
H      3.326517    -1.137376     1.018425
H      3.527733     0.353655     0.981593
6
BHMC Sample 182
O      0.288662    -0.138861     0.211549
H     -0.040213    -0.561302     0.997153
H     -0.487749     0.189808    -0.217565
O     -0.835023    -1.243261     2.727953
H     -0.936397    -2.164176     2.924968
H     -0.375062    -0.878432     3.470822
6
BHMC Sample 183
O      4.983789     2.049860    -1.178342
H      4.491271     1.549117    -0.538320
H      4.323040     2.437012    -1.733651
O      3.535488     0.280465     0.736664
H      3.765368    -0.606178     0.492422
H      3.819549     0.369121     1.636406
6
BHMC Sample 184
O      0.288662    -0.138861     0.211549
H     -0.040213    -0.561302     0.997153
H     -0.487749     0.189808    -0.217565
O     -0.835023    -1.243261     2.727953
H     -0.936397    -2.164176     2.924968
H     -0.375062    -0.878432     3.470822
6
BHMC Sample 185
O     -0.021028     0.078840    -0.391007
H     -0.080027    -0.184300     0.515841
H     -0.904788     0.346828    -0.616365
O     -2.784655     0.942824    -1.113252
H     -3.166748     0.432758    -1.814456
H     -2.826008     1.841468    -1.411264
6
BHMC Sample 186
O     -2.360952     2.659528    -0.802804
H     -1.784901     1.921781    -0.636288
H     -2.385551     2.726361    -1.746164
O     -0.388329     0.476811    -0.405473
H     -0.596072    -0.407058    -0.135579
H      0.292351     0.764868     0.186346
6
BHMC Sample 187
O     -2.405666     2.824611    -1.268751
H     -2.132918     2.204579    -0.608430
H     -1.818776     2.653995    -1.997013
O     -0.280699     2.134454    -3.197486
H     -0.190921     1.523961    -3.915292
H      0.519441     2.641416    -3.192976
6
BHMC Sample 188
O     -3.189025     0.221993    -6.143775
H     -2.827953     0.365780    -5.279854
H     -2.641362     0.744316    -6.711557
O     -0.111592     1.703630    -3.911890
H      0.707021     1.226147    -3.921245
H      0.023915     2.384428    -3.267430
6
BHMC Sample 189
O     -0.917614    -0.130506    -0.588930
H     -0.663639    -0.521601     0.235975
H     -0.111956     0.183075    -0.973942
O     -2.651634    -1.491041    -2.582283
H     -2.117651    -1.076371    -1.913311
H     -3.490849    -1.057469    -2.513803
6
BHMC Sample 190
O     -2.954162     0.929742    -1.242428
H     -2.733986     0.812104    -2.156249
H     -3.246863     1.826985    -1.170417
O     -4.166116    -1.358604     0.255168
H     -3.837617    -0.643096    -0.276138
H     -3.759916    -1.222038     1.098919
6
BHMC Sample 191
O      0.330299     0.201234     0.022994
H     -0.551038     0.509338     0.182186
H      0.220328    -0.710343    -0.206588
O     -0.233255     0.515226    -5.465612
H     -0.123827     1.076996    -4.711778
H      0.554592     0.652276    -5.971761
6
BHMC Sample 192
O     -3.189154     1.314450    -1.132993
H     -2.845545     0.863452    -1.891677
H     -3.686727     2.040060    -1.482793
O     -4.792799    -0.582797     0.520646
H     -4.268856     0.034806     0.023487
H     -4.492791    -0.485336     1.410432
6
BHMC Sample 193
O      0.329815     0.200208     0.028472
H     -0.552092     0.510123     0.178917
H      0.221653    -0.710178    -0.206799
O      1.328641    -1.577570     5.095530
H      0.653648    -1.070233     4.668215
H      1.730005    -0.967563     5.697613
6
BHMC Sample 194
O     -3.352313     1.386391    -1.146235
H     -3.249190     0.777761    -1.865464
H     -3.327342     2.245573    -1.542730
O     -5.075034    -0.349657     0.555835
H     -4.636584     0.343330     0.076942
H     -4.752614    -0.265498     1.441751
6
BHMC Sample 195
O     -4.804595    -0.289766     0.652198
H     -4.640275    -0.334078    -0.281963
H     -5.607114     0.207900     0.723266
O     -3.325451     1.018442    -1.416887
H     -2.495696     1.044958    -1.869467
H     -3.117780     1.119514    -0.497173
6
BHMC Sample 196
O      0.331166     0.200186     0.024378
H     -0.550013     0.510098     0.181436
H      0.220256    -0.711061    -0.206084
O      4.857418    -2.725078    -0.682237
H      4.638004    -1.835487    -0.444309
H      5.317621    -2.638794    -1.504603
6
BHMC Sample 197
O     -0.662887     1.257206    -1.390532
H     -1.544174     1.567438    -1.234487
H     -0.773627     0.346388    -1.622343
O      4.858073    -2.725039    -0.682025
H      4.638266    -1.835554    -0.444602
H      5.317647    -2.639201    -1.504828
6
BHMC Sample 198
O      2.684345     1.715018    -1.358952
H      1.787271     1.999031    -1.477867
H      2.929176     1.348168    -2.197171
O      0.300134     0.320158    -0.493897
H      1.239172     0.321654    -0.356924
H     -0.075237     0.253821     0.372012
6
BHMC Sample 199
O      0.271964     0.258612    -0.503036
H     -0.433446     0.533829     0.066857
H      0.195068    -0.685156    -0.548042
O     -0.419572     0.506210    -3.377329
H     -0.163041     0.619365    -2.468807
H      0.339768     0.772454    -3.874071
6
BHMC Sample 200
O      0.390120     0.112364     0.643734
H     -0.196338     0.708140     0.198517
H      0.610697    -0.545243    -0.000928
O      2.738758     1.596599     1.744682
H      2.003226     1.106052     1.396336
H      2.708514     1.433984     2.674985
6
BHMC Sample 201
O      4.602014    -2.315699    -0.814851
H      3.826395    -1.799672    -1.004739
H      4.287430    -3.207445    -0.793511
O      2.160708    -0.782558    -1.587781
H      1.809576    -0.101284    -1.030614
H      2.336563    -0.358978    -2.417181
6
BHMC Sample 202
O      0.285436     0.206316     0.280393
H     -0.254945     0.967552     0.102031
H     -0.037827    -0.461780    -0.309681
O     -1.085077     2.806521    -0.163910
H     -1.672966     3.073548     0.530391
H     -0.311141     3.342039    -0.051781
6
BHMC Sample 203
O      0.287861     0.134642    -0.059116
H     -0.447375     0.339992     0.498521
H     -0.092939    -0.342403    -0.787331
O     -0.806855    -1.344157    -2.421035
H     -0.332916    -2.149143    -2.577002
H     -0.689834    -0.832569    -3.209829
6
BHMC Sample 204
O      0.221351     0.252365    -0.032390
H     -0.581714     0.432469    -0.510035
H      0.234419    -0.687259     0.070584
O     -2.180985     0.913310    -1.649727
H     -2.580163     1.701138    -1.306263
H     -1.891912     1.142787    -2.523572
6
BHMC Sample 205
O      0.233728     0.214844    -0.033536
H     -0.522755     0.379750    -0.584649
H      0.173148    -0.705004     0.181138
O     -2.137435     0.828721    -1.744223
H     -2.617883     1.550473    -1.362321
H     -1.891384     1.125954    -2.609976
6
BHMC Sample 206
O      4.835086    -2.612855    -0.773029
H      4.077257    -2.442997    -1.320567
H      4.773426    -3.532280    -0.565588
O      2.468066    -1.996247    -2.479765
H      1.983433    -1.274313    -2.104845
H      2.715283    -1.703685    -3.345694
