6
BHMC Sample 1
O     -3.008383    -1.113692    -0.109380
H     -2.167983    -0.717102     0.067196
H     -3.435537    -1.181202     0.726062
O     -0.265663    -0.035388     0.266014
H     -0.072620     0.733422    -0.242981
H      0.338284    -0.698034    -0.023033
6
BHMC Sample 2
O     -2.701031    -4.323401    -2.846602
H     -3.174587    -4.703475    -3.571876
H     -2.980261    -3.425977    -2.806095
O      1.967548    -4.816237     0.910758
H      1.443608    -5.138319     0.197202
H      2.532845    -4.158435     0.543148
6
BHMC Sample 3
O      0.324501     0.198489    -0.010323
H     -0.392338     0.235882    -0.626342
H      0.067837    -0.434371     0.636665
O      1.624653     2.971232    -0.336870
H      2.539138     2.798646    -0.482961
H      1.228301     2.137212    -0.150546
6
BHMC Sample 4
O      5.385135    -7.685978     9.574809
H      6.224542    -7.421699     9.227984
H      5.250011    -7.154835    10.339406
O      3.041122   -18.089506    -1.332720
H      2.909404   -17.290132    -0.852029
H      3.676731   -18.585296    -0.845285
6
BHMC Sample 5
O      2.849632     0.738309     1.808617
H      3.078405    -0.030539     2.309886
H      2.695793     0.431368     0.932774
O      0.252650    -0.278842    -0.031750
H     -0.120598     0.229701    -0.731379
H     -0.132052     0.049141     0.763129
6
BHMC Sample 6
O    -43.872742   -19.324638    12.984674
H    -44.344067   -18.594650    12.610902
H    -44.336792   -19.547446    13.772071
O    -25.820895   -33.229124     7.473998
H    -26.213402   -32.512417     7.005297
H    -25.887718   -33.010896     8.387952
6
BHMC Sample 7
O      0.103512    -0.328529    -0.161738
H      0.493025     0.523761    -0.290644
H     -0.596537    -0.195232     0.452382
O      1.566328     2.742963    -1.094718
H      2.311562     3.020532    -1.599686
H      1.290518     3.496340    -0.601006
6
BHMC Sample 8
O      8.017628    -0.745855     3.485110
H      8.250677    -1.497491     2.960260
H      7.986182    -1.057949     4.372008
O     -0.264468    -0.041256     0.266360
H     -0.235117    -0.467000    -0.573457
H      0.499585     0.508256     0.307098
6
BHMC Sample 9
O      3.817973    -7.497533     0.418726
H      3.193378    -7.038083     0.960503
H      3.718932    -8.407364     0.636391
O     -0.017317     0.048192    -0.315745
H     -0.175100     0.975736    -0.362435
H      0.868504    -0.050711    -0.010887
6
BHMC Sample 10
O      8.218989    -1.417732   -19.858674
H      8.261756    -0.579307   -19.422842
H      8.840198    -1.965484   -19.412525
O     16.289186    -5.674806    -4.897103
H     16.475673    -6.079892    -4.067320
H     15.690311    -6.251404    -5.340143
