6
Sampled Configuration 1
O -3.134448 -0.541038 -0.071855
H -2.227493 -0.376295 0.140342
H -3.599625 -0.476089 0.743235
O -2.135323 1.707420 -0.678344
H -3.035665 1.984539 -0.678344
H -2.152284 0.765554 -0.678344
6
Sampled Configuration 2
O -3.134448 -0.541038 -0.071855
H -2.227493 -0.376295 0.140342
H -3.599625 -0.476089 0.743235
O -1.650739 0.584703 -1.852446
H -2.551082 0.861822 -1.852446
H -1.667700 -0.357163 -1.852446
6
Sampled Configuration 3
O -3.134448 -0.541038 -0.071855
H -2.227493 -0.376295 0.140342
H -3.599625 -0.476089 0.743235
O -3.256373 1.645973 -0.334168
H -4.156716 1.923092 -0.334168
H -3.273334 0.704106 -0.334168
6
Sampled Configuration 4
O -3.134448 -0.541038 -0.071855
H -2.227493 -0.376295 0.140342
H -3.599625 -0.476089 0.743235
O -1.635093 0.294498 -2.110424
H -2.535435 0.571617 -2.110424
H -1.652054 -0.647369 -2.110424
6
Sampled Configuration 5
O -3.134448 -0.541038 -0.071855
H -2.227493 -0.376295 0.140342
H -3.599625 -0.476089 0.743235
O -4.875052 -0.808195 1.924832
H -5.775395 -0.531076 1.924832
H -4.892013 -1.750061 1.924832
6
Sampled Configuration 6
O -3.134448 -0.541038 -0.071855
H -2.227493 -0.376295 0.140342
H -3.599625 -0.476089 0.743235
O -2.190767 1.607376 -0.671212
H -1.780805 2.071206 -1.381286
H -2.527135 2.266788 -0.088605
6
Sampled Configuration 7
O -3.134448 -0.541038 -0.071855
H -2.227493 -0.376295 0.140342
H -3.599625 -0.476089 0.743235
O -1.706183 0.484659 -1.845314
H -1.296222 0.948489 -2.555388
H -2.042552 1.144071 -1.262706
6
Sampled Configuration 8
O -3.134448 -0.541038 -0.071855
H -2.227493 -0.376295 0.140342
H -3.599625 -0.476089 0.743235
O -3.311817 1.545929 -0.327036
H -2.901856 2.009758 -1.037110
H -3.648186 2.205341 0.255572
6
Sampled Configuration 9
O -3.134448 -0.541038 -0.071855
H -2.227493 -0.376295 0.140342
H -3.599625 -0.476089 0.743235
O -1.690537 0.194454 -2.103292
H -1.280575 0.658283 -2.813366
H -2.026906 0.853866 -1.520684
6
Sampled Configuration 10
O -3.134448 -0.541038 -0.071855
H -2.227493 -0.376295 0.140342
H -3.599625 -0.476089 0.743235
O -4.930496 -0.908239 1.931964
H -4.520535 -0.444409 1.221890
H -5.266865 -0.248827 2.514571
6
Sampled Configuration 11
O -3.134448 -0.541038 -0.071855
H -2.227493 -0.376295 0.140342
H -3.599625 -0.476089 0.743235
O -2.214824 1.641200 -0.727145
H -2.135381 2.569730 -0.589546
H -1.790717 1.231405 0.007429
6
Sampled Configuration 12
O -3.134448 -0.541038 -0.071855
H -2.227493 -0.376295 0.140342
H -3.599625 -0.476089 0.743235
O -1.730241 0.518484 -1.901247
H -1.650798 1.447013 -1.763648
H -1.306134 0.108688 -1.166672
6
Sampled Configuration 13
O -3.134448 -0.541038 -0.071855
H -2.227493 -0.376295 0.140342
H -3.599625 -0.476089 0.743235
O -3.335875 1.579753 -0.382969
H -3.256432 2.508282 -0.245370
H -2.911768 1.169957 0.351606
6
Sampled Configuration 14
O -3.134448 -0.541038 -0.071855
H -2.227493 -0.376295 0.140342
H -3.599625 -0.476089 0.743235
O -1.714595 0.228278 -2.159225
H -1.635151 1.156807 -2.021626
H -1.290487 -0.181518 -1.424650
6
Sampled Configuration 15
O -3.134448 -0.541038 -0.071855
H -2.227493 -0.376295 0.140342
H -3.599625 -0.476089 0.743235
O -4.954554 -0.874415 1.876031
H -4.875111 0.054115 2.013630
H -4.530447 -1.284210 2.610605
6
Sampled Configuration 16
O -3.134448 -0.541038 -0.071855
H -2.227493 -0.376295 0.140342
H -3.599625 -0.476089 0.743235
O -2.248534 1.656510 -0.678344
H -1.858399 2.513952 -0.678344
H -1.532663 1.044195 -0.678344
6
Sampled Configuration 17
O -3.134448 -0.541038 -0.071855
H -2.227493 -0.376295 0.140342
H -3.599625 -0.476089 0.743235
O -1.763950 0.533793 -1.852446
H -1.373816 1.391235 -1.852446
H -1.048080 -0.078522 -1.852446
6
Sampled Configuration 18
O -3.134448 -0.541038 -0.071855
H -2.227493 -0.376295 0.140342
H -3.599625 -0.476089 0.743235
O -3.369584 1.595062 -0.334168
H -2.979450 2.452504 -0.334168
H -2.653714 0.982748 -0.334168
6
Sampled Configuration 19
O -3.134448 -0.541038 -0.071855
H -2.227493 -0.376295 0.140342
H -3.599625 -0.476089 0.743235
O -1.748304 0.243587 -2.110424
H -1.358169 1.101029 -2.110424
H -1.032433 -0.368727 -2.110424
6
Sampled Configuration 20
O -3.134448 -0.541038 -0.071855
H -2.227493 -0.376295 0.140342
H -3.599625 -0.476089 0.743235
O -4.988263 -0.859105 1.924832
H -4.598129 -0.001663 1.924832
H -4.272393 -1.471420 1.924832
6
Sampled Configuration 21
O -3.134448 -0.541038 -0.071855
H -2.227493 -0.376295 0.140342
H -3.599625 -0.476089 0.743235
O -2.135323 1.707420 -0.678344
H -3.035665 1.984539 -0.678344
H -2.152284 0.765554 -0.678344
6
Sampled Configuration 22
O -3.134448 -0.541038 -0.071855
H -2.227493 -0.376295 0.140342
H -3.599625 -0.476089 0.743235
O -1.650739 0.584703 -1.852446
H -2.551082 0.861822 -1.852446
H -1.667700 -0.357163 -1.852446
6
Sampled Configuration 23
O -3.134448 -0.541038 -0.071855
H -2.227493 -0.376295 0.140342
H -3.599625 -0.476089 0.743235
O -3.256373 1.645973 -0.334168
H -4.156716 1.923092 -0.334168
H -3.273334 0.704106 -0.334168
6
Sampled Configuration 24
O -3.134448 -0.541038 -0.071855
H -2.227493 -0.376295 0.140342
H -3.599625 -0.476089 0.743235
O -1.635093 0.294498 -2.110424
H -2.535435 0.571617 -2.110424
H -1.652054 -0.647369 -2.110424
6
Sampled Configuration 25
O -3.134448 -0.541038 -0.071855
H -2.227493 -0.376295 0.140342
H -3.599625 -0.476089 0.743235
O -4.875052 -0.808195 1.924832
H -5.775395 -0.531076 1.924832
H -4.892013 -1.750061 1.924832
6
Sampled Configuration 26
O -3.134448 -0.541038 -0.071855
H -2.227493 -0.376295 0.140342
H -3.599625 -0.476089 0.743235
O -2.174648 1.640646 -0.623582
H -1.618542 2.257811 -1.067728
H -2.945236 1.552122 -1.158145
6
Sampled Configuration 27
O -3.134448 -0.541038 -0.071855
H -2.227493 -0.376295 0.140342
H -3.599625 -0.476089 0.743235
O -1.690064 0.517929 -1.797684
H -1.133959 1.135094 -2.241830
H -2.460652 0.429405 -2.332247
6
Sampled Configuration 28
O -3.134448 -0.541038 -0.071855
H -2.227493 -0.376295 0.140342
H -3.599625 -0.476089 0.743235
O -3.295699 1.579199 -0.279406
H -2.739593 2.196364 -0.723552
H -4.066287 1.490675 -0.813969
6
Sampled Configuration 29
O -3.134448 -0.541038 -0.071855
H -2.227493 -0.376295 0.140342
H -3.599625 -0.476089 0.743235
O -1.674418 0.227724 -2.055662
H -1.118313 0.844888 -2.499808
H -2.445006 0.139200 -2.590225
6
Sampled Configuration 30
O -3.134448 -0.541038 -0.071855
H -2.227493 -0.376295 0.140342
H -3.599625 -0.476089 0.743235
O -4.914377 -0.874969 1.979594
H -4.358272 -0.257804 1.535448
H -5.684965 -0.963493 1.445031
6
Sampled Configuration 31
O -3.134448 -0.541038 -0.071855
H -2.227493 -0.376295 0.140342
H -3.599625 -0.476089 0.743235
O -2.237015 1.666696 -0.640021
H -1.466584 2.194340 -0.515767
H -2.107310 1.202133 -1.449192
6
Sampled Configuration 32
O -3.134448 -0.541038 -0.071855
H -2.227493 -0.376295 0.140342
H -3.599625 -0.476089 0.743235
O -1.752431 0.543979 -1.814123
H -0.982000 1.071623 -1.689868
H -1.622726 0.079416 -2.623294
6
Sampled Configuration 33
O -3.134448 -0.541038 -0.071855
H -2.227493 -0.376295 0.140342
H -3.599625 -0.476089 0.743235
O -3.358065 1.605248 -0.295845
H -2.587635 2.132893 -0.171590
H -3.228360 1.140686 -1.105016
6
Sampled Configuration 34
O -3.134448 -0.541038 -0.071855
H -2.227493 -0.376295 0.140342
H -3.599625 -0.476089 0.743235
O -1.736785 0.253773 -2.072101
H -0.966354 0.781418 -1.947846
H -1.607080 -0.210789 -2.881272
6
Sampled Configuration 35
O -3.134448 -0.541038 -0.071855
H -2.227493 -0.376295 0.140342
H -3.599625 -0.476089 0.743235
O -4.976744 -0.848919 1.963155
H -4.206313 -0.321275 2.087409
H -4.847039 -1.313482 1.153984
6
Sampled Configuration 36
O -3.134448 -0.541038 -0.071855
H -2.227493 -0.376295 0.140342
H -3.599625 -0.476089 0.743235
O -2.248534 1.656510 -0.678344
H -1.858399 2.513952 -0.678344
H -1.532663 1.044195 -0.678344
6
Sampled Configuration 37
O -3.134448 -0.541038 -0.071855
H -2.227493 -0.376295 0.140342
H -3.599625 -0.476089 0.743235
O -1.763950 0.533793 -1.852446
H -1.373816 1.391235 -1.852446
H -1.048080 -0.078522 -1.852446
6
Sampled Configuration 38
O -3.134448 -0.541038 -0.071855
H -2.227493 -0.376295 0.140342
H -3.599625 -0.476089 0.743235
O -3.369584 1.595062 -0.334168
H -2.979450 2.452504 -0.334168
H -2.653714 0.982748 -0.334168
6
Sampled Configuration 39
O -3.134448 -0.541038 -0.071855
H -2.227493 -0.376295 0.140342
H -3.599625 -0.476089 0.743235
O -1.748304 0.243587 -2.110424
H -1.358169 1.101029 -2.110424
H -1.032433 -0.368727 -2.110424
6
Sampled Configuration 40
O -3.134448 -0.541038 -0.071855
H -2.227493 -0.376295 0.140342
H -3.599625 -0.476089 0.743235
O -4.988263 -0.859105 1.924832
H -4.598129 -0.001663 1.924832
H -4.272393 -1.471420 1.924832
6
Sampled Configuration 41
O -3.134448 -0.541038 -0.071855
H -2.227493 -0.376295 0.140342
H -3.599625 -0.476089 0.743235
O -2.135323 1.707420 -0.678344
H -3.035665 1.984539 -0.678344
H -2.152284 0.765554 -0.678344
6
Sampled Configuration 42
O -3.134448 -0.541038 -0.071855
H -2.227493 -0.376295 0.140342
H -3.599625 -0.476089 0.743235
O -1.650739 0.584703 -1.852446
H -2.551082 0.861822 -1.852446
H -1.667700 -0.357163 -1.852446
6
Sampled Configuration 43
O -3.134448 -0.541038 -0.071855
H -2.227493 -0.376295 0.140342
H -3.599625 -0.476089 0.743235
O -3.256373 1.645973 -0.334168
H -4.156716 1.923092 -0.334168
H -3.273334 0.704106 -0.334168
6
Sampled Configuration 44
O -3.134448 -0.541038 -0.071855
H -2.227493 -0.376295 0.140342
H -3.599625 -0.476089 0.743235
O -1.635093 0.294498 -2.110424
H -2.535435 0.571617 -2.110424
H -1.652054 -0.647369 -2.110424
6
Sampled Configuration 45
O -3.134448 -0.541038 -0.071855
H -2.227493 -0.376295 0.140342
H -3.599625 -0.476089 0.743235
O -4.875052 -0.808195 1.924832
H -5.775395 -0.531076 1.924832
H -4.892013 -1.750061 1.924832
6
Sampled Configuration 46
O -3.134448 -0.541038 -0.071855
H -2.227493 -0.376295 0.140342
H -3.599625 -0.476089 0.743235
O -2.187897 1.705876 -0.625949
H -2.855065 1.649303 -1.288593
H -1.498423 1.125295 -0.899719
6
Sampled Configuration 47
O -3.134448 -0.541038 -0.071855
H -2.227493 -0.376295 0.140342
H -3.599625 -0.476089 0.743235
O -1.703314 0.583159 -1.800051
H -2.370482 0.526586 -2.462695
H -1.013839 0.002578 -2.073820
6
Sampled Configuration 48
O -3.134448 -0.541038 -0.071855
H -2.227493 -0.376295 0.140342
H -3.599625 -0.476089 0.743235
O -3.308948 1.644429 -0.281773
H -3.976116 1.587856 -0.944417
H -2.619473 1.063847 -0.555542
6
Sampled Configuration 49
O -3.134448 -0.541038 -0.071855
H -2.227493 -0.376295 0.140342
H -3.599625 -0.476089 0.743235
O -1.687667 0.292954 -2.058029
H -2.354836 0.236381 -2.720673
H -0.998193 -0.287628 -2.331798
6
Sampled Configuration 50
O -3.134448 -0.541038 -0.071855
H -2.227493 -0.376295 0.140342
H -3.599625 -0.476089 0.743235
O -4.927627 -0.809739 1.977227
H -5.594795 -0.866312 1.314583
H -4.238152 -1.390320 1.703457
6
Sampled Configuration 51
O -3.134448 -0.541038 -0.071855
H -2.227493 -0.376295 0.140342
H -3.599625 -0.476089 0.743235
O -2.230398 1.665097 -0.632764
H -2.275858 2.205060 -1.403338
H -1.403061 1.216796 -0.676808
6
Sampled Configuration 52
O -3.134448 -0.541038 -0.071855
H -2.227493 -0.376295 0.140342
H -3.599625 -0.476089 0.743235
O -1.745814 0.542380 -1.806865
H -1.791275 1.082343 -2.577440
H -0.918477 0.094079 -1.850909
6
Sampled Configuration 53
O -3.134448 -0.541038 -0.071855
H -2.227493 -0.376295 0.140342
H -3.599625 -0.476089 0.743235
O -3.351448 1.603649 -0.288587
H -3.396909 2.143612 -1.059162
H -2.524111 1.155348 -0.332631
6
Sampled Configuration 54
O -3.134448 -0.541038 -0.071855
H -2.227493 -0.376295 0.140342
H -3.599625 -0.476089 0.743235
O -1.730168 0.252174 -2.064843
H -1.775629 0.792137 -2.835418
H -0.902831 -0.196127 -2.108887
6
Sampled Configuration 55
O -3.134448 -0.541038 -0.071855
H -2.227493 -0.376295 0.140342
H -3.599625 -0.476089 0.743235
O -4.970127 -0.850518 1.970412
H -5.015588 -0.310555 1.199838
H -4.142790 -1.298819 1.926368
6
Sampled Configuration 56
O -3.134448 -0.541038 -0.071855
H -2.227493 -0.376295 0.140342
H -3.599625 -0.476089 0.743235
O -2.248534 1.656510 -0.678344
H -1.858399 2.513952 -0.678344
H -1.532663 1.044195 -0.678344
6
Sampled Configuration 57
O -3.134448 -0.541038 -0.071855
H -2.227493 -0.376295 0.140342
H -3.599625 -0.476089 0.743235
O -1.763950 0.533793 -1.852446
H -1.373816 1.391235 -1.852446
H -1.048080 -0.078522 -1.852446
6
Sampled Configuration 58
O -3.134448 -0.541038 -0.071855
H -2.227493 -0.376295 0.140342
H -3.599625 -0.476089 0.743235
O -3.369584 1.595062 -0.334168
H -2.979450 2.452504 -0.334168
H -2.653714 0.982748 -0.334168
6
Sampled Configuration 59
O -3.134448 -0.541038 -0.071855
H -2.227493 -0.376295 0.140342
H -3.599625 -0.476089 0.743235
O -1.748304 0.243587 -2.110424
H -1.358169 1.101029 -2.110424
H -1.032433 -0.368727 -2.110424
6
Sampled Configuration 60
O -3.134448 -0.541038 -0.071855
H -2.227493 -0.376295 0.140342
H -3.599625 -0.476089 0.743235
O -4.988263 -0.859105 1.924832
H -4.598129 -0.001663 1.924832
H -4.272393 -1.471420 1.924832
6
Sampled Configuration 61
O -3.134448 -0.541038 -0.071855
H -2.227493 -0.376295 0.140342
H -3.599625 -0.476089 0.743235
O -2.135323 1.707420 -0.678344
H -3.035665 1.984539 -0.678344
H -2.152284 0.765554 -0.678344
6
Sampled Configuration 62
O -3.134448 -0.541038 -0.071855
H -2.227493 -0.376295 0.140342
H -3.599625 -0.476089 0.743235
O -1.650739 0.584703 -1.852446
H -2.551082 0.861822 -1.852446
H -1.667700 -0.357163 -1.852446
6
Sampled Configuration 63
O -3.134448 -0.541038 -0.071855
H -2.227493 -0.376295 0.140342
H -3.599625 -0.476089 0.743235
O -3.256373 1.645973 -0.334168
H -4.156716 1.923092 -0.334168
H -3.273334 0.704106 -0.334168
6
Sampled Configuration 64
O -3.134448 -0.541038 -0.071855
H -2.227493 -0.376295 0.140342
H -3.599625 -0.476089 0.743235
O -1.635093 0.294498 -2.110424
H -2.535435 0.571617 -2.110424
H -1.652054 -0.647369 -2.110424
6
Sampled Configuration 65
O -3.134448 -0.541038 -0.071855
H -2.227493 -0.376295 0.140342
H -3.599625 -0.476089 0.743235
O -4.875052 -0.808195 1.924832
H -5.775395 -0.531076 1.924832
H -4.892013 -1.750061 1.924832
6
Sampled Configuration 66
O -3.134448 -0.541038 -0.071855
H -2.227493 -0.376295 0.140342
H -3.599625 -0.476089 0.743235
O -2.190767 1.607376 -0.671212
H -1.780805 2.071206 -1.381286
H -2.527135 2.266788 -0.088605
6
Sampled Configuration 67
O -3.134448 -0.541038 -0.071855
H -2.227493 -0.376295 0.140342
H -3.599625 -0.476089 0.743235
O -1.706183 0.484659 -1.845314
H -1.296222 0.948489 -2.555388
H -2.042552 1.144071 -1.262706
6
Sampled Configuration 68
O -3.134448 -0.541038 -0.071855
H -2.227493 -0.376295 0.140342
H -3.599625 -0.476089 0.743235
O -3.311817 1.545929 -0.327036
H -2.901856 2.009758 -1.037110
H -3.648186 2.205341 0.255572
6
Sampled Configuration 69
O -3.134448 -0.541038 -0.071855
H -2.227493 -0.376295 0.140342
H -3.599625 -0.476089 0.743235
O -1.690537 0.194454 -2.103292
H -1.280575 0.658283 -2.813366
H -2.026906 0.853866 -1.520684
6
Sampled Configuration 70
O -3.134448 -0.541038 -0.071855
H -2.227493 -0.376295 0.140342
H -3.599625 -0.476089 0.743235
O -4.930496 -0.908239 1.931964
H -4.520535 -0.444409 1.221890
H -5.266865 -0.248827 2.514571
6
Sampled Configuration 71
O -3.134448 -0.541038 -0.071855
H -2.227493 -0.376295 0.140342
H -3.599625 -0.476089 0.743235
O -2.214824 1.641200 -0.727145
H -2.135381 2.569730 -0.589546
H -1.790717 1.231405 0.007429
6
Sampled Configuration 72
O -3.134448 -0.541038 -0.071855
H -2.227493 -0.376295 0.140342
H -3.599625 -0.476089 0.743235
O -1.730241 0.518484 -1.901247
H -1.650798 1.447013 -1.763648
H -1.306134 0.108688 -1.166672
6
Sampled Configuration 73
O -3.134448 -0.541038 -0.071855
H -2.227493 -0.376295 0.140342
H -3.599625 -0.476089 0.743235
O -3.335875 1.579753 -0.382969
H -3.256432 2.508282 -0.245370
H -2.911768 1.169957 0.351606
6
Sampled Configuration 74
O -3.134448 -0.541038 -0.071855
H -2.227493 -0.376295 0.140342
H -3.599625 -0.476089 0.743235
O -1.714595 0.228278 -2.159225
H -1.635151 1.156807 -2.021626
H -1.290487 -0.181518 -1.424650
6
Sampled Configuration 75
O -3.134448 -0.541038 -0.071855
H -2.227493 -0.376295 0.140342
H -3.599625 -0.476089 0.743235
O -4.954554 -0.874415 1.876031
H -4.875111 0.054115 2.013630
H -4.530447 -1.284210 2.610605
6
Sampled Configuration 76
O -3.134448 -0.541038 -0.071855
H -2.227493 -0.376295 0.140342
H -3.599625 -0.476089 0.743235
O -2.248534 1.656510 -0.678344
H -1.858399 2.513952 -0.678344
H -1.532663 1.044195 -0.678344
6
Sampled Configuration 77
O -3.134448 -0.541038 -0.071855
H -2.227493 -0.376295 0.140342
H -3.599625 -0.476089 0.743235
O -1.763950 0.533793 -1.852446
H -1.373816 1.391235 -1.852446
H -1.048080 -0.078522 -1.852446
6
Sampled Configuration 78
O -3.134448 -0.541038 -0.071855
H -2.227493 -0.376295 0.140342
H -3.599625 -0.476089 0.743235
O -3.369584 1.595062 -0.334168
H -2.979450 2.452504 -0.334168
H -2.653714 0.982748 -0.334168
6
Sampled Configuration 79
O -3.134448 -0.541038 -0.071855
H -2.227493 -0.376295 0.140342
H -3.599625 -0.476089 0.743235
O -1.748304 0.243587 -2.110424
H -1.358169 1.101029 -2.110424
H -1.032433 -0.368727 -2.110424
6
Sampled Configuration 80
O -3.134448 -0.541038 -0.071855
H -2.227493 -0.376295 0.140342
H -3.599625 -0.476089 0.743235
O -4.988263 -0.859105 1.924832
H -4.598129 -0.001663 1.924832
H -4.272393 -1.471420 1.924832
