5
Structure 1 | Energy: -10.836199 Hartree
N 0.557418 0.350280 0.844258
N -0.398340 0.345577 0.302759
O 0.986683 -2.004657 2.010818
H 1.588143 -2.557598 1.507802
H 1.523861 -1.397613 2.524977
5
Structure 2 | Energy: -10.836198 Hartree
N 0.452773 0.378121 0.954814
N -0.502189 0.356363 0.412328
O 0.986683 -2.004657 2.010818
H 1.588143 -2.557598 1.507802
H 1.523861 -1.397613 2.524977
5
Structure 3 | Energy: -10.836198 Hartree
N 0.452773 0.378121 0.954814
N -0.502189 0.356363 0.412328
O 0.330569 -1.146798 3.131399
H 0.155864 -0.684917 3.953997
H 1.271076 -1.067100 2.956711
5
Structure 4 | Energy: -10.836198 Hartree
N 0.452773 0.378121 0.954814
N -0.502189 0.356363 0.412328
O 0.986683 -2.004657 2.010818
H 1.588143 -2.557598 1.507802
H 1.523861 -1.397613 2.524977
5
Structure 5 | Energy: -10.836187 Hartree
N 0.460466 0.356095 0.940790
N -0.509882 0.378388 0.426353
O 0.986683 -2.004657 2.010818
H 1.588143 -2.557598 1.507802
H 1.523861 -1.397613 2.524977
5
Structure 6 | Energy: -10.835922 Hartree
N 0.460466 0.356095 0.940790
N -0.509882 0.378388 0.426353
O 1.348442 -1.801675 2.032889
H 1.924439 -2.348938 1.495066
H 1.894141 -1.114917 2.422761
5
Structure 7 | Energy: -10.833345 Hartree
N 1.896379 -1.805016 2.281829
N 0.926031 -1.782723 1.767392
O -0.087471 0.359437 0.691850
H 0.488526 -0.187827 0.154026
H 0.458228 1.046194 1.081721
5
Structure 8 | Energy: -10.833403 Hartree
N 1.896379 -1.805016 2.281829
N 0.926031 -1.782723 1.767392
O -0.086983 0.357983 0.693800
H 0.484658 -0.176278 0.138537
H 0.454365 1.057726 1.066254
5
Structure 9 | Energy: -10.835933 Hartree
N 0.460466 0.356095 0.940790
N -0.509882 0.378388 0.426353
O 1.348929 -1.803129 2.034840
H 1.920570 -2.337389 1.479577
H 1.890278 -1.103385 2.407294
5
Structure 10 | Energy: -10.835923 Hartree
N 0.462477 0.258843 0.764767
N -0.481170 0.222673 0.203573
O 1.348929 -1.803129 2.034840
H 1.920570 -2.337389 1.479577
H 1.890278 -1.103385 2.407294
5
Structure 11 | Energy: -10.835297 Hartree
N 0.019311 -0.030251 0.007292
N -0.038004 0.511767 0.961047
O 1.348929 -1.803129 2.034840
H 1.920570 -2.337389 1.479577
H 1.890278 -1.103385 2.407294
5
Structure 12 | Energy: -10.835236 Hartree
N 0.019311 -0.030251 0.007292
N -0.038004 0.511767 0.961047
O 1.349555 -1.807137 2.034193
H 1.968405 -2.321595 1.511813
H 1.832517 -1.055554 2.385321
5
Structure 13 | Energy: -10.835232 Hartree
N 0.019311 -0.030251 0.007292
N -0.038004 0.511767 0.961047
O 1.349540 -1.806428 2.035019
H 1.956696 -2.330808 1.508796
H 1.844459 -1.057603 2.375222
5
Structure 14 | Energy: -10.835496 Hartree
N 0.019311 -0.030251 0.007292
N -0.038004 0.511767 0.961047
O 1.409214 -1.803332 1.961563
H 0.975941 -2.336253 2.631483
H 1.878059 -1.101288 2.418443
5
Structure 15 | Energy: -10.834797 Hartree
N 0.019311 -0.030251 0.007292
N -0.038004 0.511767 0.961047
O 1.388177 -1.766699 2.077527
H 2.097114 -1.429190 1.526146
H 1.090799 -2.589798 1.683196
5
Structure 16 | Energy: -10.834797 Hartree
N -0.793086 -0.967712 0.133617
N -1.206836 -0.836998 1.142796
O 1.388177 -1.766699 2.077527
H 2.097114 -1.429190 1.526146
H 1.090799 -2.589798 1.683196
5
Structure 17 | Energy: -10.835093 Hartree
N 1.618080 -1.859226 1.520021
N 1.204330 -1.728513 2.529201
O -1.022989 -0.875184 0.691122
H -0.314052 -0.537676 0.139742
H -1.320366 -1.698283 0.296792
5
Structure 18 | Energy: -10.835534 Hartree
N 1.618080 -1.859226 1.520021
N 1.204330 -1.728513 2.529201
O -0.972001 -0.871838 0.686741
H -1.896729 -0.817649 0.436811
H -0.546976 -1.471421 0.069266
5
Structure 19 | Energy: -10.835574 Hartree
N 1.618080 -1.859226 1.520021
N 1.204330 -1.728513 2.529201
O -0.986148 -1.033425 0.655179
H -1.910877 -0.979236 0.405250
H -0.561123 -1.633009 0.037704
5
Structure 20 | Energy: -10.835645 Hartree
N 1.618080 -1.859226 1.520021
N 1.204330 -1.728513 2.529201
O -0.807629 -1.244046 0.299679
H -1.697958 -1.228133 -0.057510
H -0.325551 -1.926332 -0.173089
5
Structure 21 | Energy: -10.835636 Hartree
N 1.618080 -1.859226 1.520021
N 1.204330 -1.728513 2.529201
O -0.808048 -1.243826 0.299706
H -1.695459 -1.230414 -0.064775
H -0.321393 -1.927541 -0.166258
5
Structure 22 | Energy: -10.835534 Hartree
N 1.618080 -1.859226 1.520021
N 1.204330 -1.728513 2.529201
O -0.929819 -1.092819 0.530936
H -1.846234 -1.023491 0.255435
H -0.531447 -1.796148 0.013201
5
Structure 23 | Energy: -10.835534 Hartree
N 1.618080 -1.859226 1.520021
N 1.204330 -1.728513 2.529201
O -1.236450 -0.995947 1.278841
H -2.077297 -0.950493 0.819021
H -1.372443 -1.530457 2.064479
5
Structure 24 | Energy: -10.835608 Hartree
N 1.618080 -1.859226 1.520021
N 1.204330 -1.728513 2.529201
O -1.235372 -0.996560 1.281371
H -2.040249 -0.984154 0.759315
H -1.426604 -1.487064 2.084028
5
Structure 25 | Energy: -10.835624 Hartree
N 1.618080 -1.859226 1.520021
N 1.204330 -1.728513 2.529201
O -1.268191 -1.194011 1.216229
H -2.072641 -1.269954 0.698911
H -1.437521 -1.609576 2.064789
5
Structure 26 | Energy: -10.835624 Hartree
N 1.639639 -1.768321 1.483327
N 1.254556 -1.546679 2.487967
O -1.268191 -1.194011 1.216229
H -2.072641 -1.269954 0.698911
H -1.437521 -1.609576 2.064789
5
Structure 27 | Energy: -10.835283 Hartree
N 1.639639 -1.768321 1.483327
N 1.254556 -1.546679 2.487967
O -1.159372 -1.211140 1.245730
H -1.963822 -1.287083 0.728412
H -1.328702 -1.626705 2.094290
5
Structure 28 | Energy: -10.835180 Hartree
N 1.639639 -1.768321 1.483327
N 1.254556 -1.546679 2.487967
O -1.159376 -1.211127 1.245737
H -2.013383 -1.129849 0.816097
H -1.279076 -1.784143 2.006490
5
Structure 29 | Energy: -10.835352 Hartree
N 1.618680 -1.205426 1.725132
N 1.275515 -2.109574 2.246162
O -1.159376 -1.211127 1.245737
H -2.013383 -1.129849 0.816097
H -1.279076 -1.784143 2.006490
5
Structure 30 | Energy: -10.833549 Hartree
N 1.618680 -1.205426 1.725132
N 1.275515 -2.109574 2.246162
O -1.251746 -1.190951 1.283206
H -0.751096 -1.230337 0.465696
H -1.075273 -2.003885 1.762182
5
Structure 31 | Energy: -10.833622 Hartree
N 1.611286 -1.137274 1.759299
N 1.278618 -2.032557 2.301994
O -1.251746 -1.190951 1.283206
H -0.751096 -1.230337 0.465696
H -1.075273 -2.003885 1.762182
5
Structure 32 | Energy: -10.833486 Hartree
N 1.611286 -1.137274 1.759299
N 1.278618 -2.032557 2.301994
O -1.196970 -0.683439 1.590597
H -0.804891 -0.795379 0.722112
H -1.123211 -1.525893 2.044747
5
Structure 33 | Energy: -10.833353 Hartree
N 1.611286 -1.137274 1.759299
N 1.278618 -2.032557 2.301994
O -1.196976 -0.683441 1.590595
H -0.877893 -0.819720 0.696091
H -1.050114 -1.501521 2.070802
5
Structure 34 | Energy: -10.835124 Hartree
N -1.004571 -0.289199 1.296067
N -1.337239 -1.184482 1.838761
O 1.418881 -1.531516 2.053828
H 1.737964 -1.667795 1.159323
H 1.565743 -2.349596 2.534034
5
Structure 35 | Energy: -10.835182 Hartree
N -1.004571 -0.289199 1.296067
N -1.337239 -1.184482 1.838761
O -3.723970 0.060314 0.918185
H -3.805245 0.857015 1.446566
H -3.911811 0.303814 0.008875
5
Structure 36 | Energy: -10.834959 Hartree
N -1.004571 -0.289199 1.296067
N -1.337239 -1.184482 1.838761
O -3.683786 0.046930 0.928677
H -3.765061 0.843631 1.457058
H -3.871627 0.290430 0.019367
5
Structure 37 | Energy: -10.835126 Hartree
N -1.004571 -0.289199 1.296067
N -1.337239 -1.184482 1.838761
O -3.614044 0.232309 0.912683
H -3.634421 1.038690 1.432161
H -3.780472 0.479600 0.000229
5
Structure 38 | Energy: -10.835185 Hartree
N -1.309134 -1.265187 1.625910
N -1.032676 -0.208493 1.508918
O -3.614044 0.232309 0.912683
H -3.634421 1.038690 1.432161
H -3.780472 0.479600 0.000229
5
Structure 39 | Energy: -10.835177 Hartree
N -1.317404 -1.256270 1.669445
N -1.024405 -0.217411 1.465383
O -3.614044 0.232309 0.912683
H -3.634421 1.038690 1.432161
H -3.780472 0.479600 0.000229
5
Structure 40 | Energy: -10.835177 Hartree
N -1.317404 -1.256270 1.669445
N -1.024405 -0.217411 1.465383
O 1.478415 -1.150607 1.184328
H 1.851221 -0.450999 1.724780
H 1.836337 -1.045710 0.299845
5
Structure 41 | Energy: -10.832471 Hartree
N 1.372802 -1.625022 1.267110
N 1.665802 -0.586163 1.063047
O -1.211791 -0.781855 1.586664
H -0.838985 -0.082247 2.127116
H -0.853869 -0.676958 0.702181
5
Structure 42 | Energy: -10.834586 Hartree
N 1.372802 -1.625022 1.267110
N 1.665802 -0.586163 1.063047
O -2.209316 0.256408 2.761069
H -1.836509 0.956016 3.301521
H -1.851394 0.361305 1.876586
5
Structure 43 | Energy: -10.834598 Hartree
N 1.466719 -1.623311 1.514068
N 1.758477 -0.587418 1.293794
O -2.209316 0.256408 2.761069
H -1.836509 0.956016 3.301521
H -1.851394 0.361305 1.876586
5
Structure 44 | Energy: -10.834705 Hartree
N 1.704289 -0.690963 1.752562
N 1.520908 -1.519767 1.055301
O -2.209316 0.256408 2.761069
H -1.836509 0.956016 3.301521
H -1.851394 0.361305 1.876586
5
Structure 45 | Energy: -10.834846 Hartree
N 1.704289 -0.690963 1.752562
N 1.520908 -1.519767 1.055301
O -2.158562 0.305583 2.678939
H -1.665636 -0.236691 3.298202
H -2.827828 0.773502 3.183475
5
Structure 46 | Energy: -10.834989 Hartree
N 1.704289 -0.690963 1.752562
N 1.520908 -1.519767 1.055301
O -2.158649 0.305576 2.678925
H -2.729817 -0.322222 3.126318
H -1.762267 0.859144 3.355582
5
Structure 47 | Energy: -10.834985 Hartree
N 1.699982 -0.708780 1.735271
N 1.516601 -1.537584 1.038010
O -2.158649 0.305576 2.678925
H -2.729817 -0.322222 3.126318
H -1.762267 0.859144 3.355582
5
Structure 48 | Energy: -10.835001 Hartree
N 1.673500 -0.698791 1.744773
N 1.490120 -1.527595 1.047512
O -2.158649 0.305576 2.678925
H -2.729817 -0.322222 3.126318
H -1.762267 0.859144 3.355582
5
Structure 49 | Energy: -10.835001 Hartree
N 1.673500 -0.698791 1.744773
N 1.490120 -1.527595 1.047512
O -2.161564 0.267623 2.718103
H -2.732732 -0.360175 3.165496
H -1.765182 0.821192 3.394760
5
Structure 50 | Energy: -10.835002 Hartree
N 1.673500 -0.698791 1.744773
N 1.490120 -1.527595 1.047512
O -2.129649 0.360073 2.708256
H -2.715299 -0.252078 3.158599
H -1.721051 0.908010 3.382225
5
Structure 51 | Energy: -10.835003 Hartree
N 1.674466 -0.709098 1.771112
N 1.491085 -1.537902 1.073851
O -2.129649 0.360073 2.708256
H -2.715299 -0.252078 3.158599
H -1.721051 0.908010 3.382225
5
Structure 52 | Energy: -10.834990 Hartree
N 1.674466 -0.709098 1.771112
N 1.491085 -1.537902 1.073851
O -1.796795 0.572925 3.249213
H -2.362960 -0.012959 3.755890
H -1.260121 1.060912 3.877920
5
Structure 53 | Energy: -10.834415 Hartree
N 1.250926 -0.770580 1.681332
N 1.914625 -1.476420 1.163632
O -1.796795 0.572925 3.249213
H -2.362960 -0.012959 3.755890
H -1.260121 1.060912 3.877920
5
Structure 54 | Energy: -10.834402 Hartree
N 1.212916 -0.774105 1.672222
N 1.876614 -1.479945 1.154523
O -1.796795 0.572925 3.249213
H -2.362960 -0.012959 3.755890
H -1.260121 1.060912 3.877920
5
Structure 55 | Energy: -10.834676 Hartree
N 1.817439 -1.364371 0.999857
N 1.272091 -0.889679 1.826888
O -1.796795 0.572925 3.249213
H -2.362960 -0.012959 3.755890
H -1.260121 1.060912 3.877920
5
Structure 56 | Energy: -10.834691 Hartree
N 1.817439 -1.364371 0.999857
N 1.272091 -0.889679 1.826888
O -1.810684 0.611401 3.186786
H -2.384228 0.035136 3.696187
H -1.279189 1.107242 3.813744
5
Structure 57 | Energy: -10.834732 Hartree
N 2.038838 -1.062244 1.127143
N 1.423489 -0.656546 1.941681
O -1.810684 0.611401 3.186786
H -2.384228 0.035136 3.696187
H -1.279189 1.107242 3.813744
5
Structure 58 | Energy: -10.834557 Hartree
N -1.505363 0.404052 2.843100
N -2.120711 0.809750 3.657638
O 1.733516 -0.854895 1.470829
H 1.159972 -1.431161 1.980230
H 2.265012 -0.359055 2.097787
5
Structure 59 | Energy: -10.834551 Hartree
N -1.505363 0.404052 2.843100
N -2.120711 0.809750 3.657638
O 1.736973 -0.871577 1.491625
H 1.160617 -1.443848 2.002354
H 2.267202 -0.373080 2.117548
5
Structure 60 | Energy: -10.834767 Hartree
N -1.505363 0.404052 2.843100
N -2.120711 0.809750 3.657638
O 1.736959 -0.871555 1.491626
H 0.988486 -1.168468 2.013310
H 2.439557 -0.648818 2.106578
5
Structure 61 | Energy: -10.834227 Hartree
N -1.505363 0.404052 2.843100
N -2.120711 0.809750 3.657638
O 1.690065 -0.889507 1.511484
H 1.596496 -0.971528 2.462821
H 2.575850 -0.560815 1.341874
5
Structure 62 | Energy: -10.835262 Hartree
N 2.042067 -1.078554 1.147955
N 1.426718 -0.672856 1.962494
O -1.857364 0.593099 3.206629
H -1.950934 0.511078 4.157966
H -0.971579 0.921791 3.037018
5
Structure 63 | Energy: -10.835245 Hartree
N 2.042067 -1.078554 1.147955
N 1.426718 -0.672856 1.962494
O -1.871178 0.680970 3.092059
H -1.988572 0.618714 4.042252
H -0.976410 0.992342 2.937592
5
Structure 64 | Energy: -10.835886 Hartree
N 1.594636 -0.570000 1.179874
N 0.979287 -0.164302 1.994413
O -1.871178 0.680970 3.092059
H -1.988572 0.618714 4.042252
H -0.976410 0.992342 2.937592
5
Structure 65 | Energy: -10.835868 Hartree
N 1.594636 -0.570000 1.179874
N 0.979287 -0.164302 1.994413
O -2.089138 0.571345 2.615907
H -2.334571 0.522316 3.542127
H -1.194918 0.918313 2.578426
5
Structure 66 | Energy: -10.835868 Hartree
N 1.595092 -0.569098 1.180292
N 0.979535 -0.163646 1.994794
O -2.089138 0.571345 2.615907
H -2.334571 0.522316 3.542127
H -1.194918 0.918313 2.578426
5
Structure 67 | Energy: -10.835876 Hartree
N 1.595092 -0.569098 1.180292
N 0.979535 -0.163646 1.994794
O -2.090149 0.571594 2.616577
H -2.322147 0.532447 3.546721
H -1.191301 0.904229 2.563202
5
Structure 68 | Energy: -10.835876 Hartree
N 1.595092 -0.569098 1.180292
N 0.979535 -0.163646 1.994794
O 1.273993 -1.644284 -1.834840
H 1.944420 -2.277836 -2.098779
H 1.701604 -1.001257 -1.264676
5
Structure 69 | Energy: -10.835687 Hartree
N 1.595092 -0.569098 1.180292
N 0.979535 -0.163646 1.994794
O 1.289960 -1.676346 -1.848343
H 1.224673 -1.296394 -0.969765
H 2.167924 -1.473809 -2.179370
5
Structure 70 | Energy: -10.834226 Hartree
N 1.595092 -0.569098 1.180292
N 0.979535 -0.163646 1.994794
O 1.367238 -1.605750 -1.777547
H 0.918502 -1.336467 -2.581690
H 1.247541 -2.554236 -1.691120
5
Structure 71 | Energy: -10.834231 Hartree
N 1.595092 -0.569098 1.180292
N 0.979535 -0.163646 1.994794
O 1.333676 -1.643859 -1.763897
H 0.883604 -1.378229 -2.568509
H 1.203331 -2.589847 -1.666234
5
Structure 72 | Energy: -10.835806 Hartree
N 1.608978 -1.884653 -2.210705
N 0.993421 -1.479201 -1.396202
O 1.319790 -0.328304 1.627099
H 0.869717 -0.062675 0.822487
H 1.189445 -1.274292 1.724762
5
Structure 73 | Energy: -10.835848 Hartree
N 1.608978 -1.884653 -2.210705
N 0.993421 -1.479201 -1.396202
O 1.069323 -0.700778 1.744069
H 0.732717 -0.310191 0.934957
H 0.847874 -1.634498 1.720636
5
Structure 74 | Energy: -10.835836 Hartree
N 1.618812 -1.975542 -2.181263
N 1.003131 -1.545591 -1.379517
O 1.069323 -0.700778 1.744069
H 0.732717 -0.310191 0.934957
H 0.847874 -1.634498 1.720636
5
Structure 75 | Energy: -10.834165 Hartree
N 1.345939 -0.946144 1.296612
N 0.730257 -0.516193 2.098358
O 1.342197 -1.730177 -1.733806
H 1.005591 -1.339590 -2.542918
H 1.120748 -2.663897 -1.757239
5
Structure 76 | Energy: -10.834412 Hartree
N 1.345939 -0.946144 1.296612
N 0.730257 -0.516193 2.098358
O 0.650209 -2.637619 -2.343264
H 0.313603 -2.247032 -3.152377
H 0.428760 -3.571339 -2.366697
5
Structure 77 | Energy: -10.834849 Hartree
N 1.531135 -0.609287 1.488346
N 0.545061 -0.853050 1.906624
O 0.650209 -2.637619 -2.343264
H 0.313603 -2.247032 -3.152377
H 0.428760 -3.571339 -2.366697
5
Structure 78 | Energy: -10.834848 Hartree
N 1.531135 -0.609287 1.488346
N 0.545061 -0.853050 1.906624
O 0.631874 -2.532733 -2.389325
H 0.325030 -2.110839 -3.194543
H 0.370929 -3.455288 -2.436459
5
Structure 79 | Energy: -10.834897 Hartree
N 1.118333 0.137299 0.919979
N 0.132260 -0.106464 1.338257
O 0.631874 -2.532733 -2.389325
H 0.325030 -2.110839 -3.194543
H 0.370929 -3.455288 -2.436459
5
Structure 80 | Energy: -10.834948 Hartree
N 1.137745 -0.138940 1.252609
N 0.112848 0.169775 1.005627
O 0.631874 -2.532733 -2.389325
H 0.325030 -2.110839 -3.194543
H 0.370929 -3.455288 -2.436459
5
Structure 81 | Energy: -10.834946 Hartree
N 1.137745 -0.138940 1.252609
N 0.112848 0.169775 1.005627
O 0.631344 -2.534795 -2.387832
H 0.391803 -2.095205 -3.206309
H 0.312567 -3.438197 -2.448393
5
Structure 82 | Energy: -10.834979 Hartree
N 1.058963 -0.148247 1.156424
N 0.034066 0.160468 0.909442
O 0.631344 -2.534795 -2.387832
H 0.391803 -2.095205 -3.206309
H 0.312567 -3.438197 -2.448393
5
Structure 83 | Energy: -10.835105 Hartree
N 1.351047 -0.928876 1.390250
N 0.326151 -0.620161 1.143269
O 0.631344 -2.534795 -2.387832
H 0.391803 -2.095205 -3.206309
H 0.312567 -3.438197 -2.448393
5
Structure 84 | Energy: -10.834370 Hartree
N 1.112552 -2.715104 -2.313526
N 0.087656 -2.406390 -2.560508
O 0.869839 -0.748566 1.315945
H 0.630298 -0.308976 0.497468
H 0.551062 -1.651968 1.255383
5
Structure 85 | Energy: -10.834370 Hartree
N 1.112289 -2.714820 -2.313700
N 0.087384 -2.406063 -2.560593
O 0.869839 -0.748566 1.315945
H 0.630298 -0.308976 0.497468
H 0.551062 -1.651968 1.255383
5
Structure 86 | Energy: -10.835105 Hartree
N 1.351052 -0.928897 1.390206
N 0.326147 -0.620140 1.143313
O 0.631076 -2.534490 -2.387962
H 0.391536 -2.094899 -3.206439
H 0.312299 -3.437892 -2.448523
5
Structure 87 | Energy: -10.835105 Hartree
N 1.351052 -0.928897 1.390206
N 0.326147 -0.620140 1.143313
O 1.602056 -2.827002 -2.154059
H 2.353363 -2.685909 -2.733847
H 1.389847 -3.762508 -2.188949
5
Structure 88 | Energy: -10.835105 Hartree
N 1.353332 -0.915510 1.383086
N 0.367333 -0.526692 1.094390
O 1.602056 -2.827002 -2.154059
H 2.353363 -2.685909 -2.733847
H 1.389847 -3.762508 -2.188949
5
Structure 89 | Energy: -10.835099 Hartree
N 1.057656 -1.281473 1.526546
N 0.130802 -0.804316 1.180165
O 1.602056 -2.827002 -2.154059
H 2.353363 -2.685909 -2.733847
H 1.389847 -3.762508 -2.188949
5
Structure 90 | Energy: -10.835057 Hartree
N 1.075327 -0.828443 1.197681
N 0.113131 -1.257345 1.509031
O 1.602056 -2.827002 -2.154059
H 2.353363 -2.685909 -2.733847
H 1.389847 -3.762508 -2.188949
5
Structure 91 | Energy: -10.834512 Hartree
N 2.113319 -2.657001 -2.344127
N 1.151122 -3.085902 -2.032777
O 0.564065 -0.998444 1.387749
H 1.315372 -0.857351 0.807961
H 0.351856 -1.933950 1.352859
5
Structure 92 | Energy: -10.834548 Hartree
N 2.113319 -2.657001 -2.344127
N 1.151122 -3.085902 -2.032777
O 0.183103 -1.222617 1.363974
H 0.966813 -1.013627 0.851483
H 0.030572 -2.166154 1.275130
5
Structure 93 | Energy: -10.834600 Hartree
N 1.397630 -2.604671 -2.607349
N 1.866811 -3.138233 -1.769555
O 0.183103 -1.222617 1.363974
H 0.966813 -1.013627 0.851483
H 0.030572 -2.166154 1.275130
5
Structure 94 | Energy: -10.835257 Hartree
N 1.567639 -3.243386 -2.587418
N 1.696802 -2.499517 -1.789487
O 0.183103 -1.222617 1.363974
H 0.966813 -1.013627 0.851483
H 0.030572 -2.166154 1.275130
5
Structure 95 | Energy: -10.834410 Hartree
N 1.567639 -3.243386 -2.587418
N 1.696802 -2.499517 -1.789487
O -2.351912 -2.181208 -3.231803
H -1.899743 -2.084284 -2.391165
H -1.719517 -1.961930 -3.919854
5
Structure 96 | Energy: -10.834417 Hartree
N 1.586046 -3.235791 -2.596869
N 1.678395 -2.507113 -1.780035
O -2.351912 -2.181208 -3.231803
H -1.899743 -2.084284 -2.391165
H -1.719517 -1.961930 -3.919854
5
Structure 97 | Energy: -10.834418 Hartree
N 1.569940 -3.230147 -2.495889
N 1.634199 -2.514030 -1.665369
O -2.351912 -2.181208 -3.231803
H -1.899743 -2.084284 -2.391165
H -1.719517 -1.961930 -3.919854
5
Structure 98 | Energy: -10.834446 Hartree
N 1.555825 -3.446252 -2.862477
N 1.706876 -2.813225 -1.977503
O -2.351912 -2.181208 -3.231803
H -1.899743 -2.084284 -2.391165
H -1.719517 -1.961930 -3.919854
5
Structure 99 | Energy: -10.834448 Hartree
N 1.555825 -3.446252 -2.862477
N 1.706876 -2.813225 -1.977503
O -2.397984 -2.194825 -2.981712
H -1.905622 -2.137375 -2.160249
H -1.803205 -1.929550 -3.686899
5
Structure 100 | Energy: -10.834432 Hartree
N 1.540937 -3.410687 -2.508905
N 1.625046 -2.728621 -1.651916
O -2.397984 -2.194825 -2.981712
H -1.905622 -2.137375 -2.160249
H -1.803205 -1.929550 -3.686899
5
Structure 101 | Energy: -10.834442 Hartree
N 1.650540 -3.414948 -2.621723
N 1.734649 -2.732882 -1.764735
O -2.349929 -2.067924 -3.043967
H -1.857566 -2.010474 -2.222503
H -1.755150 -1.802650 -3.749154
5
Structure 102 | Energy: -10.834758 Hartree
N 1.650540 -3.414948 -2.621723
N 1.734649 -2.732882 -1.764735
O -2.290527 -1.986251 -3.033040
H -2.757961 -2.606964 -2.470239
H -1.797581 -2.502487 -3.674854
5
Structure 103 | Energy: -10.834758 Hartree
N 1.650540 -3.414948 -2.621723
N 1.734649 -2.732882 -1.764735
O -2.246913 -1.632573 -2.588658
H -2.717084 -2.275478 -2.053740
H -1.633988 -1.175862 -2.008003
5
Structure 104 | Energy: -10.834857 Hartree
N 1.194562 -3.485622 -2.403242
N 1.278671 -2.803556 -1.546253
O -2.246913 -1.632573 -2.588658
H -2.717084 -2.275478 -2.053740
H -1.633988 -1.175862 -2.008003
5
Structure 105 | Energy: -10.835033 Hartree
N -2.280980 -1.984024 -2.954732
N -2.196871 -1.301958 -2.097743
O 1.228629 -3.134171 -2.037168
H 0.758459 -3.777076 -1.502250
H 1.841555 -2.677460 -1.456513
5
Structure 106 | Energy: -10.834857 Hartree
N 1.194562 -3.485622 -2.403242
N 1.278671 -2.803556 -1.546253
O -2.246913 -1.632573 -2.588658
H -2.717084 -2.275478 -2.053740
H -1.633988 -1.175862 -2.008003
5
Structure 107 | Energy: -10.834961 Hartree
N 1.194562 -3.485622 -2.403242
N 1.278671 -2.803556 -1.546253
O -2.068448 -1.216594 -2.371538
H -2.610951 -1.884124 -1.946543
H -1.427322 -0.918124 -1.722466
5
Structure 108 | Energy: -10.834993 Hartree
N -2.104985 -1.578277 -2.739935
N -2.020876 -0.896211 -1.882946
O 1.231098 -3.123939 -2.034845
H 0.688596 -3.791468 -1.609851
H 1.872225 -2.825468 -1.385774
5
Structure 109 | Energy: -10.835166 Hartree
N -1.999080 -0.692361 -2.284899
N -2.126780 -1.782128 -2.337982
O 1.231098 -3.123939 -2.034845
H 0.688596 -3.791468 -1.609851
H 1.872225 -2.825468 -1.385774
5
Structure 110 | Energy: -10.834710 Hartree
N -1.999080 -0.692361 -2.284899
N -2.126780 -1.782128 -2.337982
O 1.274019 -3.151092 -1.923490
H 1.063035 -2.330849 -2.374280
H 0.816549 -3.855112 -2.388784
5
Structure 111 | Energy: -10.834694 Hartree
N -1.910034 -0.134258 -2.075656
N -2.037734 -1.224026 -2.128739
O 1.274019 -3.151092 -1.923490
H 1.063035 -2.330849 -2.374280
H 0.816549 -3.855112 -2.388784
5
Structure 112 | Energy: -10.834716 Hartree
N -1.910034 -0.134258 -2.075656
N -2.037734 -1.224026 -2.128739
O 1.275959 -3.150346 -1.924872
H 1.071680 -2.341538 -2.398816
H 0.777104 -3.856257 -2.342311
5
Structure 113 | Energy: -10.834731 Hartree
N 1.300467 -2.599705 -1.948206
N 1.172767 -3.689473 -2.001289
O -1.934541 -0.684900 -2.052321
H -2.138820 0.123909 -2.526265
H -2.433396 -1.390810 -2.469760
5
Structure 114 | Energy: -10.834816 Hartree
N 0.957407 -2.413708 -2.278568
N 0.829708 -3.503475 -2.331651
O -1.934541 -0.684900 -2.052321
H -2.138820 0.123909 -2.526265
H -2.433396 -1.390810 -2.469760
5
Structure 115 | Energy: -10.834784 Hartree
N 0.837886 -2.609094 -2.063118
N 0.639541 -3.689059 -2.095571
O -1.934541 -0.684900 -2.052321
H -2.138820 0.123909 -2.526265
H -2.433396 -1.390810 -2.469760
5
Structure 116 | Energy: -10.834800 Hartree
N 0.902291 -2.507143 -1.966840
N 0.745627 -3.592649 -2.028901
O -1.934541 -0.684900 -2.052321
H -2.138820 0.123909 -2.526265
H -2.433396 -1.390810 -2.469760
5
Structure 117 | Energy: -10.834825 Hartree
N 0.902291 -2.507143 -1.966840
N 0.745627 -3.592649 -2.028901
O -1.936157 -0.686129 -2.051242
H -2.087637 0.124937 -2.540884
H -2.458933 -1.372319 -2.472277
5
Structure 118 | Energy: -10.834560 Hartree
N 0.376032 -2.656932 -1.791286
N 0.219367 -3.742437 -1.853346
O -1.936157 -0.686129 -2.051242
H -2.087637 0.124937 -2.540884
H -2.458933 -1.372319 -2.472277
5
Structure 119 | Energy: -10.834565 Hartree
N 0.403968 -2.687930 -1.787843
N 0.247304 -3.773435 -1.849904
O -1.936157 -0.686129 -2.051242
H -2.087637 0.124937 -2.540884
H -2.458933 -1.372319 -2.472277
5
Structure 120 | Energy: -10.834582 Hartree
N 0.403968 -2.687930 -1.787843
N 0.247304 -3.773435 -1.849904
O -1.946391 -0.705004 -2.071079
H -2.097871 0.106061 -2.560722
H -2.469167 -1.391194 -2.492114
5
Structure 121 | Energy: -10.834905 Hartree
N -1.905785 -0.155264 -2.091004
N -2.062450 -1.240770 -2.153065
O 0.363363 -3.237670 -1.767918
H 0.211883 -2.426604 -2.257561
H -0.159413 -3.923860 -2.188953
5
Structure 122 | Energy: -10.834900 Hartree
N -1.887146 -0.140915 -2.080460
N -2.051523 -1.225465 -2.139197
O 0.363363 -3.237670 -1.767918
H 0.211883 -2.426604 -2.257561
H -0.159413 -3.923860 -2.188953
5
Structure 123 | Energy: -10.834579 Hartree
N 0.407825 -2.688408 -1.789505
N 0.243448 -3.772957 -1.848242
O -1.931608 -0.690177 -2.058873
H -2.083088 0.120888 -2.548516
H -2.454384 -1.376367 -2.479908
5
Structure 124 | Energy: -10.834447 Hartree
N 0.407825 -2.688408 -1.789505
N 0.243448 -3.772957 -1.848242
O -1.819681 -0.598150 -2.091459
H -1.983404 0.168371 -2.644780
H -2.416748 -1.290560 -2.383866
5
Structure 125 | Energy: -10.834448 Hartree
N 0.456246 -2.776760 -1.818224
N 0.291869 -3.861309 -1.876962
O -1.819681 -0.598150 -2.091459
H -1.983404 0.168371 -2.644780
H -2.416748 -1.290560 -2.383866
5
Structure 126 | Energy: -10.834136 Hartree
N 0.456246 -2.776760 -1.818224
N 0.291869 -3.861309 -1.876962
O -1.412162 -0.254883 -2.302794
H -1.575885 0.511638 -2.856115
H -2.009228 -0.947293 -2.595201
5
Structure 127 | Energy: -10.834172 Hartree
N 0.399077 -2.675241 -1.750152
N 0.234700 -3.759790 -1.808890
O -1.525045 -0.296402 -2.287431
H -1.688768 0.470119 -2.840752
H -2.122111 -0.988812 -2.579838
5
Structure 128 | Energy: -10.834172 Hartree
N 0.399077 -2.675241 -1.750152
N 0.234700 -3.759790 -1.808890
O 2.931313 -0.969844 -2.323904
H 3.305335 -0.284586 -2.881626
H 3.292376 -1.807045 -2.624152
5
Structure 129 | Energy: -10.834130 Hartree
N 0.399077 -2.675241 -1.750152
N 0.234700 -3.759790 -1.808890
O 2.877922 -1.037165 -2.313480
H 3.251944 -0.351908 -2.871202
H 3.238984 -1.874367 -2.613728
5
Structure 130 | Energy: -10.834197 Hartree
N 0.349399 -2.662407 -1.694310
N 0.185022 -3.746957 -1.753047
O 2.877922 -1.037165 -2.313480
H 3.251944 -0.351908 -2.871202
H 3.238984 -1.874367 -2.613728
5
Structure 131 | Energy: -10.834197 Hartree
N 0.349399 -2.662407 -1.694310
N 0.185022 -3.746957 -1.753047
O 2.877922 -1.113542 -0.903236
H 3.251944 -0.492526 -0.274768
H 3.238984 -1.978273 -0.695161
5
Structure 132 | Energy: -10.834257 Hartree
N 0.349399 -2.662407 -1.694310
N 0.185022 -3.746957 -1.753047
O 2.937060 -1.124398 -0.863384
H 3.311082 -0.503382 -0.234917
H 3.298122 -1.989130 -0.655310
5
Structure 133 | Energy: -10.834281 Hartree
N 0.349399 -2.662407 -1.694310
N 0.185022 -3.746957 -1.753047
O 2.936339 -1.126116 -0.863214
H 3.289574 -0.489398 -0.238443
H 3.331061 -1.975849 -0.654478
5
Structure 134 | Energy: -10.834265 Hartree
N 0.349151 -2.666352 -1.651804
N 0.185271 -3.743012 -1.795553
O 2.936339 -1.126116 -0.863214
H 3.289574 -0.489398 -0.238443
H 3.331061 -1.975849 -0.654478
5
Structure 135 | Energy: -10.834256 Hartree
N 0.349151 -2.666352 -1.651804
N 0.185271 -3.743012 -1.795553
O 2.936383 -1.125202 -0.863011
H 3.293268 -0.499728 -0.229024
H 3.326671 -1.980028 -0.667131
5
Structure 136 | Energy: -10.835162 Hartree
N 3.060130 -0.599705 -0.744702
N 2.896250 -1.676365 -0.888451
O 0.225404 -3.191849 -1.770112
H 0.582289 -2.566375 -1.136125
H 0.615692 -4.046675 -1.574232
5
Structure 137 | Energy: -10.835247 Hartree
N 3.060130 -0.599705 -0.744702
N 2.896250 -1.676365 -0.888451
O 0.494008 -3.359049 -2.081941
H 0.724129 -2.696533 -1.427235
H 0.890018 -4.186197 -1.798349
5
Structure 138 | Energy: -10.834672 Hartree
N 2.857999 -0.627161 -0.654584
N 3.098381 -1.648908 -0.978570
O 0.494008 -3.359049 -2.081941
H 0.724129 -2.696533 -1.427235
H 0.890018 -4.186197 -1.798349
5
Structure 139 | Energy: -10.834736 Hartree
N 2.983984 -0.654242 -0.831417
N 3.173883 -1.708606 -1.074260
O 0.494008 -3.359049 -2.081941
H 0.724129 -2.696533 -1.427235
H 0.890018 -4.186197 -1.798349
5
Structure 140 | Energy: -10.834451 Hartree
N 2.727515 -1.298394 -1.358428
N 3.430352 -1.064455 -0.547250
O 0.494008 -3.359049 -2.081941
H 0.724129 -2.696533 -1.427235
H 0.890018 -4.186197 -1.798349
5
Structure 141 | Energy: -10.835189 Hartree
N 1.120957 -0.878682 -3.767118
N 0.703260 -0.352005 -4.635943
O 0.494008 -3.359049 -2.081941
H 0.724129 -2.696533 -1.427235
H 0.890018 -4.186197 -1.798349
5
Structure 142 | Energy: -10.835245 Hartree
N 1.120957 -0.878682 -3.767118
N 0.703260 -0.352005 -4.635943
O 0.255668 -3.314246 -2.084835
H 0.476607 -2.654707 -1.423989
H 0.598721 -4.154247 -1.771568
5
Structure 143 | Energy: -10.835267 Hartree
N 1.120957 -0.878682 -3.767118
N 0.703260 -0.352005 -4.635943
O 0.257701 -3.317370 -2.086440
H 0.465920 -2.619556 -1.461761
H 0.577152 -4.139810 -1.708332
5
Structure 144 | Energy: -10.835267 Hartree
N -2.148314 -1.386663 -2.109946
N -2.729216 -0.885344 -2.896044
O 0.257701 -3.317370 -2.086440
H 0.465920 -2.619556 -1.461761
H 0.577152 -4.139810 -1.708332
5
Structure 145 | Energy: -10.835246 Hartree
N -2.094307 -1.324264 -2.174489
N -2.627745 -0.792735 -2.974264
O 0.257701 -3.317370 -2.086440
H 0.465920 -2.619556 -1.461761
H 0.577152 -4.139810 -1.708332
5
Structure 146 | Energy: -10.835102 Hartree
N -2.939257 -1.634069 -1.279743
N -3.472695 -1.102541 -2.079518
O 0.257701 -3.317370 -2.086440
H 0.465920 -2.619556 -1.461761
H 0.577152 -4.139810 -1.708332
5
Structure 147 | Energy: -10.834561 Hartree
N -2.939257 -1.634069 -1.279743
N -3.472695 -1.102541 -2.079518
O 0.240928 -3.334579 -1.987665
H 0.599125 -2.482891 -2.246213
H 0.710163 -4.003345 -2.491640
5
Structure 148 | Energy: -10.834580 Hartree
N -2.916643 -1.595148 -1.271577
N -3.495309 -1.141462 -2.087685
O 0.240928 -3.334579 -1.987665
H 0.599125 -2.482891 -2.246213
H 0.710163 -4.003345 -2.491640
5
Structure 149 | Energy: -10.834556 Hartree
N -2.984642 -1.633464 -1.514181
N -3.494377 -1.165216 -2.367194
O 0.240928 -3.334579 -1.987665
H 0.599125 -2.482891 -2.246213
H 0.710163 -4.003345 -2.491640
5
Structure 150 | Energy: -10.834540 Hartree
N -2.984642 -1.633464 -1.514181
N -3.494377 -1.165216 -2.367194
O 0.242990 -3.330932 -1.984851
H 0.585355 -2.504174 -2.330946
H 0.691205 -4.039944 -2.451570
5
Structure 151 | Energy: -10.834295 Hartree
N -2.984642 -1.633464 -1.514181
N -3.494377 -1.165216 -2.367194
O 0.248674 -3.140352 -1.085274
H 0.591038 -2.313594 -1.431369
H 0.696889 -3.849364 -1.551994
5
Structure 152 | Energy: -10.834343 Hartree
N -2.984642 -1.633464 -1.514181
N -3.494377 -1.165216 -2.367194
O 1.395342 -3.080611 -0.339287
H 1.737707 -2.253853 -0.685382
H 1.843557 -3.789623 -0.806006
5
Structure 153 | Energy: -10.834328 Hartree
N -2.984642 -1.633464 -1.514181
N -3.494377 -1.165216 -2.367194
O 1.193836 -3.223496 0.031851
H 1.580517 -2.391590 -0.249105
H 1.673812 -3.923839 -0.415993
5
Structure 154 | Energy: -10.834327 Hartree
N -2.982273 -1.632529 -1.515092
N -3.496746 -1.166151 -2.366283
O 1.193836 -3.223496 0.031851
H 1.580517 -2.391590 -0.249105
H 1.673812 -3.923839 -0.415993
5
Structure 155 | Energy: -10.834325 Hartree
N -3.041966 -1.924865 -1.621702
N -3.566212 -1.497161 -2.487123
O 1.193836 -3.223496 0.031851
H 1.580517 -2.391590 -0.249105
H 1.673812 -3.923839 -0.415993
5
Structure 156 | Energy: -10.834319 Hartree
N -3.041966 -1.924865 -1.621702
N -3.566212 -1.497161 -2.487123
O 1.094097 -3.268656 0.073309
H 1.480777 -2.436750 -0.207647
H 1.574073 -3.968999 -0.374535
5
Structure 157 | Energy: -10.834325 Hartree
N -3.129318 -1.936466 -1.575404
N -3.653565 -1.508762 -2.440825
O 1.093331 -3.268626 0.072014
H 1.480012 -2.436720 -0.208941
H 1.573307 -3.968969 -0.375829
5
Structure 158 | Energy: -10.834344 Hartree
N -3.129318 -1.936466 -1.575404
N -3.653565 -1.508762 -2.440825
O 1.089560 -2.622796 0.971758
H 1.476241 -1.790891 0.690803
H 1.569536 -3.323140 0.523915
5
Structure 159 | Energy: -10.834346 Hartree
N -3.123481 -1.976903 -1.628681
N -3.647728 -1.549199 -2.494101
O 1.140371 -2.616322 0.897152
H 1.527052 -1.784417 0.616197
H 1.620347 -3.316666 0.449309
5
Structure 160 | Energy: -10.834538 Hartree
N -3.123481 -1.976903 -1.628681
N -3.647728 -1.549199 -2.494101
O 1.182187 -2.546205 0.865635
H 1.825019 -2.972557 0.295095
H 0.658683 -3.241420 1.270654
5
Structure 161 | Energy: -10.834532 Hartree
N -3.123481 -1.976903 -1.628681
N -3.647728 -1.549199 -2.494101
O 1.212417 -2.566371 0.924079
H 1.855249 -2.992723 0.353539
H 0.688913 -3.261586 1.329098
5
Structure 162 | Energy: -10.834672 Hartree
N -3.123481 -1.976903 -1.628681
N -3.647728 -1.549199 -2.494101
O 1.272493 -2.663118 0.922675
H 1.192440 -1.827380 0.458286
H 0.398204 -2.891354 1.246633
5
Structure 163 | Energy: -10.834526 Hartree
N -3.123481 -1.976903 -1.628681
N -3.647728 -1.549199 -2.494101
O 1.201007 -2.574502 0.887292
H 0.636392 -3.186222 1.364296
H 2.088879 -2.939031 0.902214
5
Structure 164 | Energy: -10.834535 Hartree
N -3.033073 -1.993907 -1.570246
N -3.557320 -1.566204 -2.435666
O 1.201007 -2.574502 0.887292
H 0.636392 -3.186222 1.364296
H 2.088879 -2.939031 0.902214
5
Structure 165 | Energy: -10.834537 Hartree
N -3.128568 -1.934078 -1.381857
N -3.680385 -1.523109 -2.238198
O 1.201007 -2.574502 0.887292
H 0.636392 -3.186222 1.364296
H 2.088879 -2.939031 0.902214
5
Structure 166 | Energy: -10.834642 Hartree
N 1.495003 -2.834611 1.342988
N 0.943185 -2.423642 0.486647
O -3.422564 -1.673969 -1.837552
H -3.987178 -2.285689 -1.360548
H -2.534691 -2.038498 -1.822631
5
Structure 167 | Energy: -10.834662 Hartree
N 1.495003 -2.834611 1.342988
N 0.943185 -2.423642 0.486647
O -3.314248 -1.725370 -1.792684
H -3.878863 -2.337090 -1.315680
H -2.426376 -2.089899 -1.777762
5
Structure 168 | Energy: -10.834550 Hartree
N -3.020252 -1.985479 -1.336988
N -3.572070 -1.574510 -2.193329
O 1.201007 -2.574502 0.887292
H 0.636392 -3.186222 1.364296
H 2.088879 -2.939031 0.902214
5
Structure 169 | Energy: -10.834550 Hartree
N -3.020252 -1.985479 -1.336988
N -3.572070 -1.574510 -2.193329
O 1.193059 -2.565441 0.903404
H 0.627868 -3.177997 1.378649
H 2.081527 -2.928369 0.921588
5
Structure 170 | Energy: -10.834543 Hartree
N -3.020252 -1.985479 -1.336988
N -3.572070 -1.574510 -2.193329
O 1.182896 -2.600025 0.930105
H 0.617704 -3.212581 1.405349
H 2.071363 -2.962954 0.948289
5
Structure 171 | Energy: -10.834543 Hartree
N -2.977733 -1.965563 -1.328228
N -3.529550 -1.554594 -2.184569
O 1.182896 -2.600025 0.930105
H 0.617704 -3.212581 1.405349
H 2.071363 -2.962954 0.948289
5
Structure 172 | Energy: -10.834464 Hartree
N -2.977733 -1.965563 -1.328228
N -3.529550 -1.554594 -2.184569
O 1.182936 -2.599993 0.930142
H 1.116923 -2.816342 1.862537
H 1.571496 -3.359707 0.490509
5
Structure 173 | Energy: -10.834603 Hartree
N -2.838388 -1.618059 -2.086662
N -3.668895 -1.902098 -1.426135
O 1.182936 -2.599993 0.930142
H 1.116923 -2.816342 1.862537
H 1.571496 -3.359707 0.490509
5
Structure 174 | Energy: -10.834483 Hartree
N -2.838388 -1.618059 -2.086662
N -3.668895 -1.902098 -1.426135
O 1.221798 -2.601643 0.928901
H 1.671836 -3.448475 0.958319
H 0.399768 -2.701383 1.414431
5
Structure 175 | Energy: -10.834486 Hartree
N -2.816269 -1.612685 -2.102661
N -3.646776 -1.896724 -1.442134
O 1.221798 -2.601643 0.928901
H 1.671836 -3.448475 0.958319
H 0.399768 -2.701383 1.414431
5
Structure 176 | Energy: -10.834572 Hartree
N 1.616238 -2.512587 0.627450
N 0.785730 -2.796627 1.287977
O -3.210708 -1.701741 -1.801210
H -2.760670 -2.548572 -1.771792
H -4.032739 -1.801481 -1.315680
5
Structure 177 | Energy: -10.834580 Hartree
N 1.616238 -2.512587 0.627450
N 0.785730 -2.796627 1.287977
O -3.207900 -1.704052 -1.803136
H -2.800702 -2.570153 -1.735448
H -4.037286 -1.743219 -1.321466
5
Structure 178 | Energy: -10.834479 Hartree
N -2.816269 -1.612685 -2.102661
N -3.646776 -1.896724 -1.442134
O 1.224607 -2.603954 0.926975
H 1.631805 -3.470056 0.994663
H 0.395220 -2.643121 1.408645
5
Structure 179 | Energy: -10.834580 Hartree
N 1.616238 -2.512587 0.627450
N 0.785730 -2.796627 1.287977
O -3.207900 -1.704052 -1.803136
H -2.800702 -2.570153 -1.735448
H -4.037286 -1.743219 -1.321466
5
Structure 180 | Energy: -10.834542 Hartree
N 1.616238 -2.512587 0.627450
N 0.785730 -2.796627 1.287977
O -3.366338 -1.005490 -1.690220
H -2.959140 -1.871592 -1.622532
H -4.195725 -1.044658 -1.208550
5
Structure 181 | Energy: -10.834524 Hartree
N 2.024360 -2.309135 0.883425
N 1.193852 -2.593174 1.543952
O -3.366338 -1.005490 -1.690220
H -2.959140 -1.871592 -1.622532
H -4.195725 -1.044658 -1.208550
5
Structure 182 | Energy: -10.834525 Hartree
N 2.024409 -2.300238 0.887457
N 1.193803 -2.602071 1.539920
O -3.366338 -1.005490 -1.690220
H -2.959140 -1.871592 -1.622532
H -4.195725 -1.044658 -1.208550
5
Structure 183 | Energy: -10.834524 Hartree
N 2.043322 -2.322550 0.879170
N 1.212716 -2.624383 1.531633
O -3.366338 -1.005490 -1.690220
H -2.959140 -1.871592 -1.622532
H -4.195725 -1.044658 -1.208550
5
Structure 184 | Energy: -10.834553 Hartree
N 2.110003 -2.213252 0.362711
N 1.279396 -2.515085 1.015174
O -3.366338 -1.005490 -1.690220
H -2.959140 -1.871592 -1.622532
H -4.195725 -1.044658 -1.208550
5
Structure 185 | Energy: -10.834436 Hartree
N -2.974658 -0.905227 -1.985713
N -3.805264 -1.207060 -1.333250
O 1.718322 -2.313515 0.658204
H 2.125520 -3.179617 0.725891
H 0.888936 -2.352683 1.139874
5
Structure 186 | Energy: -10.834438 Hartree
N -2.983193 -1.166805 -2.098320
N -3.811744 -1.405795 -1.417801
O 1.718322 -2.313515 0.658204
H 2.125520 -3.179617 0.725891
H 0.888936 -2.352683 1.139874
5
Structure 187 | Energy: -10.834441 Hartree
N -2.990567 -1.164054 -2.106151
N -3.804369 -1.408545 -1.409970
O 1.718322 -2.313515 0.658204
H 2.125520 -3.179617 0.725891
H 0.888936 -2.352683 1.139874
5
Structure 188 | Energy: -10.834548 Hartree
N 2.101601 -2.241923 0.340852
N 1.287799 -2.486413 1.037033
O -3.373846 -1.235647 -1.788799
H -2.966648 -2.101749 -1.721111
H -4.203232 -1.274814 -1.307129
5
Structure 189 | Energy: -10.835650 Hartree
N 2.140345 0.008925 -0.802990
N 2.403123 -1.049694 -0.925656
O 1.876729 3.480312 0.385869
H 1.657250 4.124465 -0.289713
H 2.058881 2.650932 -0.064797
5
Structure 190 | Energy: -10.834319 Hartree
N 1.743251 3.999258 0.384185
N 2.006030 2.940638 0.261519
O 2.273823 -0.510020 -0.801306
H 2.054343 0.134133 -1.476888
H 2.455975 -1.339401 -1.251972
5
Structure 191 | Energy: -10.835650 Hartree
N 2.140345 0.008925 -0.802990
N 2.403123 -1.049694 -0.925656
O 1.876729 3.480312 0.385869
H 1.657250 4.124465 -0.289713
H 2.058881 2.650932 -0.064797
5
Structure 192 | Energy: -10.835034 Hartree
N 2.140345 0.008925 -0.802990
N 2.403123 -1.049694 -0.925656
O 1.935346 3.484834 0.309580
H 1.190299 4.088447 0.318012
H 1.595452 2.615185 0.538346
5
Structure 193 | Energy: -10.835036 Hartree
N 2.138701 0.008730 -0.802777
N 2.402187 -1.049605 -0.926374
O 1.935346 3.484834 0.309580
H 1.190299 4.088447 0.318012
H 1.595452 2.615185 0.538346
5
Structure 194 | Energy: -10.835051 Hartree
N 1.585770 0.445894 -1.204767
N 1.849256 -0.612441 -1.328365
O 1.935346 3.484834 0.309580
H 1.190299 4.088447 0.318012
H 1.595452 2.615185 0.538346
5
Structure 195 | Energy: -10.834323 Hartree
N 1.742897 3.999116 0.384650
N 2.006384 2.940781 0.261053
O 1.778219 -0.068388 -1.279838
H 1.033172 0.535225 -1.271405
H 1.438324 -0.938036 -1.051071
5
Structure 196 | Energy: -10.834323 Hartree
N 1.742897 3.999116 0.384650
N 2.006384 2.940781 0.261053
O 1.780028 -0.064719 -1.280009
H 1.034981 0.538894 -1.271576
H 1.440133 -0.934368 -1.051242
5
Structure 197 | Energy: -10.835243 Hartree
N 1.675710 3.165896 -0.088455
N 2.073570 3.774000 0.734158
O 1.780028 -0.064719 -1.280009
H 1.034981 0.538894 -1.271576
H 1.440133 -0.934368 -1.051242
5
Structure 198 | Energy: -10.835245 Hartree
N 1.675710 3.165896 -0.088455
N 2.073570 3.774000 0.734158
O 0.356488 0.079978 -0.806440
H 0.932319 0.616994 -1.353749
H 0.651785 -0.830461 -0.896179
5
Structure 199 | Energy: -10.835370 Hartree
N 1.675710 3.165896 -0.088455
N 2.073570 3.774000 0.734158
O 0.010210 0.238373 -0.750836
H 0.560774 0.758671 -1.338785
H 0.229509 -0.685023 -0.903805
5
Structure 200 | Energy: -10.835021 Hartree
N 0.780882 3.227825 0.143721
N 1.178742 3.835929 0.966334
O 0.010210 0.238373 -0.750836
H 0.560774 0.758671 -1.338785
H 0.229509 -0.685023 -0.903805
5
Structure 201 | Energy: -10.835022 Hartree
N 0.780882 3.227825 0.143721
N 1.178742 3.835929 0.966334
O 0.010049 0.238255 -0.750940
H 0.556347 0.759708 -1.341838
H 0.236497 -0.684199 -0.899095
5
Structure 202 | Energy: -10.835583 Hartree
N -0.145644 -0.088234 -1.203599
N 0.252217 0.519870 -0.380986
O 0.936575 3.554314 0.596380
H 1.482873 4.075768 0.005482
H 1.163023 2.631860 0.448225
5
Structure 203 | Energy: -10.835022 Hartree
N 0.780882 3.227825 0.143721
N 1.178742 3.835929 0.966334
O 0.010049 0.238255 -0.750940
H 0.556347 0.759708 -1.341838
H 0.236497 -0.684199 -0.899095
5
Structure 204 | Energy: -10.835583 Hartree
N -0.145644 -0.088234 -1.203599
N 0.252217 0.519870 -0.380986
O 0.936575 3.554314 0.596380
H 1.482873 4.075768 0.005482
H 1.163023 2.631860 0.448225
5
Structure 205 | Energy: -10.835745 Hartree
N -0.145644 -0.088234 -1.203599
N 0.252217 0.519870 -0.380986
O 0.817088 3.390244 0.994826
H 1.353912 3.993878 0.478143
H 1.073552 2.498905 0.742056
5
Structure 206 | Energy: -10.835711 Hartree
N -0.145644 -0.088234 -1.203599
N 0.252217 0.519870 -0.380986
O 0.816933 3.388433 0.995303
H 1.343238 4.013498 0.493493
H 1.086687 2.508022 0.719149
5
Structure 207 | Energy: -10.835764 Hartree
N -0.145644 -0.088234 -1.203599
N 0.252217 0.519870 -0.380986
O 0.693953 3.355355 1.099002
H 1.196168 4.016138 0.618729
H 0.997374 2.495388 0.794791
5
Structure 208 | Energy: -10.835134 Hartree
N -0.145644 -0.088234 -1.203599
N 0.252217 0.519870 -0.380986
O 1.111268 3.346412 2.162644
H 1.613483 4.007195 1.682372
H 1.414689 2.486446 1.858433
5
Structure 209 | Energy: -10.834453 Hartree
N 0.957416 3.031215 1.707444
N 1.355276 3.639319 2.530056
O 0.008209 0.226963 -0.748398
H 0.510424 0.887746 -1.228671
H 0.311629 -0.633004 -1.052609
5
Structure 210 | Energy: -10.834415 Hartree
N 0.957416 3.031215 1.707444
N 1.355276 3.639319 2.530056
O 0.385288 0.137974 -0.776609
H 0.897471 0.813014 -1.225503
H 0.749335 -0.712241 -1.038822
5
Structure 211 | Energy: -10.834415 Hartree
N 0.957416 3.031215 1.707444
N 1.355276 3.639319 2.530056
O 0.362062 1.528909 -1.793602
H 0.895888 0.907814 -1.294816
H 0.711648 1.544661 -2.688974
5
Structure 212 | Energy: -10.834348 Hartree
N 0.957416 3.031215 1.707444
N 1.355276 3.639319 2.530056
O 0.435072 1.216150 -1.648135
H 1.021325 0.670587 -1.120703
H 0.768099 1.196854 -2.549729
5
Structure 213 | Energy: -10.834638 Hartree
N 0.957416 3.031215 1.707444
N 1.355276 3.639319 2.530056
O 0.094843 1.917797 -1.719669
H 0.681096 1.372234 -1.192237
H 0.427869 1.898501 -2.621263
5
Structure 214 | Energy: -10.835233 Hartree
N -0.052651 1.582139 -2.151911
N 0.345209 2.190243 -1.329298
O 1.104909 3.366873 2.139686
H 1.691162 2.821311 2.667118
H 1.437936 3.347577 1.238092
5
Structure 215 | Energy: -10.835195 Hartree
N -0.124104 1.572736 -2.139897
N 0.273756 2.180839 -1.317284
O 1.104909 3.366873 2.139686
H 1.691162 2.821311 2.667118
H 1.437936 3.347577 1.238092
5
Structure 216 | Energy: -10.834655 Hartree
N 0.957416 3.031215 1.707444
N 1.355276 3.639319 2.530056
O 0.023389 1.908393 -1.707655
H 0.609642 1.362831 -1.180223
H 0.356416 1.889098 -2.609249
5
Structure 217 | Energy: -10.834112 Hartree
N -3.314524 1.325412 -0.270411
N -4.301181 0.889113 -0.068107
O 0.023389 1.908393 -1.707655
H 0.609642 1.362831 -1.180223
H 0.356416 1.889098 -2.609249
5
Structure 218 | Energy: -10.834211 Hartree
N -3.314524 1.325412 -0.270411
N -4.301181 0.889113 -0.068107
O -0.372727 3.533171 -0.127183
H 0.356857 2.911056 -0.113184
H -0.127443 4.267282 0.442964
5
Structure 219 | Energy: -10.835272 Hartree
N 0.175148 3.757586 -0.195650
N -0.811508 3.321288 0.006654
O -3.862400 1.100996 -0.201944
H -3.132815 0.478882 -0.187946
H -3.617116 1.835107 0.368203
5
Structure 220 | Energy: -10.835298 Hartree
N 0.175148 3.757586 -0.195650
N -0.811508 3.321288 0.006654
O -3.863098 1.098290 -0.200089
H -3.115394 0.498077 -0.186003
H -3.623462 1.858859 0.336810
5
Structure 221 | Energy: -10.834964 Hartree
N 0.175148 3.757586 -0.195650
N -0.811508 3.321288 0.006654
O -3.827594 1.143757 -0.217854
H -3.245174 1.411993 0.495134
H -4.057202 0.223294 -0.062359
5
Structure 222 | Energy: -10.835014 Hartree
N -3.314524 1.325412 -0.270411
N -4.301181 0.889113 -0.068107
O -0.337921 3.575931 -0.143092
H 0.244499 3.844168 0.569895
H -0.567530 2.655468 0.012402
5
Structure 223 | Energy: -10.835357 Hartree
N -2.743288 1.570251 -0.358673
N -3.729945 1.133952 -0.156369
O -0.337921 3.575931 -0.143092
H 0.244499 3.844168 0.569895
H -0.567530 2.655468 0.012402
5
Structure 224 | Energy: -10.835332 Hartree
N -2.743288 1.570251 -0.358673
N -3.729945 1.133952 -0.156369
O -0.404602 3.525955 -0.146817
H 0.177818 3.794191 0.566171
H -0.634210 2.605492 0.008678
5
Structure 225 | Energy: -10.835205 Hartree
N -2.743288 1.570251 -0.358673
N -3.729945 1.133952 -0.156369
O -0.416404 3.449834 -0.115277
H 0.166016 3.718070 0.597710
H -0.646013 2.529370 0.040217
5
Structure 226 | Energy: -10.835336 Hartree
N -2.540203 1.331113 -0.308456
N -3.465049 0.786689 -0.078159
O -0.416404 3.449834 -0.115277
H 0.166016 3.718070 0.597710
H -0.646013 2.529370 0.040217
5
Structure 227 | Energy: -10.835459 Hartree
N -2.540203 1.331113 -0.308456
N -3.465049 0.786689 -0.078159
O -0.177620 3.260524 -0.605655
H 0.404800 3.528761 0.107333
H -0.407229 2.340061 -0.450160
5
Structure 228 | Energy: -10.835443 Hartree
N -2.541802 1.331556 -0.313699
N -3.463450 0.786246 -0.072916
O -0.177620 3.260524 -0.605655
H 0.404800 3.528761 0.107333
H -0.407229 2.340061 -0.450160
5
Structure 229 | Energy: -10.835421 Hartree
N -2.541802 1.331556 -0.313699
N -3.463450 0.786246 -0.072916
O -0.200907 3.242801 -0.602677
H 0.381513 3.511037 0.110311
H -0.430515 2.322338 -0.447182
5
Structure 230 | Energy: -10.835256 Hartree
N -2.661965 1.483663 -0.401732
N -3.617937 0.989417 -0.185829
O -0.200907 3.242801 -0.602677
H 0.381513 3.511037 0.110311
H -0.430515 2.322338 -0.447182
5
Structure 231 | Energy: -10.834944 Hartree
N 0.296820 3.453430 -0.662034
N -0.659152 2.959183 -0.446131
O -3.159692 1.273034 -0.342375
H -2.577272 1.541271 0.370613
H -3.389301 0.352571 -0.186880
5
Structure 232 | Energy: -10.835233 Hartree
N 0.296820 3.453430 -0.662034
N -0.659152 2.959183 -0.446131
O -3.017167 1.071217 -0.783144
H -2.560114 1.363994 0.007362
H -3.201110 0.134332 -0.671057
5
Structure 233 | Energy: -10.835234 Hartree
N 0.296820 3.453430 -0.662034
N -0.659152 2.959183 -0.446131
O -3.025249 1.079875 -0.762543
H -2.572691 1.386019 0.025481
H -3.214348 0.146198 -0.633545
5
Structure 234 | Energy: -10.835198 Hartree
N 0.301034 3.447702 -0.656090
N -0.663365 2.964911 -0.452076
O -3.025249 1.079875 -0.762543
H -2.572691 1.386019 0.025481
H -3.214348 0.146198 -0.633545
5
Structure 235 | Energy: -10.835140 Hartree
N 0.209440 3.569116 -0.766399
N -0.729809 3.052066 -0.531356
O -3.025249 1.079875 -0.762543
H -2.572691 1.386019 0.025481
H -3.214348 0.146198 -0.633545
5
Structure 236 | Energy: -10.835210 Hartree
N 0.209440 3.569116 -0.766399
N -0.729809 3.052066 -0.531356
O -2.916524 0.963962 -0.916819
H -2.502903 1.265618 -0.105995
H -3.067037 0.019307 -0.821297
5
Structure 237 | Energy: -10.835107 Hartree
N 0.209440 3.569116 -0.766399
N -0.729809 3.052066 -0.531356
O -2.814771 0.848125 -0.860890
H -2.379123 1.149230 -0.061476
H -2.917016 -0.104633 -0.783761
5
Structure 238 | Energy: -10.834930 Hartree
N 0.209440 3.569116 -0.766399
N -0.729809 3.052066 -0.531356
O -2.518152 0.566116 -0.712444
H -2.090786 0.933970 0.063157
H -2.506283 -0.390014 -0.613321
5
Structure 239 | Energy: -10.835995 Hartree
N 0.209440 3.569116 -0.766399
N -0.729809 3.052066 -0.531356
O -2.473384 0.489084 -0.621918
H -2.921747 0.324277 -1.453378
H -2.385884 1.442339 -0.533604
5
Structure 240 | Energy: -10.835954 Hartree
N -0.041006 3.758644 -0.324267
N -0.943416 3.149088 -0.186890
O -2.473384 0.489084 -0.621918
H -2.921747 0.324277 -1.453378
H -2.385884 1.442339 -0.533604
5
Structure 241 | Energy: -10.835953 Hartree
N -0.100452 3.800377 -0.299927
N -0.991231 3.173087 -0.166528
O -2.473384 0.489084 -0.621918
H -2.921747 0.324277 -1.453378
H -2.385884 1.442339 -0.533604
5
Structure 242 | Energy: -10.834668 Hartree
N -2.048186 0.846845 -0.730199
N -2.938965 0.219555 -0.596801
O -0.525650 3.442615 -0.191646
H -0.974014 3.277809 -1.023105
H -0.438150 4.395870 -0.103332
5
Structure 243 | Energy: -10.834638 Hartree
N -2.048186 0.846845 -0.730199
N -2.938965 0.219555 -0.596801
O -0.549226 3.406866 -0.196854
H -0.997589 3.242059 -1.028313
H -0.461726 4.360121 -0.108540
5
Structure 244 | Energy: -10.834495 Hartree
N -2.053348 0.859518 -0.693672
N -2.933803 0.206883 -0.633328
O -0.549226 3.406866 -0.196854
H -0.997589 3.242059 -1.028313
H -0.461726 4.360121 -0.108540
5
Structure 245 | Energy: -10.836025 Hartree
N -0.129190 3.777300 -0.268608
N -1.009645 3.124665 -0.208263
O -2.473384 0.489084 -0.621918
H -2.921747 0.324277 -1.453378
H -2.385884 1.442339 -0.533604
5
Structure 246 | Energy: -10.836008 Hartree
N -0.129190 3.777300 -0.268608
N -1.009645 3.124665 -0.208263
O -2.472785 0.489726 -0.621539
H -2.916728 0.311544 -1.452611
H -2.400412 1.444884 -0.540387
5
Structure 247 | Energy: -10.834813 Hartree
N -0.129190 3.777300 -0.268608
N -1.009645 3.124665 -0.208263
O -3.081244 0.196909 -1.903116
H -3.525188 0.018727 -2.734188
H -3.008872 1.152067 -1.821964
5
Structure 248 | Energy: -10.834813 Hartree
N -0.129190 3.777300 -0.268608
N -1.009645 3.124665 -0.208263
O -3.081246 0.196909 -1.903116
H -3.529154 0.018860 -2.732086
H -3.004879 1.151934 -1.824081
5
Structure 249 | Energy: -10.834818 Hartree
N -0.129190 3.777300 -0.268608
N -1.009645 3.124665 -0.208263
O -3.081222 0.196909 -1.903127
H -3.473045 0.018755 -2.760012
H -3.061366 1.152039 -1.795967
5
Structure 250 | Energy: -10.834448 Hartree
N -0.129190 3.777300 -0.268608
N -1.009645 3.124665 -0.208263
O -3.097563 0.303589 -1.953324
H -3.547742 -0.146162 -1.235983
H -2.727311 -0.376274 -2.523281
5
Structure 251 | Energy: -10.834539 Hartree
N -0.129190 3.777300 -0.268608
N -1.009645 3.124665 -0.208263
O -3.145552 0.262275 -2.546642
H -3.595732 -0.187477 -1.829302
H -2.775300 -0.417588 -3.116600
5
Structure 252 | Energy: -10.834735 Hartree
N -0.631425 -3.050092 0.652329
N -1.407597 -2.285106 0.521453
O -3.145552 0.262275 -2.546642
H -3.595732 -0.187477 -1.829302
H -2.775300 -0.417588 -3.116600
5
Structure 253 | Energy: -10.834735 Hartree
N -0.631425 -3.050092 0.652329
N -1.407597 -2.285106 0.521453
O -3.145552 1.137340 2.568210
H -3.595732 0.474698 2.041182
H -2.775300 0.685619 3.331763
5
Structure 254 | Energy: -10.834577 Hartree
N -1.536683 -2.670132 0.403260
N -0.502338 -2.665066 0.770521
O -3.145552 1.137340 2.568210
H -3.595732 0.474698 2.041182
H -2.775300 0.685619 3.331763
5
Structure 255 | Energy: -10.834554 Hartree
N -1.536683 -2.670132 0.403260
N -0.502338 -2.665066 0.770521
O -3.190234 1.261323 2.606790
H -3.640413 0.598681 2.079761
H -2.819982 0.809602 3.370343
5
Structure 256 | Energy: -10.834563 Hartree
N -1.561769 -2.625541 0.426708
N -0.527424 -2.620474 0.793968
O -3.190234 1.261323 2.606790
H -3.640413 0.598681 2.079761
H -2.819982 0.809602 3.370343
5
Structure 257 | Energy: -10.834564 Hartree
N -1.461360 -2.604154 0.466943
N -0.436691 -2.586906 0.860047
O -3.190234 1.261323 2.606790
H -3.640413 0.598681 2.079761
H -2.819982 0.809602 3.370343
5
Structure 258 | Energy: -10.834380 Hartree
N -1.461360 -2.604154 0.466943
N -0.436691 -2.586906 0.860047
O -3.246463 1.220366 2.650789
H -3.041580 0.305351 2.450077
H -2.526347 1.753007 2.301677
5
Structure 259 | Energy: -10.834408 Hartree
N -0.983625 -3.408268 0.598779
N 0.041044 -3.391020 0.991884
O -3.246463 1.220366 2.650789
H -3.041580 0.305351 2.450077
H -2.526347 1.753007 2.301677
5
Structure 260 | Energy: -10.834410 Hartree
N -0.983625 -3.408268 0.598779
N 0.041044 -3.391020 0.991884
O -3.244221 1.301655 2.437719
H -3.027135 0.377400 2.303030
H -2.566188 1.817654 1.992559
5
Structure 261 | Energy: -10.834410 Hartree
N -1.005419 -3.423710 0.612424
N 0.014883 -3.416546 1.017033
O -3.244221 1.301655 2.437719
H -3.027135 0.377400 2.303030
H -2.566188 1.817654 1.992559
5
Structure 262 | Energy: -10.834415 Hartree
N -1.005419 -3.423710 0.612424
N 0.014883 -3.416546 1.017033
O -3.242846 1.304013 2.438066
H -3.076820 0.370756 2.293214
H -2.538330 1.786880 1.996878
5
Structure 263 | Energy: -10.834604 Hartree
N -3.704287 1.275230 2.202970
N -2.683986 1.282394 2.607579
O -0.543978 -3.394927 0.847519
H -0.377952 -4.328184 0.702667
H 0.160538 -2.912060 0.406331
5
Structure 264 | Energy: -10.834415 Hartree
N -1.005419 -3.423710 0.612424
N 0.014883 -3.416546 1.017033
O -3.242846 1.304013 2.438066
H -3.076820 0.370756 2.293214
H -2.538330 1.786880 1.996878
5
Structure 265 | Energy: -10.834418 Hartree
N -1.005419 -3.423710 0.612424
N 0.014883 -3.416546 1.017033
O -3.241517 1.306868 2.437692
H -3.128499 0.365179 2.296399
H -2.507749 1.747130 1.999623
5
Structure 266 | Energy: -10.834419 Hartree
N -1.005419 -3.423710 0.612424
N 0.014883 -3.416546 1.017033
O -3.462008 0.992709 2.875239
H -3.297630 0.072979 2.659389
H -2.771837 1.509223 2.449765
5
Structure 267 | Energy: -10.834411 Hartree
N -0.674153 -3.285093 -0.315426
N 0.346149 -3.277929 0.089183
O -3.462008 0.992709 2.875239
H -3.297630 0.072979 2.659389
H -2.771837 1.509223 2.449765
5
Structure 268 | Energy: -10.834412 Hartree
N -0.654509 -3.310789 -0.333271
N 0.365793 -3.303625 0.071338
O -3.462008 0.992709 2.875239
H -3.297630 0.072979 2.659389
H -2.771837 1.509223 2.449765
5
Structure 269 | Energy: -10.834410 Hartree
N -0.742367 -3.342015 -0.302903
N 0.277935 -3.334851 0.101706
O -3.462008 0.992709 2.875239
H -3.297630 0.072979 2.659389
H -2.771837 1.509223 2.449765
5
Structure 270 | Energy: -10.834405 Hartree
N -1.286138 -3.534829 -0.444509
N -0.247377 -3.612417 -0.098488
O -3.462008 0.992709 2.875239
H -3.297630 0.072979 2.659389
H -2.771837 1.509223 2.449765
5
Structure 271 | Energy: -10.834395 Hartree
N -1.286138 -3.534829 -0.444509
N -0.247377 -3.612417 -0.098488
O -3.207271 0.810489 3.101663
H -3.042893 -0.109242 2.885813
H -2.517100 1.327002 2.676189
5
Structure 272 | Energy: -10.834392 Hartree
N -1.321542 -3.470292 -0.395128
N -0.282781 -3.547881 -0.049108
O -3.207271 0.810489 3.101663
H -3.042893 -0.109242 2.885813
H -2.517100 1.327002 2.676189
5
Structure 273 | Energy: -10.834388 Hartree
N -1.321542 -3.470292 -0.395128
N -0.282781 -3.547881 -0.049108
O -3.255274 -0.250833 2.669705
H -3.090895 -1.170563 2.453854
H -2.565102 0.265680 2.244230
5
Structure 274 | Energy: -10.834365 Hartree
N -1.321542 -3.470292 -0.395128
N -0.282781 -3.547881 -0.049108
O -2.844393 -0.380655 3.100354
H -2.740108 -1.287738 2.807369
H -2.172838 0.139380 2.650100
5
Structure 275 | Energy: -10.834361 Hartree
N -1.482263 -3.406551 -0.514210
N -0.443097 -3.534968 -0.184944
O -2.844393 -0.380655 3.100354
H -2.740108 -1.287738 2.807369
H -2.172838 0.139380 2.650100
5
Structure 276 | Energy: -10.834394 Hartree
N -1.482263 -3.406551 -0.514210
N -0.443097 -3.534968 -0.184944
O -3.220355 0.193745 2.754966
H -3.116071 -0.713338 2.461981
H -2.548800 0.713780 2.304712
5
Structure 277 | Energy: -10.834398 Hartree
N -1.417006 -3.547750 -0.533140
N -0.377839 -3.676167 -0.203874
O -3.220355 0.193745 2.754966
H -3.116071 -0.713338 2.461981
H -2.548800 0.713780 2.304712
5
Structure 278 | Energy: -10.834393 Hartree
N -1.417006 -3.547750 -0.533140
N -0.377839 -3.676167 -0.203874
O -3.220336 0.193742 2.754988
H -3.070396 -0.722282 2.514292
H -2.594783 0.722784 2.252048
5
Structure 279 | Energy: -10.834393 Hartree
N -1.417006 -3.547750 -0.533140
N -0.377839 -3.676167 -0.203874
O -3.220227 0.193774 2.755084
H -3.069595 -0.722601 2.516167
H -2.597302 0.722587 2.248654
5
Structure 280 | Energy: -10.834408 Hartree
N -0.847466 -3.553614 -0.144443
N 0.151903 -3.606725 0.306352
O -3.220227 0.193774 2.755084
H -3.069595 -0.722601 2.516167
H -2.597302 0.722587 2.248654
5
Structure 281 | Energy: -10.834633 Hartree
N -3.676629 0.198644 2.487982
N -2.677260 0.145533 2.938777
O -0.391065 -3.558484 0.122659
H -0.240432 -4.474859 -0.116257
H 0.231861 -3.029670 -0.383770
5
Structure 282 | Energy: -10.834635 Hartree
N -3.676629 0.198644 2.487982
N -2.677260 0.145533 2.938777
O -0.455624 -3.576778 0.080788
H -0.313403 -4.494369 -0.158619
H 0.160113 -3.051899 -0.438367
5
Structure 283 | Energy: -10.834652 Hartree
N -3.676629 0.198644 2.487982
N -2.677260 0.145533 2.938777
O -0.455765 -3.576527 0.080515
H -0.645456 -3.902996 -0.800933
H 0.494406 -3.647260 0.208279
5
Structure 284 | Energy: -10.834632 Hartree
N -3.656485 0.240321 2.544487
N -2.657116 0.187210 2.995281
O -0.381158 -3.630354 0.072036
H -0.570849 -3.956824 -0.809411
H 0.569013 -3.701088 0.199800
5
Structure 285 | Energy: -10.834633 Hartree
N -3.607665 0.181269 2.694668
N -2.634064 0.048363 3.183761
O -0.381158 -3.630354 0.072036
H -0.570849 -3.956824 -0.809411
H 0.569013 -3.701088 0.199800
5
Structure 286 | Energy: -10.834633 Hartree
N -3.593774 0.239393 2.626546
N -2.600397 0.150602 3.084906
O -0.381158 -3.630354 0.072036
H -0.570849 -3.956824 -0.809411
H 0.569013 -3.701088 0.199800
5
Structure 287 | Energy: -10.834622 Hartree
N -3.593774 0.239393 2.626546
N -2.600397 0.150602 3.084906
O -0.300389 -3.647399 0.048171
H -0.490081 -3.973868 -0.833277
H 0.649781 -3.718132 0.175935
5
Structure 288 | Energy: -10.834625 Hartree
N -3.593774 0.239393 2.626546
N -2.600397 0.150602 3.084906
O -0.307463 -3.646082 0.079968
H -0.497154 -3.972551 -0.801480
H 0.642708 -3.716815 0.207732
5
Structure 289 | Energy: -10.834626 Hartree
N -3.593636 0.232122 2.624960
N -2.600535 0.157872 3.086492
O -0.307463 -3.646082 0.079968
H -0.497154 -3.972551 -0.801480
H 0.642708 -3.716815 0.207732
5
Structure 290 | Energy: -10.834627 Hartree
N -3.593636 0.232122 2.624960
N -2.600535 0.157872 3.086492
O 0.250037 -2.900398 0.215556
H 0.060345 -3.226868 -0.665892
H 1.200207 -2.971132 0.343320
5
Structure 291 | Energy: -10.834640 Hartree
N -3.540348 0.183111 2.582792
N -2.547247 0.108861 3.044323
O 0.250037 -2.900398 0.215556
H 0.060345 -3.226868 -0.665892
H 1.200207 -2.971132 0.343320
5
Structure 292 | Energy: -10.834641 Hartree
N -3.540494 0.180892 2.560899
N -2.547393 0.106642 3.022430
O 0.251172 -2.906949 0.218474
H 0.061481 -3.233419 -0.662973
H 1.201343 -2.977682 0.346239
5
Structure 293 | Energy: -10.834532 Hartree
N -3.540494 0.180892 2.560899
N -2.547393 0.106642 3.022430
O 0.285794 -2.951737 0.117050
H 1.116871 -2.870492 0.588458
H -0.403568 -2.629731 0.704624
5
Structure 294 | Energy: -10.834569 Hartree
N -3.540494 0.180892 2.560899
N -2.547393 0.106642 3.022430
O 0.578300 -2.823828 0.363579
H 1.393880 -2.633259 0.830514
H -0.143174 -2.523658 0.923512
5
Structure 295 | Energy: -10.834611 Hartree
N -3.540494 0.180892 2.560899
N -2.547393 0.106642 3.022430
O 0.578219 -2.823619 0.363487
H 1.204876 -2.142600 0.614545
H 0.047104 -3.017626 1.140938
5
Structure 296 | Energy: -10.834630 Hartree
N -3.540494 0.180892 2.560899
N -2.547393 0.106642 3.022430
O 0.731910 -2.955808 0.802429
H 1.349217 -2.304947 1.141292
H 0.097930 -3.133652 1.502852
5
Structure 297 | Energy: -10.834630 Hartree
N -3.540494 0.180892 2.560899
N -2.547393 0.106642 3.022430
O 0.732743 -2.957757 0.803376
H 1.326603 -2.273450 1.117337
H 0.107308 -3.134222 1.511783
5
Structure 298 | Energy: -10.834566 Hartree
N -3.540494 0.180892 2.560899
N -2.547393 0.106642 3.022430
O 1.568304 -3.283531 0.899244
H 2.162163 -2.599225 1.213206
H 0.942868 -3.459996 1.607652
5
Structure 299 | Energy: -10.834562 Hartree
N -3.537098 0.174484 2.552815
N -2.550789 0.113049 3.030513
O 1.568304 -3.283531 0.899244
H 2.162163 -2.599225 1.213206
H 0.942868 -3.459996 1.607652
5
Structure 300 | Energy: -10.834560 Hartree
N -3.537098 0.174484 2.552815
N -2.550789 0.113049 3.030513
O 1.567947 -3.297782 0.863705
H 2.161806 -2.613476 1.177666
H 0.942511 -3.474247 1.572113
5
Structure 301 | Energy: -10.834560 Hartree
N 0.467903 2.995996 1.246011
N 0.471972 2.242576 2.044207
O 1.567947 -3.297782 0.863705
H 2.161806 -2.613476 1.177666
H 0.942511 -3.474247 1.572113
5
Structure 302 | Energy: -10.834509 Hartree
N 0.178038 3.984459 1.318312
N 0.182107 3.231039 2.116508
O 1.567947 -3.297782 0.863705
H 2.161806 -2.613476 1.177666
H 0.942511 -3.474247 1.572113
5
Structure 303 | Energy: -10.834520 Hartree
N 0.569796 3.452288 1.659713
N 0.573865 2.698869 2.457909
O 1.567947 -3.297782 0.863705
H 2.161806 -2.613476 1.177666
H 0.942511 -3.474247 1.572113
5
Structure 304 | Energy: -10.834482 Hartree
N 0.569796 3.452288 1.659713
N 0.573865 2.698869 2.457909
O 1.874268 -3.349733 -0.116269
H 2.468128 -2.665427 0.197693
H 1.248833 -3.526198 0.592139
5
Structure 305 | Energy: -10.834472 Hartree
N 1.870467 -2.944607 -0.458162
N 1.874536 -3.698027 0.340035
O 0.573598 3.047163 2.001606
H 1.167457 3.731469 2.315567
H -0.051838 2.870698 2.710014
5
Structure 306 | Energy: -10.834475 Hartree
N 1.296537 -2.703361 -0.343292
N 1.300607 -3.456781 0.454904
O 0.573598 3.047163 2.001606
H 1.167457 3.731469 2.315567
H -0.051838 2.870698 2.710014
5
Structure 307 | Energy: -10.834482 Hartree
N 1.296537 -2.703361 -0.343292
N 1.300607 -3.456781 0.454904
O 0.617022 3.112483 2.084865
H -0.100057 2.677345 2.549590
H 0.526445 2.888070 1.154497
5
Structure 308 | Energy: -10.834483 Hartree
N 1.037938 -2.856497 -0.011134
N 1.073435 -3.558986 0.831495
O 0.617022 3.112483 2.084865
H -0.100057 2.677345 2.549590
H 0.526445 2.888070 1.154497
5
Structure 309 | Energy: -10.834500 Hartree
N 0.554082 3.426823 1.637497
N 0.589579 2.724334 2.480126
O 1.100878 -3.170837 0.436235
H 0.383799 -3.605975 0.900960
H 1.010301 -3.395250 -0.494134
5
Structure 310 | Energy: -10.834498 Hartree
N 0.398319 3.420097 1.599712
N 0.477778 2.726161 2.446420
O 1.100878 -3.170837 0.436235
H 0.383799 -3.605975 0.900960
H 1.010301 -3.395250 -0.494134
5
Structure 311 | Energy: -10.834488 Hartree
N 0.398319 3.420097 1.599712
N 0.477778 2.726161 2.446420
O 1.136644 -2.898494 1.241919
H 0.419566 -3.333632 1.706644
H 1.046068 -3.122907 0.311551
5
Structure 312 | Energy: -10.834489 Hartree
N 0.211593 3.357682 2.017790
N 0.959894 2.887314 1.366963
O 1.136644 -2.898494 1.241919
H 0.419566 -3.333632 1.706644
H 1.046068 -3.122907 0.311551
5
Structure 313 | Energy: -10.834523 Hartree
N 0.211593 3.357682 2.017790
N 0.959894 2.887314 1.366963
O 0.985343 -2.222623 1.155815
H 0.268265 -2.657761 1.620540
H 0.894767 -2.447036 0.225446
5
Structure 314 | Energy: -10.834570 Hartree
N 0.566002 -2.024343 1.455174
N 1.314303 -2.494711 0.804347
O 0.630934 3.159402 1.718431
H -0.086144 2.724264 2.183156
H 0.540358 2.934989 0.788062
5
Structure 315 | Energy: -10.834586 Hartree
N 0.566002 -2.024343 1.455174
N 1.314303 -2.494711 0.804347
O 0.943151 2.981989 2.574235
H 0.226073 2.546851 3.038959
H 0.852575 2.757576 1.643866
5
Structure 316 | Energy: -10.834528 Hartree
N 0.566002 -2.024343 1.455174
N 1.314303 -2.494711 0.804347
O 1.214238 3.486707 2.454578
H 0.497159 3.051570 2.919303
H 1.123661 3.262294 1.524210
5
Structure 317 | Energy: -10.834530 Hartree
N 0.566002 -2.024343 1.455174
N 1.314303 -2.494711 0.804347
O 1.173510 3.483001 2.447329
H 0.456431 3.047863 2.912054
H 1.082933 3.258588 1.516960
5
Structure 318 | Energy: -10.834494 Hartree
N 0.754168 3.681280 2.746688
N 1.502469 3.210913 2.095861
O 0.985343 -2.222623 1.155815
H 0.268265 -2.657761 1.620540
H 0.894767 -2.447036 0.225446
5
Structure 319 | Energy: -10.834530 Hartree
N 0.566002 -2.024343 1.455174
N 1.314303 -2.494711 0.804347
O 1.173510 3.483001 2.447329
H 0.456431 3.047863 2.912054
H 1.082933 3.258588 1.516960
5
Structure 320 | Energy: -10.834530 Hartree
N 0.566002 -2.024343 1.455174
N 1.314303 -2.494711 0.804347
O -3.496877 0.933665 -1.080073
H -3.567829 0.851216 -0.127349
H -2.607193 1.244328 -1.270081
5
Structure 321 | Energy: -10.834533 Hartree
N 0.342609 -2.099797 1.701904
N 1.085217 -2.633666 1.095033
O -3.496877 0.933665 -1.080073
H -3.567829 0.851216 -0.127349
H -2.607193 1.244328 -1.270081
5
Structure 322 | Energy: -10.834532 Hartree
N 0.322170 -2.033377 1.801384
N 1.072277 -2.577378 1.213015
O -3.496877 0.933665 -1.080073
H -3.567829 0.851216 -0.127349
H -2.607193 1.244328 -1.270081
5
Structure 323 | Energy: -10.834498 Hartree
N -3.826119 1.218435 -0.743212
N -3.076013 0.674434 -1.331581
O 0.651413 -2.318147 1.464523
H 0.580460 -2.400596 2.417247
H 1.541096 -2.007484 1.274516
5
Structure 324 | Energy: -10.834532 Hartree
N 0.322170 -2.033377 1.801384
N 1.072277 -2.577378 1.213015
O -3.496877 0.933665 -1.080073
H -3.567829 0.851216 -0.127349
H -2.607193 1.244328 -1.270081
5
Structure 325 | Energy: -10.834538 Hartree
N 0.385024 -1.928897 1.724942
N 1.135131 -2.472898 1.136574
O -3.496877 0.933665 -1.080073
H -3.567829 0.851216 -0.127349
H -2.607193 1.244328 -1.270081
5
Structure 326 | Energy: -10.834535 Hartree
N 0.392516 -1.926495 1.732081
N 1.127639 -2.475300 1.129435
O -3.496877 0.933665 -1.080073
H -3.567829 0.851216 -0.127349
H -2.607193 1.244328 -1.270081
5
Structure 327 | Energy: -10.834541 Hartree
N 0.392516 -1.926495 1.732081
N 1.127639 -2.475300 1.129435
O -3.458938 1.066471 -0.972494
H -3.541558 0.937234 -0.025929
H -2.566303 1.383528 -1.136286
5
Structure 328 | Energy: -10.834520 Hartree
N 0.308770 -2.216832 1.985987
N 1.043894 -2.765637 1.383341
O -3.458938 1.066471 -0.972494
H -3.541558 0.937234 -0.025929
H -2.566303 1.383528 -1.136286
5
Structure 329 | Energy: -10.834518 Hartree
N 0.066695 -2.292927 2.190903
N 0.846256 -2.829621 1.635007
O -3.458938 1.066471 -0.972494
H -3.541558 0.937234 -0.025929
H -2.566303 1.383528 -1.136286
5
Structure 330 | Energy: -10.834516 Hartree
N 0.066695 -2.292927 2.190903
N 0.846256 -2.829621 1.635007
O -3.458778 1.068869 -0.973165
H -3.553307 0.914596 -0.031475
H -2.557104 1.368110 -1.120097
5
Structure 331 | Energy: -10.834495 Hartree
N 0.328853 -2.143803 2.570082
N 1.108414 -2.680498 2.014187
O -3.458778 1.068869 -0.973165
H -3.553307 0.914596 -0.031475
H -2.557104 1.368110 -1.120097
5
Structure 332 | Energy: -10.834500 Hartree
N -3.803396 1.345327 -0.650748
N -3.023835 0.808633 -1.206643
O 0.673471 -2.420262 2.247665
H 0.578942 -2.574535 3.189355
H 1.575145 -2.121020 2.100733
5
Structure 333 | Energy: -10.834497 Hartree
N -3.806623 1.368173 -0.581555
N -3.027063 0.831479 -1.137451
O 0.679326 -2.455709 2.234004
H 0.584796 -2.609982 3.175694
H 1.581000 -2.156467 2.087072
5
Structure 334 | Energy: -10.834501 Hartree
N -3.806623 1.368173 -0.581555
N -3.027063 0.831479 -1.137451
O 0.343451 -2.536549 1.754565
H 0.248922 -2.690822 2.696255
H 1.245125 -2.237308 1.607633
5
Structure 335 | Energy: -10.834544 Hartree
N -3.872214 1.208663 -0.573172
N -2.961472 0.990988 -1.145834
O 0.343451 -2.536549 1.754565
H 0.248922 -2.690822 2.696255
H 1.245125 -2.237308 1.607633
5
Structure 336 | Energy: -10.834601 Hartree
N -3.872214 1.208663 -0.573172
N -2.961472 0.990988 -1.145834
O -0.648061 -2.903964 1.635042
H -0.742591 -3.058237 2.576732
H 0.253613 -2.604723 1.488109
5
Structure 337 | Energy: -10.834601 Hartree
N -3.846056 1.215980 -0.597509
N -2.928747 1.000151 -1.160304
O -0.648061 -2.903964 1.635042
H -0.742591 -3.058237 2.576732
H 0.253613 -2.604723 1.488109
5
Structure 338 | Energy: -10.834496 Hartree
N -1.061553 -2.787938 1.960909
N -0.144244 -3.003767 1.398114
O -3.432564 1.099954 -0.923376
H -3.527093 0.945682 0.018314
H -2.530890 1.399196 -1.070309
5
Structure 339 | Energy: -10.834523 Hartree
N -1.628713 -3.200427 1.307589
N -0.711405 -3.416255 0.744794
O -3.432564 1.099954 -0.923376
H -3.527093 0.945682 0.018314
H -2.530890 1.399196 -1.070309
5
Structure 340 | Energy: -10.834653 Hartree
N -2.062051 -2.238635 1.371823
N -1.144743 -2.454464 0.809028
O -3.432564 1.099954 -0.923376
H -3.527093 0.945682 0.018314
H -2.530890 1.399196 -1.070309
5
Structure 341 | Energy: -10.835057 Hartree
N -1.626516 -1.829338 0.908349
N -1.580278 -2.863760 1.272503
O -3.432564 1.099954 -0.923376
H -3.527093 0.945682 0.018314
H -2.530890 1.399196 -1.070309
5
Structure 342 | Energy: -10.835057 Hartree
N -1.626516 -1.829338 0.908349
N -1.580278 -2.863760 1.272503
O -3.432773 1.099735 -0.923122
H -3.522287 0.948273 0.019514
H -2.532379 1.400086 -1.075541
5
Structure 343 | Energy: -10.835056 Hartree
N -0.349421 -1.247405 -0.497103
N 0.379708 -1.970654 -0.884475
O -3.432773 1.099735 -0.923122
H -3.522287 0.948273 0.019514
H -2.532379 1.400086 -1.075541
5
Structure 344 | Energy: -10.834180 Hartree
N -3.751966 1.469690 -0.685221
N -3.022837 0.746441 -1.072593
O -0.030228 -1.617360 -0.735004
H -0.119741 -1.768822 0.207631
H 0.870166 -1.317009 -0.887423
5
Structure 345 | Energy: -10.834872 Hartree
N -3.709090 0.716100 -1.088843
N -3.065713 1.500031 -0.668971
O -0.030228 -1.617360 -0.735004
H -0.119741 -1.768822 0.207631
H 0.870166 -1.317009 -0.887423
5
Structure 346 | Energy: -10.834551 Hartree
N -0.306545 -2.000995 -0.900725
N 0.336833 -1.217064 -0.480853
O -3.432773 1.099735 -0.923122
H -3.522287 0.948273 0.019514
H -2.532379 1.400086 -1.075541
5
Structure 347 | Energy: -10.834550 Hartree
N -0.306545 -2.000995 -0.900725
N 0.336833 -1.217064 -0.480853
O -3.448094 1.082237 -0.897135
H -3.537161 0.920629 0.043856
H -2.549363 1.389269 -1.046019
5
Structure 348 | Energy: -10.834873 Hartree
N -3.724479 0.698409 -1.062751
N -3.081102 1.482340 -0.642878
O -0.030160 -1.617166 -0.735110
H -0.119227 -1.778775 0.205881
H 0.868571 -1.310135 -0.883994
5
Structure 349 | Energy: -10.834888 Hartree
N -3.654442 0.717758 -1.103024
N -3.011064 1.501689 -0.683152
O -0.030160 -1.617166 -0.735110
H -0.119227 -1.778775 0.205881
H 0.868571 -1.310135 -0.883994
5
Structure 350 | Energy: -10.834908 Hartree
N -3.642570 0.669472 -1.100445
N -2.999192 1.453403 -0.680573
O -0.030160 -1.617166 -0.735110
H -0.119227 -1.778775 0.205881
H 0.868571 -1.310135 -0.883994
5
Structure 351 | Energy: -10.834953 Hartree
N -3.746361 0.314902 -0.642301
N -3.102984 1.098833 -0.222429
O -0.030160 -1.617166 -0.735110
H -0.119227 -1.778775 0.205881
H 0.868571 -1.310135 -0.883994
5
Structure 352 | Energy: -10.834958 Hartree
N -3.746361 0.314902 -0.642301
N -3.102984 1.098833 -0.222429
O -0.030967 -1.616324 -0.734419
H -0.106728 -1.783153 0.206827
H 0.868888 -1.319119 -0.895915
5
Structure 353 | Energy: -10.835176 Hartree
N -3.226062 0.422447 -1.211598
N -2.582684 1.206378 -0.791726
O -0.030967 -1.616324 -0.734419
H -0.106728 -1.783153 0.206827
H 0.868888 -1.319119 -0.895915
5
Structure 354 | Energy: -10.835302 Hartree
N -2.733022 0.429078 -0.932868
N -2.089645 1.213009 -0.512996
O -0.030967 -1.616324 -0.734419
H -0.106728 -1.783153 0.206827
H 0.868888 -1.319119 -0.895915
5
Structure 355 | Energy: -10.835321 Hartree
N -2.825275 0.282483 -1.035905
N -2.251590 1.087273 -0.558440
O -0.030967 -1.616324 -0.734419
H -0.106728 -1.783153 0.206827
H 0.868888 -1.319119 -0.895915
5
Structure 356 | Energy: -10.835328 Hartree
N -2.825465 0.289691 -1.047439
N -2.251400 1.080065 -0.546907
O -0.030967 -1.616324 -0.734419
H -0.106728 -1.783153 0.206827
H 0.868888 -1.319119 -0.895915
5
Structure 357 | Energy: -10.835266 Hartree
N -2.747093 0.433352 -0.701592
N -2.098770 1.161795 -0.197784
O -0.030967 -1.616324 -0.734419
H -0.106728 -1.783153 0.206827
H 0.868888 -1.319119 -0.895915
5
Structure 358 | Energy: -10.834755 Hartree
N -2.747093 0.433352 -0.701592
N -2.098770 1.161795 -0.197784
O 1.242653 -1.587334 -1.563483
H 1.166892 -1.754163 -0.622237
H 2.142508 -1.290129 -1.724979
5
Structure 359 | Energy: -10.834753 Hartree
N -2.662931 0.587208 -0.684040
N -1.984888 1.289802 -0.182647
O 1.242653 -1.587334 -1.563483
H 1.166892 -1.754163 -0.622237
H 2.142508 -1.290129 -1.724979
5
Structure 360 | Energy: -10.834753 Hartree
N -2.663110 0.587132 -0.683691
N -1.984710 1.289878 -0.182996
O 1.242653 -1.587334 -1.563483
H 1.166892 -1.754163 -0.622237
H 2.142508 -1.290129 -1.724979
5
Structure 361 | Energy: -10.834717 Hartree
N -2.663110 0.587132 -0.683691
N -1.984710 1.289878 -0.182996
O 1.274141 -1.610110 -1.728489
H 1.198380 -1.776939 -0.787243
H 2.173996 -1.312905 -1.889985
5
Structure 362 | Energy: -10.834717 Hartree
N -2.665112 0.569783 -0.654294
N -1.982708 1.307227 -0.212393
O 1.274141 -1.610110 -1.728489
H 1.198380 -1.776939 -0.787243
H 2.173996 -1.312905 -1.889985
5
Structure 363 | Energy: -10.834719 Hartree
N -2.668524 0.573562 -0.655271
N -1.979296 1.303448 -0.211416
O 1.274141 -1.610110 -1.728489
H 1.198380 -1.776939 -0.787243
H 2.173996 -1.312905 -1.889985
5
Structure 364 | Energy: -10.834721 Hartree
N -2.721608 0.568787 -0.722813
N -2.032380 1.298673 -0.278959
O 1.274141 -1.610110 -1.728489
H 1.198380 -1.776939 -0.787243
H 2.173996 -1.312905 -1.889985
5
Structure 365 | Energy: -10.834719 Hartree
N -2.857809 0.250630 -0.642471
N -2.218578 1.036963 -0.220761
O 1.274141 -1.610110 -1.728489
H 1.198380 -1.776939 -0.787243
H 2.173996 -1.312905 -1.889985
5
Structure 366 | Energy: -10.834723 Hartree
N -2.857809 0.250630 -0.642471
N -2.218578 1.036963 -0.220761
O 1.273239 -1.608823 -1.727715
H 1.208099 -1.772091 -0.785051
H 2.178597 -1.338188 -1.904452
5
Structure 367 | Energy: -10.834740 Hartree
N -2.857809 0.250630 -0.642471
N -2.218578 1.036963 -0.220761
O 1.269902 -1.610376 -1.723468
H 1.286256 -1.752594 -0.775300
H 2.153410 -1.333024 -1.981617
5
Structure 368 | Energy: -10.834742 Hartree
N -2.856258 0.278053 -0.689027
N -2.220128 1.009539 -0.174205
O 1.269902 -1.610376 -1.723468
H 1.286256 -1.752594 -0.775300
H 2.153410 -1.333024 -1.981617
5
Structure 369 | Energy: -10.834496 Hartree
N 0.996030 0.851855 2.295350
N 0.221959 1.373290 1.717686
O 1.269902 -1.610376 -1.723468
H 1.286256 -1.752594 -0.775300
H 2.153410 -1.333024 -1.981617
5
Structure 370 | Energy: -10.834540 Hartree
N 1.338137 1.698971 1.815048
N 0.564066 2.220407 1.237384
O 1.269902 -1.610376 -1.723468
H 1.286256 -1.752594 -0.775300
H 2.153410 -1.333024 -1.981617
5
Structure 371 | Energy: -10.834620 Hartree
N 1.171631 1.550793 1.818388
N 0.730572 2.368585 1.234044
O 1.269902 -1.610376 -1.723468
H 1.286256 -1.752594 -0.775300
H 2.153410 -1.333024 -1.981617
5
Structure 372 | Energy: -10.834799 Hartree
N 1.899337 1.815066 0.737065
N 1.458278 2.632857 0.152721
O 1.269902 -1.610376 -1.723468
H 1.286256 -1.752594 -0.775300
H 2.153410 -1.333024 -1.981617
5
Structure 373 | Energy: -10.834855 Hartree
N 1.887392 1.687580 0.666114
N 1.446333 2.505372 0.081770
O 1.269902 -1.610376 -1.723468
H 1.286256 -1.752594 -0.775300
H 2.153410 -1.333024 -1.981617
5
Structure 374 | Energy: -10.834695 Hartree
N 2.238201 1.590674 1.050711
N 1.797141 2.408466 0.466367
O 1.269902 -1.610376 -1.723468
H 1.286256 -1.752594 -0.775300
H 2.153410 -1.333024 -1.981617
5
Structure 375 | Energy: -10.834560 Hartree
N 2.487950 2.549241 1.176606
N 2.046890 3.367032 0.592262
O 1.269902 -1.610376 -1.723468
H 1.286256 -1.752594 -0.775300
H 2.153410 -1.333024 -1.981617
5
Structure 376 | Energy: -10.834560 Hartree
N 2.470166 2.545839 1.188716
N 2.023655 3.363184 0.607898
O 1.269902 -1.610376 -1.723468
H 1.286256 -1.752594 -0.775300
H 2.153410 -1.333024 -1.981617
5
Structure 377 | Energy: -10.834555 Hartree
N 1.543508 -2.011488 -1.394450
N 1.096997 -1.194142 -1.975268
O 2.196560 2.946951 0.859698
H 2.212915 2.804733 1.807866
H 3.080068 3.224303 0.601549
5
Structure 378 | Energy: -10.834567 Hartree
N 1.562586 -1.917663 -1.341269
N 1.116074 -1.100318 -1.922086
O 2.196560 2.946951 0.859698
H 2.212915 2.804733 1.807866
H 3.080068 3.224303 0.601549
5
Structure 379 | Energy: -10.834561 Hartree
N 1.637516 -2.007724 -1.157645
N 1.159330 -1.222028 -1.756639
O 2.196560 2.946951 0.859698
H 2.212915 2.804733 1.807866
H 3.080068 3.224303 0.601549
5
Structure 380 | Energy: -10.834563 Hartree
N 1.637516 -2.007724 -1.157645
N 1.159330 -1.222028 -1.756639
O 2.211861 2.936863 0.874172
H 2.224427 2.792104 1.822013
H 3.097578 3.210451 0.619604
5
Structure 381 | Energy: -10.834561 Hartree
N 1.637295 -2.009069 -1.159240
N 1.159551 -1.220683 -1.755044
O 2.211861 2.936863 0.874172
H 2.224427 2.792104 1.822013
H 3.097578 3.210451 0.619604
5
Structure 382 | Energy: -10.834568 Hartree
N 1.637295 -2.009069 -1.159240
N 1.159551 -1.220683 -1.755044
O 2.032246 2.829339 1.123992
H 1.941046 2.649163 2.061401
H 2.944453 3.094067 0.975846
5
Structure 383 | Energy: -10.834581 Hartree
N 1.494501 -1.730461 -1.641030
N 1.090161 -0.862224 -2.177172
O 2.032246 2.829339 1.123992
H 1.941046 2.649163 2.061401
H 2.944453 3.094067 0.975846
5
Structure 384 | Energy: -10.834583 Hartree
N 1.494501 -1.730461 -1.641030
N 1.090161 -0.862224 -2.177172
O 2.030255 2.828436 1.126272
H 1.984807 2.659400 2.069075
H 2.932279 3.098171 0.931986
5
Structure 385 | Energy: -10.834590 Hartree
N 1.503286 -1.684284 -1.606627
N 1.098946 -0.816047 -2.142769
O 2.030255 2.828436 1.126272
H 1.984807 2.659400 2.069075
H 2.932279 3.098171 0.931986
5
Structure 386 | Energy: -10.834602 Hartree
N 1.503286 -1.684284 -1.606627
N 1.098946 -0.816047 -2.142769
O 1.851714 2.724637 1.298666
H 1.892821 2.504561 2.231078
H 2.706463 3.093380 1.058698
5
Structure 387 | Energy: -10.834602 Hartree
N 1.149630 -1.939492 -1.099928
N 0.191011 -1.471239 -0.841930
O 1.851714 2.724637 1.298666
H 1.892821 2.504561 2.231078
H 2.706463 3.093380 1.058698
5
Structure 388 | Energy: -10.836356 Hartree
N -0.496614 0.561764 -1.942242
N -0.323935 -0.459064 -1.577706
O -0.082566 -3.031810 0.160354
H -0.150885 -2.293564 -0.451605
H 0.135207 -3.807820 -0.359158
5
Structure 389 | Energy: -10.836352 Hartree
N -0.496614 0.561764 -1.942242
N -0.323935 -0.459064 -1.577706
O -0.079299 -3.061808 0.178409
H -0.147617 -2.323562 -0.433550
H 0.138475 -3.837818 -0.341103
5
Structure 390 | Energy: -10.836356 Hartree
N -0.494079 0.538490 -1.928233
N -0.321400 -0.482339 -1.563697
O -0.079299 -3.061808 0.178409
H -0.147617 -2.323562 -0.433550
H 0.138475 -3.837818 -0.341103
5
Structure 391 | Energy: -10.836353 Hartree
N -0.761786 0.470869 -1.972867
N -0.539790 -0.537492 -1.600414
O -0.079299 -3.061808 0.178409
H -0.147617 -2.323562 -0.433550
H 0.138475 -3.837818 -0.341103
5
Structure 392 | Energy: -10.836355 Hartree
N -0.766850 0.475711 -1.955830
N -0.534726 -0.542334 -1.617452
O -0.079299 -3.061808 0.178409
H -0.147617 -2.323562 -0.433550
H 0.138475 -3.837818 -0.341103
5
Structure 393 | Energy: -10.836334 Hartree
N -0.830429 0.414434 -1.944101
N -0.598304 -0.603611 -1.605723
O -0.079299 -3.061808 0.178409
H -0.147617 -2.323562 -0.433550
H 0.138475 -3.837818 -0.341103
5
Structure 394 | Energy: -10.834281 Hartree
N -0.339506 0.120033 -2.113462
N -1.089227 -0.309210 -1.436362
O -0.079299 -3.061808 0.178409
H -0.147617 -2.323562 -0.433550
H 0.138475 -3.837818 -0.341103
5
Structure 395 | Energy: -10.834286 Hartree
N -0.339506 0.120033 -2.113462
N -1.089227 -0.309210 -1.436362
O -0.022516 -3.008953 0.237795
H -0.109035 -2.287543 -0.391689
H 0.177143 -3.799463 -0.266923
5
Structure 396 | Energy: -10.834332 Hartree
N -0.356134 0.132738 -2.123038
N -1.072599 -0.321915 -1.426787
O -0.022516 -3.008953 0.237795
H -0.109035 -2.287543 -0.391689
H 0.177143 -3.799463 -0.266923
5
Structure 397 | Energy: -10.835305 Hartree
N 0.342047 -2.785493 -0.173793
N -0.374417 -3.240146 0.522458
O -0.720697 -0.090722 -1.711450
H -0.807216 0.630688 -2.340934
H -0.521038 -0.881232 -2.216168
5
Structure 398 | Energy: -10.835221 Hartree
N 0.267754 -2.588377 0.158224
N -0.506889 -3.032999 0.796217
O -0.720697 -0.090722 -1.711450
H -0.807216 0.630688 -2.340934
H -0.521038 -0.881232 -2.216168
5
Structure 399 | Energy: -10.835221 Hartree
N -0.763260 2.865066 -0.305690
N -1.665675 3.096282 0.274811
O -0.720697 -0.090722 -1.711450
H -0.807216 0.630688 -2.340934
H -0.521038 -0.881232 -2.216168
5
Structure 400 | Energy: -10.835135 Hartree
N -0.705131 2.910475 0.176516
N -1.723804 3.050873 -0.207396
O -0.720697 -0.090722 -1.711450
H -0.807216 0.630688 -2.340934
H -0.521038 -0.881232 -2.216168
5
Structure 401 | Energy: -10.834074 Hartree
N -0.205030 -0.164787 -1.582956
N -1.223703 -0.024389 -1.966868
O -1.220798 2.984541 0.048023
H -1.307317 3.705951 -0.581462
H -1.021139 2.194031 -0.456695
5
Structure 402 | Energy: -10.835135 Hartree
N -0.705131 2.910475 0.176516
N -1.723804 3.050873 -0.207396
O -0.720697 -0.090722 -1.711450
H -0.807216 0.630688 -2.340934
H -0.521038 -0.881232 -2.216168
5
Structure 403 | Energy: -10.835133 Hartree
N -0.705131 2.910475 0.176516
N -1.723804 3.050873 -0.207396
O -0.890381 -0.140585 -1.862566
H -0.976900 0.580825 -2.492050
H -0.690722 -0.931095 -2.367284
5
Structure 404 | Energy: -10.834157 Hartree
N -0.374713 -0.214651 -1.734072
N -1.393387 -0.074252 -2.117984
O -1.220798 2.984541 0.048023
H -1.307317 3.705951 -0.581462
H -1.021139 2.194031 -0.456695
5
Structure 405 | Energy: -10.834164 Hartree
N -0.374713 -0.214651 -1.734072
N -1.393387 -0.074252 -2.117984
O -0.903193 3.050566 -0.030676
H -0.835394 3.760247 -0.675598
H -0.784897 2.226541 -0.506593
5
Structure 406 | Energy: -10.835136 Hartree
N -0.383443 2.973969 0.098565
N -1.402117 3.114367 -0.285346
O -0.894463 -0.138054 -1.863313
H -0.826664 0.571627 -2.508236
H -0.776167 -0.962079 -2.339231
5
Structure 407 | Energy: -10.835139 Hartree
N -0.380928 3.004453 0.100593
N -1.404632 3.083883 -0.287374
O -0.894463 -0.138054 -1.863313
H -0.826664 0.571627 -2.508236
H -0.776167 -0.962079 -2.339231
5
Structure 408 | Energy: -10.834184 Hartree
N -0.372199 -0.184167 -1.732045
N -1.395902 -0.104736 -2.120012
O -0.903193 3.050566 -0.030676
H -0.835394 3.760247 -0.675598
H -0.784897 2.226541 -0.506593
5
Structure 409 | Energy: -10.834184 Hartree
N -0.553951 -0.193373 -1.761282
N 0.526672 -0.007356 -1.810738
O -0.903193 3.050566 -0.030676
H -0.835394 3.760247 -0.675598
H -0.784897 2.226541 -0.506593
5
Structure 410 | Energy: -10.834198 Hartree
N -0.553908 -0.184802 -1.739334
N 0.526629 -0.015927 -1.832687
O -0.903193 3.050566 -0.030676
H -0.835394 3.760247 -0.675598
H -0.784897 2.226541 -0.506593
5
Structure 411 | Energy: -10.834834 Hartree
N 0.425102 -0.388915 -1.626501
N -0.452381 0.188187 -1.945520
O -0.903193 3.050566 -0.030676
H -0.835394 3.760247 -0.675598
H -0.784897 2.226541 -0.506593
5
Structure 412 | Energy: -10.834850 Hartree
N 0.461256 -0.416829 -1.640777
N -0.416227 0.160273 -1.959796
O -0.903193 3.050566 -0.030676
H -0.835394 3.760247 -0.675598
H -0.784897 2.226541 -0.506593
5
Structure 413 | Energy: -10.834716 Hartree
N -0.454038 2.755618 0.066119
N -1.331522 3.332719 -0.252900
O 0.012101 -0.121880 -1.737572
H 0.079900 0.587800 -2.382495
H 0.130398 -0.945905 -2.213490
5
Structure 414 | Energy: -10.834549 Hartree
N -0.454038 2.755618 0.066119
N -1.331522 3.332719 -0.252900
O 0.328191 0.040135 -1.416770
H 0.395990 0.749816 -2.061693
H 0.446487 -0.783890 -1.892688
5
Structure 415 | Energy: -10.834549 Hartree
N -0.454038 2.755618 0.066119
N -1.331522 3.332719 -0.252900
O 1.357200 1.238534 -2.079239
H 0.479784 0.847403 -2.115639
H 1.861655 0.864235 -2.803763
5
Structure 416 | Energy: -10.834922 Hartree
N 0.150673 2.792891 0.739956
N -0.726810 3.369993 0.420937
O 1.357200 1.238534 -2.079239
H 0.479784 0.847403 -2.115639
H 1.861655 0.864235 -2.803763
5
Structure 417 | Energy: -10.834919 Hartree
N 0.150673 2.792891 0.739956
N -0.726810 3.369993 0.420937
O 1.396971 1.301055 -2.055806
H 0.519555 0.909924 -2.092206
H 1.901426 0.926756 -2.780330
5
Structure 418 | Energy: -10.834999 Hartree
N 0.150673 2.792891 0.739956
N -0.726810 3.369993 0.420937
O 1.422150 1.820717 -1.952490
H 0.544733 1.429586 -1.988889
H 1.926604 1.446418 -2.677014
5
Structure 419 | Energy: -10.834944 Hartree
N 0.150673 2.792891 0.739956
N -0.726810 3.369993 0.420937
O 1.502353 1.907725 -1.889695
H 0.624937 1.516593 -1.926095
H 2.006808 1.533425 -2.614219
5
Structure 420 | Energy: -10.834972 Hartree
N 0.150673 2.792891 0.739956
N -0.726810 3.369993 0.420937
O 1.527301 2.027343 -1.925174
H 0.660614 1.613952 -1.971328
H 2.039886 1.687595 -2.660930
5
Structure 421 | Energy: -10.835095 Hartree
N 0.150673 2.792891 0.739956
N -0.726810 3.369993 0.420937
O 1.339847 2.093875 -1.982150
H 0.473160 1.680484 -2.028305
H 1.852433 1.754127 -2.717906
5
Structure 422 | Energy: -10.833564 Hartree
N 1.758775 1.763183 -1.866392
N 0.881292 2.340285 -2.185410
O -0.268255 3.123582 0.624197
H -1.134942 2.710192 0.578043
H 0.244330 2.783835 -0.111559
5
Structure 423 | Energy: -10.835712 Hartree
N 1.758775 1.763183 -1.866392
N 0.881292 2.340285 -2.185410
O -0.247927 3.077560 0.530888
H -0.042561 3.407618 1.410123
H -1.170700 2.816874 0.537375
5
Structure 424 | Energy: -10.835681 Hartree
N 1.714097 1.581451 -1.797736
N 0.892498 2.220718 -2.145741
O -0.247927 3.077560 0.530888
H -0.042561 3.407618 1.410123
H -1.170700 2.816874 0.537375
5
Structure 425 | Energy: -10.835722 Hartree
N 1.611893 1.877930 -2.037968
N 0.743946 2.505553 -2.277871
O -0.247927 3.077560 0.530888
H -0.042561 3.407618 1.410123
H -1.170700 2.816874 0.537375
5
Structure 426 | Energy: -10.835663 Hartree
N 1.611893 1.877930 -2.037968
N 0.743946 2.505553 -2.277871
O -0.211538 3.127277 0.640716
H -0.006173 3.457335 1.519951
H -1.134311 2.866591 0.647203
5
Structure 427 | Energy: -10.835685 Hartree
N 0.999963 2.669274 -2.361618
N 1.355877 1.714209 -1.954221
O -0.211538 3.127277 0.640716
H -0.006173 3.457335 1.519951
H -1.134311 2.866591 0.647203
5
Structure 428 | Energy: -10.835671 Hartree
N 0.999963 2.669274 -2.361618
N 1.355877 1.714209 -1.954221
O -0.220204 3.146575 0.647454
H -0.014838 3.476633 1.526689
H -1.142977 2.885888 0.653941
5
Structure 429 | Energy: -10.835660 Hartree
N 0.999963 2.669274 -2.361618
N 1.355877 1.714209 -1.954221
O -0.155528 3.161334 0.685489
H 0.049837 3.491393 1.564724
H -1.078301 2.900648 0.691975
5
Structure 430 | Energy: -10.835616 Hartree
N 0.816241 2.202142 -2.316732
N 1.138284 1.287431 -1.802545
O -0.155528 3.161334 0.685489
H 0.049837 3.491393 1.564724
H -1.078301 2.900648 0.691975
5
Structure 431 | Energy: -10.835717 Hartree
N 0.816241 2.202142 -2.316732
N 1.138284 1.287431 -1.802545
O -0.155241 3.161141 0.685738
H -0.626824 3.946725 0.976661
H -0.406194 2.448380 1.276080
5
Structure 432 | Energy: -10.835746 Hartree
N 0.816241 2.202142 -2.316732
N 1.138284 1.287431 -1.802545
O 0.133068 3.107817 0.813548
H -0.345835 3.863431 1.165497
H 0.011153 2.385311 1.432120
5
Structure 433 | Energy: -10.835740 Hartree
N 0.901879 2.083174 -2.259669
N 1.182505 1.177804 -1.706179
O 0.133068 3.107817 0.813548
H -0.345835 3.863431 1.165497
H 0.011153 2.385311 1.432120
5
Structure 434 | Energy: -10.835729 Hartree
N 0.894906 2.084792 -2.256078
N 1.175531 1.179422 -1.702588
O 0.161957 3.102715 0.851430
H -0.316946 3.858329 1.203379
H 0.040042 2.380209 1.470002
5
Structure 435 | Energy: -10.835724 Hartree
N 0.756502 2.081485 -2.285400
N 0.970251 1.146371 -1.751857
O 0.161957 3.102715 0.851430
H -0.316946 3.858329 1.203379
H 0.040042 2.380209 1.470002
5
Structure 436 | Energy: -10.835717 Hartree
N 0.759360 2.086900 -2.276847
N 0.967393 1.140956 -1.760410
O 0.161957 3.102715 0.851430
H -0.316946 3.858329 1.203379
H 0.040042 2.380209 1.470002
5
Structure 437 | Energy: -10.834372 Hartree
N 0.024323 3.577540 0.647515
N 0.232356 2.631595 1.163952
O 0.896994 1.612076 -2.072932
H 0.418091 2.367689 -1.720983
H 0.775080 0.889570 -1.454360
5
Structure 438 | Energy: -10.835717 Hartree
N 0.759360 2.086900 -2.276847
N 0.967393 1.140956 -1.760410
O 0.161957 3.102715 0.851430
H -0.316946 3.858329 1.203379
H 0.040042 2.380209 1.470002
5
Structure 439 | Energy: -10.835748 Hartree
N 1.312598 2.279246 -2.173070
N 1.469688 1.313679 -1.675275
O 0.161957 3.102715 0.851430
H -0.316946 3.858329 1.203379
H 0.040042 2.380209 1.470002
5
Structure 440 | Energy: -10.835144 Hartree
N 1.312598 2.279246 -2.173070
N 1.469688 1.313679 -1.675275
O 0.088159 3.095437 0.856900
H -0.112840 3.529316 1.690876
H 1.007251 2.824742 0.895680
5
Structure 441 | Energy: -10.835413 Hartree
N 1.312598 2.279246 -2.173070
N 1.469688 1.313679 -1.675275
O 0.185457 3.080074 0.890896
H -0.599834 3.079479 0.336381
H -0.050060 3.518415 1.710590
5
Structure 442 | Energy: -10.835021 Hartree
N 1.312598 2.279246 -2.173070
N 1.469688 1.313679 -1.675275
O 0.120171 3.045337 0.928261
H -0.083696 3.354110 0.040981
H 0.470018 3.795142 1.412935
5
Structure 443 | Energy: -10.835709 Hartree
N 1.312598 2.279246 -2.173070
N 1.469688 1.313679 -1.675275
O 0.121948 3.094852 0.842906
H 0.294798 3.934362 1.278239
H 0.063329 2.428975 1.530424
5
Structure 444 | Energy: -10.834347 Hartree
N 1.181691 1.724825 -1.421980
N 1.600595 1.868100 -2.426364
O 0.121948 3.094852 0.842906
H 0.294798 3.934362 1.278239
H 0.063329 2.428975 1.530424
5
Structure 445 | Energy: -10.835426 Hartree
N -0.081113 3.032930 1.407926
N 0.337791 3.176205 0.403541
O 1.384751 1.786747 -1.986999
H 1.557602 2.626257 -1.551667
H 1.326132 1.120870 -1.299482
5
Structure 446 | Energy: -10.835546 Hartree
N -0.081113 3.032930 1.407926
N 0.337791 3.176205 0.403541
O 1.097455 1.921044 -2.150933
H 1.333990 2.728341 -1.685646
H 1.072758 1.218279 -1.498998
5
Structure 447 | Energy: -10.835285 Hartree
N -0.080799 3.031209 1.408377
N 0.338105 3.174484 0.403993
O 1.076409 1.895890 -2.026232
H 1.312944 2.703186 -1.560944
H 1.051712 1.193125 -1.374296
5
Structure 448 | Energy: -10.835407 Hartree
N -0.120770 3.040607 1.391069
N 0.378076 3.165086 0.421300
O 1.076409 1.895890 -2.026232
H 1.312944 2.703186 -1.560944
H 1.051712 1.193125 -1.374296
5
Structure 449 | Energy: -10.835351 Hartree
N -0.120770 3.040607 1.391069
N 0.378076 3.165086 0.421300
O 1.167590 1.813523 -1.959528
H 1.405074 2.623910 -1.500134
H 1.097338 1.124927 -1.295894
5
Structure 450 | Energy: -10.835366 Hartree
N -0.120770 3.040607 1.391069
N 0.378076 3.165086 0.421300
O 1.169473 1.815339 -1.959949
H 1.374481 2.615823 -1.468659
H 1.098043 1.104185 -1.320679
5
Structure 451 | Energy: -10.835366 Hartree
N -0.120770 3.040607 1.391069
N 0.378076 3.165086 0.421300
O 1.886595 1.824252 -1.589920
H 1.351778 2.615541 -1.480374
H 1.420993 1.108198 -1.154040
5
Structure 452 | Energy: -10.834928 Hartree
N -0.120770 3.040607 1.391069
N 0.378076 3.165086 0.421300
O 1.830565 1.791999 -1.506932
H 1.340076 1.630087 -2.317718
H 2.322001 2.605563 -1.633878
5
Structure 453 | Energy: -10.835305 Hartree
N -0.415159 3.063037 0.968494
N 0.672465 3.142656 0.843875
O 1.830565 1.791999 -1.506932
H 1.340076 1.630087 -2.317718
H 2.322001 2.605563 -1.633878
5
Structure 454 | Energy: -10.834588 Hartree
N -0.415159 3.063037 0.968494
N 0.672465 3.142656 0.843875
O 1.830093 1.791953 -1.506967
H 2.454781 1.739075 -2.235759
H 1.214799 2.497308 -1.715286
5
Structure 455 | Energy: -10.834630 Hartree
N -0.522879 2.953207 0.921313
N 0.556570 3.111996 0.801426
O 1.830093 1.791953 -1.506967
H 2.454781 1.739075 -2.235759
H 1.214799 2.497308 -1.715286
5
Structure 456 | Energy: -10.834532 Hartree
N -0.522879 2.953207 0.921313
N 0.556570 3.111996 0.801426
O 1.785853 1.821323 -1.447923
H 2.410541 1.768445 -2.176714
H 1.170559 2.526678 -1.656241
5
Structure 457 | Energy: -10.834521 Hartree
N -0.522879 2.953207 0.921313
N 0.556570 3.111996 0.801426
O 1.786181 1.820878 -1.448233
H 2.406836 1.774812 -2.180922
H 1.169068 2.527369 -1.647110
5
Structure 458 | Energy: -10.834517 Hartree
N -0.519198 2.946089 0.941191
N 0.552889 3.119114 0.781548
O 1.786181 1.820878 -1.448233
H 2.406836 1.774812 -2.180922
H 1.169068 2.527369 -1.647110
5
Structure 459 | Energy: -10.834196 Hartree
N -0.519198 2.946089 0.941191
N 0.552889 3.119114 0.781548
O 1.813397 1.885738 -1.551089
H 0.871630 1.786737 -1.385431
H 2.272297 1.485991 -0.810061
5
Structure 460 | Energy: -10.834232 Hartree
N -0.519198 2.946089 0.941191
N 0.552889 3.119114 0.781548
O 1.814588 1.885945 -1.550321
H 0.869501 1.775450 -1.413317
H 2.255521 1.493999 -0.794367
5
Structure 461 | Energy: -10.834188 Hartree
N -0.519198 2.946089 0.941191
N 0.552889 3.119114 0.781548
O 1.880445 1.982017 -1.544087
H 0.930089 1.877529 -1.443722
H 2.291319 1.547544 -0.794471
5
Structure 462 | Energy: -10.835004 Hartree
N -0.519198 2.946089 0.941191
N 0.552889 3.119114 0.781548
O 1.807164 1.983598 -1.531428
H 1.624208 1.372105 -0.812560
H 2.760317 2.027874 -1.626557
5
Structure 463 | Energy: -10.835010 Hartree
N 0.162373 2.671341 1.459822
N 1.234461 2.844366 1.300179
O 1.807164 1.983598 -1.531428
H 1.624208 1.372105 -0.812560
H 2.760317 2.027874 -1.626557
5
Structure 464 | Energy: -10.834610 Hartree
N 0.267747 2.507836 1.610681
N 1.129087 3.007871 1.149320
O 1.807164 1.983598 -1.531428
H 1.624208 1.372105 -0.812560
H 2.760317 2.027874 -1.626557
5
Structure 465 | Energy: -10.835287 Hartree
N 0.896378 2.257553 1.488212
N 0.500456 3.258154 1.271790
O 1.807164 1.983598 -1.531428
H 1.624208 1.372105 -0.812560
H 2.760317 2.027874 -1.626557
5
Structure 466 | Energy: -10.835281 Hartree
N 0.835840 2.234465 1.514566
N 0.439917 3.235066 1.298145
O 1.807164 1.983598 -1.531428
H 1.624208 1.372105 -0.812560
H 2.760317 2.027874 -1.626557
5
Structure 467 | Energy: -10.834829 Hartree
N 2.048220 1.451560 -1.388317
N 1.652298 2.452161 -1.604738
O 0.594783 2.766503 1.371455
H 0.411827 2.155010 2.090323
H 1.547936 2.810779 1.276326
5
Structure 468 | Energy: -10.835024 Hartree
N 1.560122 1.251026 -1.700821
N 1.164200 2.251628 -1.917242
O 0.594783 2.766503 1.371455
H 0.411827 2.155010 2.090323
H 1.547936 2.810779 1.276326
5
Structure 469 | Energy: -10.835131 Hartree
N 0.835840 2.234465 1.514566
N 0.439917 3.235066 1.298145
O 1.319066 1.783065 -1.843932
H 1.136110 1.171572 -1.125064
H 2.272218 1.827340 -1.939060
5
Structure 470 | Energy: -10.835192 Hartree
N 0.835840 2.234465 1.514566
N 0.439917 3.235066 1.298145
O 1.492989 1.788427 -1.794434
H 1.310033 1.176933 -1.075566
H 2.446142 1.832702 -1.889563
5
Structure 471 | Energy: -10.835155 Hartree
N 0.835840 2.234465 1.514566
N 0.439917 3.235066 1.298145
O 1.277857 1.777696 -1.841147
H 1.136286 1.168565 -1.111019
H 2.223278 1.813786 -1.997307
5
Structure 472 | Energy: -10.834985 Hartree
N 1.520796 1.245331 -1.700820
N 1.124874 2.245933 -1.917242
O 0.592900 2.766829 1.374240
H 0.451330 2.157699 2.104368
H 1.538321 2.802919 1.218080
5
Structure 473 | Energy: -10.834886 Hartree
N 1.523667 1.237106 -1.761423
N 1.122003 2.254158 -1.856640
O 0.592900 2.766829 1.374240
H 0.451330 2.157699 2.104368
H 1.538321 2.802919 1.218080
5
Structure 474 | Energy: -10.834175 Hartree
N 1.115448 2.179994 -1.545366
N 1.530222 1.311270 -2.072696
O 0.592900 2.766829 1.374240
H 0.451330 2.157699 2.104368
H 1.538321 2.802919 1.218080
5
Structure 475 | Energy: -10.834097 Hartree
N 1.115448 2.179994 -1.545366
N 1.530222 1.311270 -2.072696
O 0.687133 2.924811 1.339664
H 0.553760 2.352495 2.100477
H 1.628915 2.937575 1.159686
5
Structure 476 | Energy: -10.835127 Hartree
N 1.115448 2.179994 -1.545366
N 1.530222 1.311270 -2.072696
O 0.706704 2.866043 1.423836
H 1.176546 2.421713 0.712507
H 0.695494 3.801124 1.211687
5
Structure 477 | Energy: -10.835116 Hartree
N 1.115448 2.179994 -1.545366
N 1.530222 1.311270 -2.072696
O 0.794797 2.890269 1.492525
H 1.264639 2.445939 0.781197
H 0.783586 3.825350 1.280377
5
Structure 478 | Energy: -10.835175 Hartree
N 1.331372 2.148542 -1.508061
N 1.786728 1.276274 -1.994471
O 0.794797 2.890269 1.492525
H 1.264639 2.445939 0.781197
H 0.783586 3.825350 1.280377
5
Structure 479 | Energy: -10.835175 Hartree
N 1.331372 2.148542 -1.508061
N 1.786728 1.276274 -1.994471
O 0.795064 2.889816 1.492415
H 1.296794 2.457650 0.795516
H 0.747190 3.820822 1.267813
5
Structure 480 | Energy: -10.834146 Hartree
N 1.331372 2.148542 -1.508061
N 1.786728 1.276274 -1.994471
O 0.850724 2.947110 1.392862
H 0.856758 2.004696 1.582568
H 0.303794 3.364410 2.060872
5
Structure 481 | Energy: -10.834447 Hartree
N 1.331372 2.148542 -1.508061
N 1.786728 1.276274 -1.994471
O 0.510041 2.642513 2.100976
H 0.516075 1.700100 2.290682
H -0.036889 3.059814 2.768986
5
Structure 482 | Energy: -10.834413 Hartree
N 1.331372 2.148542 -1.508061
N 1.786728 1.276274 -1.994471
O 0.484748 2.746943 2.083300
H 0.490782 1.804529 2.273006
H -0.062181 3.164243 2.751311
5
Structure 483 | Energy: -10.834459 Hartree
N 1.323158 2.156206 -1.530818
N 1.794942 1.268610 -1.971714
O 0.484748 2.746943 2.083300
H 0.490782 1.804529 2.273006
H -0.062181 3.164243 2.751311
5
Structure 484 | Energy: -10.834318 Hartree
N 1.616810 1.248041 -1.695471
N 2.088595 0.360446 -2.136367
O 0.484748 2.746943 2.083300
H 0.490782 1.804529 2.273006
H -0.062181 3.164243 2.751311
5
Structure 485 | Energy: -10.834310 Hartree
N 1.616810 1.248041 -1.695471
N 2.088595 0.360446 -2.136367
O 0.516088 2.704057 1.992585
H 0.522122 1.761644 2.182292
H -0.030842 3.121358 2.660596
5
Structure 486 | Energy: -10.834301 Hartree
N 1.733528 2.020964 -1.152595
N 2.205312 1.133369 -1.593491
O 0.516088 2.704057 1.992585
H 0.522122 1.761644 2.182292
H -0.030842 3.121358 2.660596
5
Structure 487 | Energy: -10.834298 Hartree
N 1.779609 2.061213 -1.142226
N 2.235290 1.171203 -1.595033
O 0.516088 2.704057 1.992585
H 0.522122 1.761644 2.182292
H -0.030842 3.121358 2.660596
5
Structure 488 | Energy: -10.834330 Hartree
N 1.779609 2.061213 -1.142226
N 2.235290 1.171203 -1.595033
O 0.790288 2.761943 2.082624
H 0.754998 1.819348 2.268195
H 0.310045 3.204442 2.784814
5
Structure 489 | Energy: -10.834319 Hartree
N 1.683906 1.314236 -1.637249
N 2.139587 0.424227 -2.090056
O 0.790288 2.761943 2.082624
H 0.754998 1.819348 2.268195
H 0.310045 3.204442 2.784814
5
Structure 490 | Energy: -10.834324 Hartree
N 1.683920 1.316995 -1.642741
N 2.139573 0.421468 -2.084564
O 0.790288 2.761943 2.082624
H 0.754998 1.819348 2.268195
H 0.310045 3.204442 2.784814
5
Structure 491 | Energy: -10.834311 Hartree
N 1.686301 1.310729 -1.628168
N 2.137192 0.427734 -2.099136
O 0.790288 2.761943 2.082624
H 0.754998 1.819348 2.268195
H 0.310045 3.204442 2.784814
5
Structure 492 | Energy: -10.834903 Hartree
N 1.844407 1.247596 -2.255449
N 1.979086 0.490867 -1.471856
O 0.790288 2.761943 2.082624
H 0.754998 1.819348 2.268195
H 0.310045 3.204442 2.784814
5
Structure 493 | Energy: -10.834412 Hartree
N 0.694102 3.112326 1.740500
N 0.828782 2.355596 2.524093
O 1.940592 0.897214 -1.913326
H 1.905303 -0.045382 -1.727755
H 1.460350 1.339713 -1.211135
5
Structure 494 | Energy: -10.834428 Hartree
N 0.698769 3.091040 1.720271
N 0.824115 2.376882 2.544323
O 1.940592 0.897214 -1.913326
H 1.905303 -0.045382 -1.727755
H 1.460350 1.339713 -1.211135
5
Structure 495 | Energy: -10.834431 Hartree
N 0.698769 3.091040 1.720271
N 0.824115 2.376882 2.544323
O 1.916530 0.936220 -1.829739
H 1.881241 -0.006376 -1.644168
H 1.436288 1.378719 -1.127548
5
Structure 496 | Energy: -10.834953 Hartree
N 1.825012 1.265316 -2.192092
N 1.950357 0.551159 -1.368039
O 0.790288 2.761943 2.082624
H 0.754998 1.819348 2.268195
H 0.310045 3.204442 2.784814
5
Structure 497 | Energy: -10.834961 Hartree
N 1.851428 1.261846 -2.198211
N 1.923941 0.554629 -1.361921
O 0.790288 2.761943 2.082624
H 0.754998 1.819348 2.268195
H 0.310045 3.204442 2.784814
5
Structure 498 | Energy: -10.835110 Hartree
N 1.851428 1.261846 -2.198211
N 1.923941 0.554629 -1.361921
O 0.415893 2.462818 1.772425
H 0.380603 1.520223 1.957996
H -0.064350 2.905317 2.474615
5
Structure 499 | Energy: -10.835103 Hartree
N 1.717071 0.722317 -1.897304
N 1.789584 0.015099 -1.061013
O 0.415893 2.462818 1.772425
H 0.380603 1.520223 1.957996
H -0.064350 2.905317 2.474615
5
Structure 500 | Energy: -10.835241 Hartree
N 1.717071 0.722317 -1.897304
N 1.789584 0.015099 -1.061013
O 0.860206 2.634845 1.429586
H 0.824917 1.692250 1.615157
H 0.379964 3.077344 2.131777
5
Structure 501 | Energy: -10.835551 Hartree
N 1.717071 0.722317 -1.897304
N 1.789584 0.015099 -1.061013
O 1.493283 2.231763 1.558586
H 1.457994 1.289167 1.744157
H 1.013041 2.674262 2.260777
5
Structure 502 | Energy: -10.836049 Hartree
N 0.984084 1.152338 -1.610748
N 1.056596 0.445120 -0.774458
O 1.493283 2.231763 1.558586
H 1.457994 1.289167 1.744157
H 1.013041 2.674262 2.260777
5
Structure 503 | Energy: -10.835683 Hartree
N 0.984084 1.152338 -1.610748
N 1.056596 0.445120 -0.774458
O 1.983931 -1.823605 -2.621294
H 2.525832 -1.727107 -1.833132
H 1.764510 -2.753842 -2.698908
5
Structure 504 | Energy: -10.835788 Hartree
N 0.813569 1.213328 -2.141299
N 0.850413 0.640110 -1.205960
O 1.983931 -1.823605 -2.621294
H 2.525832 -1.727107 -1.833132
H 1.764510 -2.753842 -2.698908
5
Structure 505 | Energy: -10.835787 Hartree
N 0.813569 1.213328 -2.141299
N 0.850413 0.640110 -1.205960
O 1.963694 -1.829989 -2.627111
H 2.509044 -1.737273 -1.840876
H 1.738330 -2.758825 -2.704471
5
Structure 506 | Energy: -10.834532 Hartree
N 1.053046 1.278818 -1.315355
N 0.610937 0.574620 -2.031903
O 1.963694 -1.829989 -2.627111
H 2.509044 -1.737273 -1.840876
H 1.738330 -2.758825 -2.704471
5
Structure 507 | Energy: -10.834386 Hartree
N 1.032624 1.291769 -1.316301
N 0.631358 0.561668 -2.030957
O 1.963694 -1.829989 -2.627111
H 2.509044 -1.737273 -1.840876
H 1.738330 -2.758825 -2.704471
5
Structure 508 | Energy: -10.834602 Hartree
N 2.182231 -1.511722 -2.230119
N 1.780965 -2.241823 -2.944775
O 0.814087 0.973502 -1.713293
H 1.359437 1.066219 -0.927058
H 0.588723 0.044667 -1.790654
5
Structure 509 | Energy: -10.834408 Hartree
N 2.158263 -1.491083 -2.211156
N 1.756998 -2.221185 -2.925813
O 0.871603 0.965498 -1.691262
H 1.416954 1.058214 -0.905027
H 0.646239 0.036662 -1.768622
5
Structure 510 | Energy: -10.834549 Hartree
N 2.280322 -1.416917 -2.235061
N 1.947265 -2.130834 -2.999386
O 0.871603 0.965498 -1.691262
H 1.416954 1.058214 -0.905027
H 0.646239 0.036662 -1.768622
5
Structure 511 | Energy: -10.834241 Hartree
N 1.056036 1.275673 -1.269435
N 0.722979 0.561756 -2.033760
O 2.095890 -1.727092 -2.656888
H 2.641240 -1.634376 -1.870653
H 1.870525 -2.655927 -2.734248
5
Structure 512 | Energy: -10.834255 Hartree
N 0.982549 1.193682 -1.317619
N 0.649492 0.479766 -2.081944
O 2.077229 -1.752868 -2.773979
H 2.622579 -1.660152 -1.987744
H 1.851865 -2.681704 -2.851339
5
Structure 513 | Energy: -10.834316 Hartree
N 0.948732 1.190650 -1.316195
N 0.615675 0.476734 -2.080520
O 2.077229 -1.752868 -2.773979
H 2.622579 -1.660152 -1.987744
H 1.851865 -2.681704 -2.851339
5
Structure 514 | Energy: -10.834246 Hartree
N 1.212783 1.211375 -1.177916
N 0.759924 0.499315 -1.879831
O 2.077229 -1.752868 -2.773979
H 2.622579 -1.660152 -1.987744
H 1.851865 -2.681704 -2.851339
5
Structure 515 | Energy: -10.834237 Hartree
N 1.212783 1.211375 -1.177916
N 0.759924 0.499315 -1.879831
O 2.078754 -1.752607 -2.774327
H 2.592885 -1.664987 -1.966763
H 1.857349 -2.681014 -2.866786
5
Structure 516 | Energy: -10.834334 Hartree
N 2.321563 -1.443622 -2.383357
N 1.868704 -2.155682 -3.085272
O 0.969974 0.902390 -1.568886
H 1.484105 0.990009 -0.761321
H 0.748569 -0.026018 -1.661345
5
Structure 517 | Energy: -10.834278 Hartree
N 2.321563 -1.443622 -2.383357
N 1.868704 -2.155682 -3.085272
O 0.982971 0.857252 -1.457915
H 1.500982 0.911523 -0.649900
H 0.758496 -0.066182 -1.585942
5
Structure 518 | Energy: -10.834278 Hartree
N 2.321563 -1.443622 -2.383357
N 1.868704 -2.155682 -3.085272
O 0.976899 0.853999 -1.456454
H 1.494780 0.909007 -0.648406
H 0.754534 -0.069874 -1.584993
5
Structure 519 | Energy: -10.834196 Hartree
N 1.219864 1.161413 -1.067476
N 0.767005 0.449353 -1.769391
O 2.078598 -1.751036 -2.772336
H 2.596479 -1.696028 -1.964288
H 1.856233 -2.674909 -2.900874
5
Structure 520 | Energy: -10.834294 Hartree
N 1.219999 1.198164 -1.053345
N 0.767140 0.486104 -1.755260
O 2.091398 -1.802970 -2.778003
H 2.609279 -1.747963 -1.969955
H 1.869033 -2.726843 -2.906541
5
Structure 521 | Energy: -10.834246 Hartree
N 1.204064 1.176892 -1.023739
N 0.783075 0.507376 -1.784865
O 2.091398 -1.802970 -2.778003
H 2.609279 -1.747963 -1.969955
H 1.869033 -2.726843 -2.906541
5
Structure 522 | Energy: -10.834653 Hartree
N 2.318427 -1.516828 -2.359419
N 1.897439 -2.186344 -3.120545
O 0.977034 0.890750 -1.442323
H 1.494916 0.945758 -0.634275
H 0.754669 -0.033123 -1.570862
5
Structure 523 | Energy: -10.834558 Hartree
N 0.176882 -0.135925 1.166422
N -0.009068 -1.195500 1.384410
O 0.977034 0.890750 -1.442323
H 1.494916 0.945758 -0.634275
H 0.754669 -0.033123 -1.570862
5
Structure 524 | Energy: -10.834156 Hartree
N 0.176882 -0.135925 1.166422
N -0.009068 -1.195500 1.384410
O 2.205928 -0.161920 3.694005
H 2.325036 -0.870954 3.055842
H 1.288403 -0.185397 3.971686
5
Structure 525 | Energy: -10.834156 Hartree
N 0.176882 -0.135925 1.166422
N -0.009068 -1.195500 1.384410
O 2.423574 -1.152870 -0.937048
H 2.471336 -1.537062 -0.057114
H 1.534371 -1.305297 -1.261999
5
Structure 526 | Energy: -10.835761 Hartree
N 2.469467 -0.653108 -1.014988
N 2.283517 -1.712683 -0.797000
O 0.130989 -0.635687 1.244363
H 0.178750 -1.019880 2.124296
H -0.758214 -0.788114 0.919411
5
Structure 527 | Energy: -10.835807 Hartree
N 2.469467 -0.653108 -1.014988
N 2.283517 -1.712683 -0.797000
O 0.203508 -0.652047 1.175360
H 0.251270 -1.036239 2.055293
H -0.685695 -0.804474 0.850408
5
Structure 528 | Energy: -10.835814 Hartree
N 2.469467 -0.653108 -1.014988
N 2.283517 -1.712683 -0.797000
O 0.333937 -0.684334 1.311008
H 0.439890 -1.073820 2.183500
H -0.572604 -0.842293 1.041302
5
Structure 529 | Energy: -10.835811 Hartree
N 2.311509 -0.489637 -1.142271
N 2.100170 -1.559165 -1.014822
O 0.333937 -0.684334 1.311008
H 0.439890 -1.073820 2.183500
H -0.572604 -0.842293 1.041302
5
Structure 530 | Energy: -10.833850 Hartree
N 0.394811 -0.180202 1.281012
N 0.183472 -1.249729 1.408461
O 2.250636 -0.993770 -1.112274
H 2.356588 -1.383256 -0.239782
H 1.344094 -1.151729 -1.381980
5
Structure 531 | Energy: -10.835811 Hartree
N 2.311509 -0.489637 -1.142271
N 2.100170 -1.559165 -1.014822
O 0.333937 -0.684334 1.311008
H 0.439890 -1.073820 2.183500
H -0.572604 -0.842293 1.041302
5
Structure 532 | Energy: -10.835797 Hartree
N 2.311509 -0.489637 -1.142271
N 2.100170 -1.559165 -1.014822
O 0.308784 -0.680273 1.342810
H 0.414736 -1.069760 2.215302
H -0.597758 -0.838232 1.073104
5
Structure 533 | Energy: -10.835811 Hartree
N 2.311509 -0.489637 -1.142271
N 2.100170 -1.559165 -1.014822
O 0.332897 -0.684166 1.312323
H 0.438850 -1.073653 2.184815
H -0.573644 -0.842125 1.042617
5
Structure 534 | Energy: -10.835826 Hartree
N 2.311509 -0.489637 -1.142271
N 2.100170 -1.559165 -1.014822
O 0.283409 -0.721458 1.270473
H 0.389362 -1.110944 2.142965
H -0.623132 -0.879417 1.000767
5
Structure 535 | Energy: -10.835840 Hartree
N 2.225946 -0.156361 -1.154787
N 2.049215 -1.239583 -1.140938
O 0.283409 -0.721458 1.270473
H 0.389362 -1.110944 2.142965
H -0.623132 -0.879417 1.000767
5
Structure 536 | Energy: -10.835832 Hartree
N 2.207859 -0.242628 -1.188493
N 2.045360 -1.326301 -1.124910
O 0.283409 -0.721458 1.270473
H 0.389362 -1.110944 2.142965
H -0.623132 -0.879417 1.000767
5
Structure 537 | Energy: -10.835723 Hartree
N 2.292212 -0.311067 -1.336841
N 2.129713 -1.394740 -1.273258
O 0.283409 -0.721458 1.270473
H 0.389362 -1.110944 2.142965
H -0.623132 -0.879417 1.000767
5
Structure 538 | Energy: -10.835774 Hartree
N 1.922535 -1.318810 -1.274397
N 2.499390 -0.386997 -1.335701
O 0.283409 -0.721458 1.270473
H 0.389362 -1.110944 2.142965
H -0.623132 -0.879417 1.000767
5
Structure 539 | Energy: -10.835453 Hartree
N 2.661629 -1.165434 -1.284488
N 1.760295 -0.540373 -1.325611
O 0.283409 -0.721458 1.270473
H 0.389362 -1.110944 2.142965
H -0.623132 -0.879417 1.000767
5
Structure 540 | Energy: -10.834771 Hartree
N 2.661629 -1.165434 -1.284488
N 1.760295 -0.540373 -1.325611
O 0.191671 -0.744124 1.346810
H 1.114629 -0.931745 1.539464
H 0.107671 -0.698850 0.392659
5
Structure 541 | Energy: -10.835649 Hartree
N -2.544611 -0.283557 3.489906
N -2.408867 0.165836 2.497729
O 0.191671 -0.744124 1.346810
H 1.114629 -0.931745 1.539464
H 0.107671 -0.698850 0.392659
5
Structure 542 | Energy: -10.835669 Hartree
N -2.544611 -0.283557 3.489906
N -2.408867 0.165836 2.497729
O 0.191778 -0.748323 1.347499
H 1.128513 -0.870377 1.525820
H 0.092098 -0.693569 0.395357
5
Structure 543 | Energy: -10.835671 Hartree
N -2.544611 -0.283557 3.489906
N -2.408867 0.165836 2.497729
O 0.191370 -0.749553 1.347144
H 1.128169 -0.861250 1.531805
H 0.098917 -0.683184 0.395011
5
Structure 544 | Energy: -10.835591 Hartree
N -2.544611 -0.283557 3.489906
N -2.408867 0.165836 2.497729
O 0.048244 -0.774094 1.144413
H 0.990869 -0.923142 1.260214
H -0.105874 -0.669126 0.203808
5
Structure 545 | Energy: -10.835543 Hartree
N -2.506336 -0.672960 3.578721
N -2.446979 -0.164047 2.608010
O 0.048244 -0.774094 1.144413
H 0.990869 -0.923142 1.260214
H -0.105874 -0.669126 0.203808
5
Structure 546 | Energy: -10.834650 Hartree
N -2.506336 -0.672960 3.578721
N -2.446979 -0.164047 2.608010
O 0.134005 -0.744279 1.062118
H 0.312859 -1.158857 1.910825
H -0.789060 -0.906640 0.859385
5
Structure 547 | Energy: -10.834444 Hartree
N -2.995987 -0.300868 2.878708
N -2.936631 0.208045 1.907997
O 0.134005 -0.744279 1.062118
H 0.312859 -1.158857 1.910825
H -0.789060 -0.906640 0.859385
5
Structure 548 | Energy: -10.834495 Hartree
N -2.760191 -0.425508 3.260177
N -2.809362 0.153569 2.329023
O 0.134005 -0.744279 1.062118
H 0.312859 -1.158857 1.910825
H -0.789060 -0.906640 0.859385
5
Structure 549 | Energy: -10.834557 Hartree
N -2.760191 -0.425508 3.260177
N -2.809362 0.153569 2.329023
O 0.136572 -0.743436 1.066155
H 0.271975 -1.246013 1.874395
H -0.788933 -0.832854 0.831735
5
Structure 550 | Energy: -10.835726 Hartree
N 0.116949 -1.066099 1.563839
N 0.067778 -0.487022 0.632686
O -2.740568 -0.102846 2.762493
H -2.605165 -0.605422 3.570733
H -3.666074 -0.192264 2.528073
5
Structure 551 | Energy: -10.835718 Hartree
N 0.182641 -0.823495 1.561041
N 0.042667 -0.347168 0.582104
O -2.740568 -0.102846 2.762493
H -2.605165 -0.605422 3.570733
H -3.666074 -0.192264 2.528073
5
Structure 552 | Energy: -10.835404 Hartree
N 0.133017 -1.131860 1.025843
N 0.092291 -0.038803 1.117303
O -2.740568 -0.102846 2.762493
H -2.605165 -0.605422 3.570733
H -3.666074 -0.192264 2.528073
5
Structure 553 | Energy: -10.834414 Hartree
N 0.133017 -1.131860 1.025843
N 0.092291 -0.038803 1.117303
O -2.844518 -0.135861 2.817259
H -2.096513 -0.621628 3.175988
H -2.524819 0.347959 2.053570
5
Structure 554 | Energy: -10.835203 Hartree
N 0.133017 -1.131860 1.025843
N 0.092291 -0.038803 1.117303
O -1.847967 0.689413 3.666441
H -1.099962 0.203645 4.025170
H -1.528268 1.173232 2.902752
5
Structure 555 | Energy: -10.835268 Hartree
N 0.133017 -1.131860 1.025843
N 0.092291 -0.038803 1.117303
O -1.767573 0.635504 3.557654
H -1.019568 0.149737 3.916383
H -1.447874 1.119323 2.793965
5
Structure 556 | Energy: -10.835331 Hartree
N 0.160376 -1.129849 1.022363
N 0.064931 -0.040813 1.120782
O -1.767573 0.635504 3.557654
H -1.019568 0.149737 3.916383
H -1.447874 1.119323 2.793965
5
Structure 557 | Energy: -10.834572 Hartree
N 0.160376 -1.129849 1.022363
N 0.064931 -0.040813 1.120782
O 1.927665 -1.408044 3.761400
H 1.280756 -2.094597 3.576139
H 1.497961 -0.566310 3.599079
5
Structure 558 | Energy: -10.834596 Hartree
N -0.768185 -0.014103 1.233632
N -0.863631 1.074933 1.332051
O 1.927665 -1.408044 3.761400
H 1.280756 -2.094597 3.576139
H 1.497961 -0.566310 3.599079
5
Structure 559 | Energy: -10.834623 Hartree
N -0.768185 -0.014103 1.233632
N -0.863631 1.074933 1.332051
O 1.837548 -1.565007 3.731606
H 1.170743 -2.224649 3.520863
H 1.437004 -0.705498 3.589064
5
Structure 560 | Energy: -10.834627 Hartree
N -0.768185 -0.014103 1.233632
N -0.863631 1.074933 1.332051
O 1.821361 -1.552000 3.716447
H 1.154556 -2.211642 3.505704
H 1.420817 -0.692491 3.573905
5
Structure 561 | Energy: -10.834638 Hartree
N -0.771702 -0.029586 1.296801
N -0.867147 1.059450 1.395220
O 1.821361 -1.552000 3.716447
H 1.154556 -2.211642 3.505704
H 1.420817 -0.692491 3.573905
5
Structure 562 | Energy: -10.834613 Hartree
N -0.126086 -2.007309 0.428663
N -0.591492 -2.996815 0.333428
O 1.821361 -1.552000 3.716447
H 1.154556 -2.211642 3.505704
H 1.420817 -0.692491 3.573905
5
Structure 563 | Energy: -10.834622 Hartree
N -0.093733 -1.992643 0.479252
N -0.559139 -2.982149 0.384016
O 1.821361 -1.552000 3.716447
H 1.154556 -2.211642 3.505704
H 1.420817 -0.692491 3.573905
5
Structure 564 | Energy: -10.834622 Hartree
N -0.093733 -1.992643 0.479252
N -0.559139 -2.982149 0.384016
O -0.745173 -0.355932 3.831563
H -0.837920 -1.283099 3.595072
H 0.157939 -0.103959 3.630549
5
Structure 565 | Energy: -10.834335 Hartree
N -0.093733 -1.992643 0.479252
N -0.559139 -2.982149 0.384016
O -0.507725 -1.057771 3.216319
H -0.600472 -1.984938 2.979827
H 0.395388 -0.805798 3.015304
5
Structure 566 | Energy: -10.834620 Hartree
N -0.093733 -1.992643 0.479252
N -0.559139 -2.982149 0.384016
O -0.020899 -0.568993 3.510074
H -0.113646 -1.496159 3.273582
H 0.882214 -0.317019 3.309059
5
Structure 567 | Energy: -10.834624 Hartree
N -0.052714 -2.013345 0.429152
N -0.518120 -3.002852 0.333917
O 0.059890 -0.527792 3.515581
H -0.032857 -1.454959 3.279089
H 0.963002 -0.275819 3.314566
5
Structure 568 | Energy: -10.834807 Hartree
N 0.337935 -0.070818 3.538718
N -0.127470 -1.060325 3.443483
O -0.330760 -2.470319 0.406014
H -0.423506 -3.397486 0.169523
H 0.572353 -2.218346 0.205000
5
Structure 569 | Energy: -10.834783 Hartree
N 0.337935 -0.070818 3.538718
N -0.127470 -1.060325 3.443483
O -0.331635 -2.472620 0.407757
H -0.395683 -3.395967 0.147958
H 0.558425 -2.183347 0.198897
5
Structure 570 | Energy: -10.834800 Hartree
N 0.545504 -0.286640 3.648246
N 0.084524 -1.274224 3.517969
O -0.331635 -2.472620 0.407757
H -0.395683 -3.395967 0.147958
H 0.558425 -2.183347 0.198897
5
Structure 571 | Energy: -10.834706 Hartree
N 0.551891 -0.296283 3.686488
N 0.078137 -1.264582 3.479728
O -0.331635 -2.472620 0.407757
H -0.395683 -3.395967 0.147958
H 0.558425 -2.183347 0.198897
5
Structure 572 | Energy: -10.834660 Hartree
N -0.048540 -2.023949 0.484914
N -0.522294 -2.992248 0.278154
O 0.268796 -0.744954 3.609331
H 0.204748 -1.668301 3.349531
H 1.158856 -0.455681 3.400470
5
Structure 573 | Energy: -10.834718 Hartree
N 0.259945 -1.965853 0.441603
N -0.211456 -2.918388 0.167276
O 0.268796 -0.744954 3.609331
H 0.204748 -1.668301 3.349531
H 1.158856 -0.455681 3.400470
5
Structure 574 | Energy: -10.834669 Hartree
N 0.213471 -1.563783 0.075831
N -0.257930 -2.516318 -0.198496
O 0.268796 -0.744954 3.609331
H 0.204748 -1.668301 3.349531
H 1.158856 -0.455681 3.400470
5
Structure 575 | Energy: -10.833872 Hartree
N -3.158392 1.765082 0.682230
N -2.919792 1.751436 -0.389967
O -1.185252 -0.183598 -1.053038
H -0.774427 0.605186 -0.693069
H -1.295808 -0.801325 -0.326678
5
Structure 576 | Energy: -10.836199 Hartree
N -1.287751 -0.167203 -0.456156
N -1.049151 -0.180850 -1.528352
O -3.055893 1.748688 0.085348
H -2.645068 2.537472 0.445317
H -3.166449 1.130961 0.811708
5
Structure 577 | Energy: -10.833872 Hartree
N -3.158392 1.765082 0.682230
N -2.919792 1.751436 -0.389967
O -1.185252 -0.183598 -1.053038
H -0.774427 0.605186 -0.693069
H -1.295808 -0.801325 -0.326678
5
Structure 578 | Energy: -10.834440 Hartree
N -3.158392 1.765082 0.682230
N -2.919792 1.751436 -0.389967
O -0.471422 -0.732020 -2.234571
H -0.060597 0.056764 -1.874602
H -0.581977 -1.349747 -1.508211
5
Structure 579 | Energy: -10.834947 Hartree
N -0.573920 -0.715625 -1.637689
N -0.335321 -0.729272 -2.709885
O -3.055893 1.748688 0.085348
H -2.645068 2.537472 0.445317
H -3.166449 1.130961 0.811708
5
Structure 580 | Energy: -10.834940 Hartree
N -0.856699 -0.840971 -1.818647
N -0.668027 -0.839643 -2.900831
O -3.055893 1.748688 0.085348
H -2.645068 2.537472 0.445317
H -3.166449 1.130961 0.811708
5
Structure 581 | Energy: -10.834582 Hartree
N -0.361117 -0.923892 -2.899648
N -0.172446 -0.922564 -3.981832
O -3.055893 1.748688 0.085348
H -2.645068 2.537472 0.445317
H -3.166449 1.130961 0.811708
5
Structure 582 | Energy: -10.834592 Hartree
N -0.304385 -0.939423 -2.827853
N -0.115714 -0.938094 -3.910037
O -3.055893 1.748688 0.085348
H -2.645068 2.537472 0.445317
H -3.166449 1.130961 0.811708
5
Structure 583 | Energy: -10.834597 Hartree
N -0.292478 -0.938816 -2.825911
N -0.127621 -0.938701 -3.911979
O -3.055893 1.748688 0.085348
H -2.645068 2.537472 0.445317
H -3.166449 1.130961 0.811708
5
Structure 584 | Energy: -10.834597 Hartree
N -0.292478 -0.938816 -2.825911
N -0.127621 -0.938701 -3.911979
O 1.482637 1.748614 0.774263
H 0.983523 2.537413 0.996110
H 1.372648 1.130887 1.500709
5
Structure 585 | Energy: -10.834667 Hartree
N -0.292478 -0.938816 -2.825911
N -0.127621 -0.938701 -3.911979
O 1.482680 1.748613 0.774291
H 1.524849 2.516560 1.347887
H 0.830638 1.151766 1.148488
5
Structure 586 | Energy: -10.834667 Hartree
N -0.292478 -0.938816 -2.825911
N -0.127621 -0.938701 -3.911979
O 1.482821 1.748354 0.774429
H 1.528460 2.515975 1.348198
H 0.824791 1.156449 1.145983
5
Structure 587 | Energy: -10.834667 Hartree
N -0.299308 -0.914314 -2.832850
N -0.134451 -0.914199 -3.918918
O 1.482821 1.748354 0.774429
H 1.528460 2.515975 1.348198
H 0.824791 1.156449 1.145983
5
Structure 588 | Energy: -10.834663 Hartree
N -0.305737 -0.924631 -2.849076
N -0.140880 -0.924515 -3.935144
O 1.482821 1.748354 0.774429
H 1.528460 2.515975 1.348198
H 0.824791 1.156449 1.145983
5
Structure 589 | Energy: -10.834675 Hartree
N -0.287141 -0.894790 -2.802143
N -0.122284 -0.894674 -3.888210
O 1.482821 1.748354 0.774429
H 1.528460 2.515975 1.348198
H 0.824791 1.156449 1.145983
5
Structure 590 | Energy: -10.834556 Hartree
N 1.366127 1.758128 1.370357
N 1.530984 1.758244 0.284289
O -0.170447 -0.904564 -3.398070
H -0.124809 -0.136943 -2.824302
H -0.828477 -1.496470 -3.026517
5
Structure 591 | Energy: -10.834527 Hartree
N 1.229797 1.824465 2.521372
N 1.394654 1.824581 1.435304
O -0.170447 -0.904564 -3.398070
H -0.124809 -0.136943 -2.824302
H -0.828477 -1.496470 -3.026517
5
Structure 592 | Energy: -10.834529 Hartree
N 1.314278 1.015229 2.949086
N 1.479135 1.015345 1.863018
O -0.170447 -0.904564 -3.398070
H -0.124809 -0.136943 -2.824302
H -0.828477 -1.496470 -3.026517
5
Structure 593 | Energy: -10.834490 Hartree
N 1.927338 1.107988 3.256202
N 2.092195 1.108104 2.170134
O -0.170447 -0.904564 -3.398070
H -0.124809 -0.136943 -2.824302
H -0.828477 -1.496470 -3.026517
5
Structure 594 | Energy: -10.834421 Hartree
N 1.927338 1.107988 3.256202
N 2.092195 1.108104 2.170134
O -0.157942 -0.855839 -3.364368
H -0.181014 -1.359413 -2.548026
H -0.970757 -1.047373 -3.837712
5
Structure 595 | Energy: -10.834420 Hartree
N 1.927338 1.107988 3.256202
N 2.092195 1.108104 2.170134
O -0.082188 -0.835853 -3.332412
H -0.105260 -1.339427 -2.516069
H -0.895003 -1.027387 -3.805755
5
Structure 596 | Energy: -10.834411 Hartree
N 1.927338 1.107988 3.256202
N 2.092195 1.108104 2.170134
O -0.112205 -0.813353 -3.317542
H -0.873774 -1.164509 -2.851456
H 0.349946 -1.559428 -3.706382
5
Structure 597 | Energy: -10.834410 Hartree
N 1.927338 1.107988 3.256202
N 2.092195 1.108104 2.170134
O -0.128508 -0.874051 -3.270917
H -0.890077 -1.225207 -2.804831
H 0.333644 -1.620126 -3.659757
5
Structure 598 | Energy: -10.834413 Hartree
N 1.927338 1.107988 3.256202
N 2.092195 1.108104 2.170134
O -0.093999 -0.939887 -3.228898
H -0.173430 -0.405389 -4.021702
H -0.930720 -1.394997 -3.109813
5
Structure 599 | Energy: -10.834412 Hartree
N 1.927338 1.107988 3.256202
N 2.092195 1.108104 2.170134
O -0.093341 -0.938430 -3.229664
H -0.191358 -0.424849 -4.034127
H -0.923243 -1.398662 -3.085241
5
Structure 600 | Energy: -10.834546 Hartree
N -0.227690 -0.935503 -2.723561
N -0.062833 -0.935387 -3.809629
O 2.061687 1.105061 2.750100
H 1.963669 1.618642 1.945636
H 1.231785 0.644829 2.894522
5
Structure 601 | Energy: -10.834545 Hartree
N -0.227690 -0.935503 -2.723561
N -0.062833 -0.935387 -3.809629
O 2.062751 1.104787 2.748531
H 1.946000 1.612516 1.942855
H 1.232559 0.655309 2.922196
5
Structure 602 | Energy: -10.834411 Hartree
N 1.927338 1.107988 3.256202
N 2.092195 1.108104 2.170134
O -0.092276 -0.938704 -3.231232
H -0.209028 -0.430975 -4.036908
H -0.922468 -1.388182 -3.057567
5
Structure 603 | Energy: -10.834409 Hartree
N 1.927338 1.107988 3.256202
N 2.092195 1.108104 2.170134
O -0.108206 -0.914433 -3.219119
H -0.082523 -0.623729 -4.133103
H -0.796143 -1.580663 -3.153625
5
Structure 604 | Energy: -10.834407 Hartree
N 1.927338 1.107988 3.256202
N 2.092195 1.108104 2.170134
O 0.266039 -1.263810 -3.211524
H 0.323728 -1.012763 -4.135744
H -0.396077 -1.955834 -3.147387
5
Structure 605 | Energy: -10.834407 Hartree
N 1.936281 1.084210 3.262568
N 2.131273 1.049707 2.182055
O 0.266039 -1.263810 -3.211524
H 0.323728 -1.012763 -4.135744
H -0.396077 -1.955834 -3.147387
5
Structure 606 | Energy: -10.834406 Hartree
N 1.917682 1.087013 3.254028
N 2.112675 1.052510 2.173515
O 0.266039 -1.263810 -3.211524
H 0.323728 -1.012763 -4.135744
H -0.396077 -1.955834 -3.147387
5
Structure 607 | Energy: -10.834561 Hartree
N 0.134723 -1.271233 -2.719392
N 0.329716 -1.305736 -3.799905
O 2.048998 1.094435 2.761896
H 2.106687 1.345483 1.837676
H 1.386882 0.402412 2.826034
5
Structure 608 | Energy: -10.834555 Hartree
N 0.134723 -1.271233 -2.719392
N 0.329716 -1.305736 -3.799905
O 2.081396 1.103183 2.883084
H 2.139085 1.354231 1.958864
H 1.419280 0.411160 2.947221
5
Structure 609 | Energy: -10.834581 Hartree
N 0.134723 -1.271233 -2.719392
N 0.329716 -1.305736 -3.799905
O 2.062197 0.596642 2.738464
H 2.119886 0.847689 1.814245
H 1.400081 -0.095382 2.802602
5
Structure 610 | Energy: -10.834580 Hartree
N 0.134723 -1.271233 -2.719392
N 0.329716 -1.305736 -3.799905
O 2.061267 0.597537 2.738641
H 2.127270 0.840581 1.812840
H 1.407454 -0.102480 2.801199
5
Structure 611 | Energy: -10.834581 Hartree
N 0.137650 -1.272574 -2.718831
N 0.326789 -1.304394 -3.800466
O 2.061267 0.597537 2.738641
H 2.127270 0.840581 1.812840
H 1.407454 -0.102480 2.801199
5
Structure 612 | Energy: -10.834392 Hartree
N 1.933808 0.587877 3.231157
N 2.122947 0.556058 2.149522
O 0.265109 -1.262915 -3.211347
H 0.331112 -1.019871 -4.137148
H -0.388704 -1.962932 -3.148789
5
Structure 613 | Energy: -10.834395 Hartree
N 3.450199 -0.347745 2.848241
N 3.171042 -0.018541 1.838084
O 0.265109 -1.262915 -3.211347
H 0.331112 -1.019871 -4.137148
H -0.388704 -1.962932 -3.148789
5
Structure 614 | Energy: -10.834392 Hartree
N 3.450199 -0.347745 2.848241
N 3.171042 -0.018541 1.838084
O 0.312251 -1.188856 -3.250758
H 0.391355 -0.940768 -4.174192
H -0.350958 -1.880930 -3.199810
5
Structure 615 | Energy: -10.834392 Hartree
N 3.395075 -0.349053 2.876542
N 3.125650 -0.019984 1.863702
O 0.312251 -1.188856 -3.250758
H 0.391355 -0.940768 -4.174192
H -0.350958 -1.880930 -3.199810
5
Structure 616 | Energy: -10.834582 Hartree
N 0.414281 -1.378233 -2.793156
N 0.144856 -1.049164 -3.805996
O 3.293045 -0.159676 2.418940
H 3.372149 0.088412 1.495507
H 2.629836 -0.851750 2.469889
5
Structure 617 | Energy: -10.834392 Hartree
N 3.395075 -0.349053 2.876542
N 3.125650 -0.019984 1.863702
O 0.312251 -1.188856 -3.250758
H 0.391355 -0.940768 -4.174192
H -0.350958 -1.880930 -3.199810
5
Structure 618 | Energy: -10.834396 Hartree
N 3.395075 -0.349053 2.876542
N 3.125650 -0.019984 1.863702
O 0.311572 -1.342083 -3.220855
H 0.388708 -1.116791 -4.150279
H -0.348482 -2.035616 -3.151949
5
Structure 619 | Energy: -10.834555 Hartree
N 3.197580 -0.730172 2.369186
N 3.323146 0.361135 2.371057
O 0.311572 -1.342083 -3.220855
H 0.388708 -1.116791 -4.150279
H -0.348482 -2.035616 -3.151949
5
Structure 620 | Energy: -10.834555 Hartree
N 3.197580 -0.730172 2.369186
N 3.323146 0.361135 2.371057
O 0.311393 -1.342265 -3.220636
H 0.393517 -1.114955 -4.149140
H -0.350442 -2.034565 -3.156570
5
Structure 621 | Energy: -10.834554 Hartree
N 3.197580 -0.730172 2.369186
N 3.323146 0.361135 2.371057
O -0.014379 -1.409979 -3.021324
H 0.021432 -1.206868 -3.958339
H -0.686039 -2.085641 -2.904017
5
Structure 622 | Energy: -10.834419 Hartree
N -0.112740 -1.982073 -3.068125
N 0.012826 -0.890766 -3.066254
O 3.295941 -0.158077 2.415987
H 3.331752 0.045033 1.478972
H 2.624280 -0.833740 2.533294
5
Structure 623 | Energy: -10.834554 Hartree
N 3.197580 -0.730172 2.369186
N 3.323146 0.361135 2.371057
O -0.014379 -1.409979 -3.021324
H 0.021432 -1.206868 -3.958339
H -0.686039 -2.085641 -2.904017
5
Structure 624 | Energy: -10.834419 Hartree
N -0.112740 -1.982073 -3.068125
N 0.012826 -0.890766 -3.066254
O 3.295941 -0.158077 2.415987
H 3.331752 0.045033 1.478972
H 2.624280 -0.833740 2.533294
5
Structure 625 | Energy: -10.834422 Hartree
N 0.878054 -2.241072 -3.101447
N 1.003620 -1.149765 -3.099576
O 3.295941 -0.158077 2.415987
H 3.331752 0.045033 1.478972
H 2.624280 -0.833740 2.533294
5
Structure 626 | Energy: -10.834415 Hartree
N 0.878054 -2.241072 -3.101447
N 1.003620 -1.149765 -3.099576
O 3.188177 -0.543570 2.553195
H 3.235656 -0.270692 1.634599
H 2.524364 -1.234705 2.608816
5
Structure 627 | Energy: -10.834416 Hartree
N 0.933835 -2.298707 -2.991432
N 1.059402 -1.207400 -2.989561
O 3.188177 -0.543570 2.553195
H 3.235656 -0.270692 1.634599
H 2.524364 -1.234705 2.608816
5
Structure 628 | Energy: -10.834406 Hartree
N 0.933835 -2.298707 -2.991432
N 1.059402 -1.207400 -2.989561
O 3.188105 -0.543567 2.553245
H 2.331924 -0.226968 2.257856
H 3.429236 -1.278484 1.984772
5
Structure 629 | Energy: -10.834405 Hartree
N 0.933835 -2.298707 -2.991432
N 1.059402 -1.207400 -2.989561
O 3.170150 -0.553440 2.507501
H 2.313969 -0.236841 2.212112
H 3.411280 -1.288357 1.939029
5
Structure 630 | Energy: -10.834407 Hartree
N 0.900280 -2.299224 -3.123939
N 1.025847 -1.207917 -3.122068
O 3.170150 -0.553440 2.507501
H 2.313969 -0.236841 2.212112
H 3.411280 -1.288357 1.939029
5
Structure 631 | Energy: -10.834415 Hartree
N 0.900280 -2.299224 -3.123939
N 1.025847 -1.207917 -3.122068
O 2.907665 -0.001245 2.459290
H 2.074662 0.296318 2.087676
H 3.161201 -0.795983 1.984400
5
Structure 632 | Energy: -10.834423 Hartree
N 1.415480 -2.756232 -2.991700
N 1.541047 -1.664925 -2.989829
O 2.907665 -0.001245 2.459290
H 2.074662 0.296318 2.087676
H 3.161201 -0.795983 1.984400
5
Structure 633 | Energy: -10.834419 Hartree
N 1.393422 -2.753155 -2.981120
N 1.563105 -1.668002 -3.000409
O 2.907665 -0.001245 2.459290
H 2.074662 0.296318 2.087676
H 3.161201 -0.795983 1.984400
5
Structure 634 | Energy: -10.834422 Hartree
N 1.433071 -2.836397 -3.045609
N 1.602753 -1.751244 -3.064898
O 2.907665 -0.001245 2.459290
H 2.074662 0.296318 2.087676
H 3.161201 -0.795983 1.984400
5
Structure 635 | Energy: -10.834422 Hartree
N 1.384105 -2.926035 -2.985271
N 1.571209 -1.844393 -3.027266
O 2.907665 -0.001245 2.459290
H 2.074662 0.296318 2.087676
H 3.161201 -0.795983 1.984400
5
Structure 636 | Energy: -10.834407 Hartree
N 1.384105 -2.926035 -2.985271
N 1.571209 -1.844393 -3.027266
O 3.089946 -0.570009 2.362143
H 2.256943 -0.272445 1.990529
H 3.343483 -1.364746 1.887253
5
Structure 637 | Energy: -10.834405 Hartree
N 1.468521 -2.482776 -3.183716
N 1.688513 -1.407349 -3.141501
O 3.089946 -0.570009 2.362143
H 2.256943 -0.272445 1.990529
H 3.343483 -1.364746 1.887253
5
Structure 638 | Energy: -10.834405 Hartree
N 1.442684 -2.509713 -3.166863
N 1.656621 -1.432885 -3.129544
O 3.089946 -0.570009 2.362143
H 2.256943 -0.272445 1.990529
H 3.343483 -1.364746 1.887253
5
Structure 639 | Energy: -10.834405 Hartree
N 1.442684 -2.509713 -3.166863
N 1.656621 -1.432885 -3.129544
O 2.416502 -0.883024 2.760216
H 1.583500 -0.585461 2.388601
H 2.670039 -1.677761 2.285326
5
Structure 640 | Energy: -10.834405 Hartree
N 1.442684 -2.509713 -3.166863
N 1.656621 -1.432885 -3.129544
O 2.411365 -0.889553 2.724130
H 1.578362 -0.591990 2.352516
H 2.664901 -1.684290 2.249240
5
Structure 641 | Energy: -10.834573 Hartree
N 1.442684 -2.509713 -3.166863
N 1.656621 -1.432885 -3.129544
O 2.365382 -0.910260 2.614845
H 1.761525 -1.204049 3.300105
H 3.211585 -0.743565 3.036225
5
Structure 642 | Energy: -10.834428 Hartree
N 2.271973 -1.455786 2.658106
N 2.485910 -0.378958 2.695425
O 1.536092 -1.964188 -3.210124
H 0.932236 -2.257976 -2.524864
H 2.382296 -1.797492 -2.788744
5
Structure 643 | Energy: -10.834431 Hartree
N 1.670415 -1.428139 2.370429
N 1.884352 -0.351311 2.407748
O 1.536092 -1.964188 -3.210124
H 0.932236 -2.257976 -2.524864
H 2.382296 -1.797492 -2.788744
5
Structure 644 | Energy: -10.834431 Hartree
N 1.671121 -1.428272 2.370230
N 1.883646 -0.351178 2.407947
O 1.536092 -1.964188 -3.210124
H 0.932236 -2.257976 -2.524864
H 2.382296 -1.797492 -2.788744
5
Structure 645 | Energy: -10.834434 Hartree
N 1.671121 -1.428272 2.370230
N 1.883646 -0.351178 2.407947
O 1.536175 -1.964113 -3.210133
H 1.973976 -1.324606 -2.644540
H 1.339241 -2.732040 -2.668918
5
Structure 646 | Energy: -10.834434 Hartree
N 1.671121 -1.428272 2.370230
N 1.883646 -0.351178 2.407947
O 1.535063 -1.964788 -3.209955
H 1.941074 -1.301855 -2.647630
H 1.389793 -2.744076 -2.668646
5
Structure 647 | Energy: -10.834611 Hartree
N 1.443390 -2.509846 -3.167062
N 1.655915 -1.432752 -3.129345
O 1.762794 -0.883215 2.327336
H 2.168805 -0.220281 2.889661
H 1.617524 -1.662502 2.868646
5
Structure 648 | Energy: -10.834599 Hartree
N 1.443390 -2.509846 -3.167062
N 1.655915 -1.432752 -3.129345
O 2.224999 -0.814633 2.316492
H 2.631010 -0.151699 2.878817
H 2.079730 -1.593920 2.857802
5
Structure 649 | Energy: -10.834600 Hartree
N 1.443390 -2.509846 -3.167062
N 1.655915 -1.432752 -3.129345
O 2.224320 -0.814879 2.316631
H 2.625047 -0.145475 2.875068
H 2.096479 -1.596241 2.859345
5
Structure 650 | Energy: -10.834600 Hartree
N 1.320384 -2.448652 -3.166334
N 1.470453 -1.361703 -3.113978
O 2.224320 -0.814879 2.316631
H 2.625047 -0.145475 2.875068
H 2.096479 -1.596241 2.859345
5
Structure 651 | Energy: -10.834571 Hartree
N 1.320384 -2.448652 -3.166334
N 1.470453 -1.361703 -3.113978
O 1.987572 -0.978944 2.797814
H 2.388300 -0.309541 3.356250
H 1.859732 -1.760306 3.340528
5
Structure 652 | Energy: -10.834588 Hartree
N 1.320384 -2.448652 -3.166334
N 1.470453 -1.361703 -3.113978
O 2.281448 -0.851764 2.457321
H 2.682175 -0.182360 3.015757
H 2.153607 -1.633126 3.000035
5
Structure 653 | Energy: -10.834587 Hartree
N 1.320384 -2.448652 -3.166334
N 1.470453 -1.361703 -3.113978
O 2.284386 -0.850867 2.456763
H 2.659196 -0.190206 3.042919
H 2.129945 -1.639517 2.981728
5
Structure 654 | Energy: -10.834576 Hartree
N 1.320384 -2.448652 -3.166334
N 1.470453 -1.361703 -3.113978
O 1.957926 -0.344081 2.208552
H 2.332735 0.316581 2.794708
H 1.803484 -1.132730 2.733516
5
Structure 655 | Energy: -10.834591 Hartree
N 1.320384 -2.448652 -3.166334
N 1.470453 -1.361703 -3.113978
O 1.889981 -0.700219 2.306457
H 2.254059 -0.077823 2.939391
H 1.735161 -1.522961 2.776068
5
Structure 656 | Energy: -10.834438 Hartree
N 1.826655 -1.254904 2.341970
N 1.976724 -0.167954 2.394326
O 1.383710 -1.893968 -3.201847
H 1.747788 -1.271572 -2.568913
H 1.228890 -2.716710 -2.732236
5
Structure 657 | Energy: -10.834439 Hartree
N 1.609766 -1.316436 2.361659
N 1.804261 -0.237511 2.431028
O 1.383710 -1.893968 -3.201847
H 1.747788 -1.271572 -2.568913
H 1.228890 -2.716710 -2.732236
5
Structure 658 | Energy: -10.834443 Hartree
N 1.182636 -0.955892 2.311092
N 1.373423 0.125840 2.324351
O 1.383710 -1.893968 -3.201847
H 1.747788 -1.271572 -2.568913
H 1.228890 -2.716710 -2.732236
5
Structure 659 | Energy: -10.834587 Hartree
N 1.300025 -2.446044 -3.146785
N 1.490812 -1.364311 -3.133527
O 1.266321 -0.403816 2.256031
H 1.630399 0.218580 2.888965
H 1.111501 -1.226558 2.725642
5
Structure 660 | Energy: -10.834589 Hartree
N 1.300025 -2.446044 -3.146785
N 1.490812 -1.364311 -3.133527
O 1.267859 -0.405190 2.255525
H 1.598329 0.236931 2.887194
H 1.119149 -1.223105 2.735430
5
Structure 661 | Energy: -10.834585 Hartree
N 1.689443 -2.570995 -3.083101
N 1.783151 -1.476539 -3.093431
O 1.267859 -0.405190 2.255525
H 1.598329 0.236931 2.887194
H 1.119149 -1.223105 2.735430
5
Structure 662 | Energy: -10.834735 Hartree
N 1.954278 -2.320487 -2.231215
N 2.047985 -1.226031 -2.241545
O 1.267859 -0.405190 2.255525
H 1.598329 0.236931 2.887194
H 1.119149 -1.223105 2.735430
5
Structure 663 | Energy: -10.834735 Hartree
N 3.218254 1.531997 -1.832646
N 2.652381 0.616111 -2.050961
O 1.267859 -0.405190 2.255525
H 1.598329 0.236931 2.887194
H 1.119149 -1.223105 2.735430
5
Structure 664 | Energy: -10.834717 Hartree
N 3.218254 1.531997 -1.832646
N 2.652381 0.616111 -2.050961
O 1.267790 -0.405282 2.255522
H 0.723880 -0.929460 2.847075
H 1.994702 -0.055242 2.775599
5
Structure 665 | Energy: -10.834738 Hartree
N 3.218254 1.531997 -1.832646
N 2.652381 0.616111 -2.050961
O 1.294755 -0.381054 2.186218
H 0.750845 -0.905232 2.777771
H 2.021666 -0.031014 2.706294
5
Structure 666 | Energy: -10.834742 Hartree
N 3.214905 1.532691 -1.827070
N 2.655730 0.615418 -2.056537
O 1.294755 -0.381054 2.186218
H 0.750845 -0.905232 2.777771
H 2.021666 -0.031014 2.706294
5
Structure 667 | Energy: -10.834764 Hartree
N 3.214905 1.532691 -1.827070
N 2.655730 0.615418 -2.056537
O 1.319926 -0.358438 2.121524
H 0.776016 -0.882616 2.713077
H 2.046837 -0.008398 2.641600
5
Structure 668 | Energy: -10.834788 Hartree
N 3.214905 1.532691 -1.827070
N 2.655730 0.615418 -2.056537
O 1.319972 -0.358343 2.121531
H 1.360328 0.313413 2.805381
H 1.461788 -1.205936 2.549180
5
Structure 669 | Energy: -10.834519 Hartree
N 1.609753 0.090455 2.298457
N 1.050578 -0.826818 2.068990
O 2.925124 1.083893 -2.003995
H 2.965480 1.755649 -1.320146
H 3.066940 0.236300 -1.576347
5
Structure 670 | Energy: -10.834519 Hartree
N 1.586194 0.442873 2.357717
N 0.908113 1.304314 2.427344
O 2.925124 1.083893 -2.003995
H 2.965480 1.755649 -1.320146
H 3.066940 0.236300 -1.576347
5
Structure 671 | Energy: -10.834654 Hartree
N 1.337523 0.716138 2.910913
N 1.156784 1.031049 1.874147
O 2.925124 1.083893 -2.003995
H 2.965480 1.755649 -1.320146
H 3.066940 0.236300 -1.576347
5
Structure 672 | Energy: -10.834665 Hartree
N 1.337523 0.716138 2.910913
N 1.156784 1.031049 1.874147
O 2.799131 1.495158 -2.273884
H 2.839487 2.166914 -1.590035
H 2.940947 0.647566 -1.846235
5
Structure 673 | Energy: -10.834442 Hartree
N 2.899694 1.327864 -1.693309
N 2.718954 1.642775 -2.730075
O 1.236960 0.883432 2.330338
H 1.277316 1.555188 3.014188
H 1.378776 0.035840 2.757987
5
Structure 674 | Energy: -10.834444 Hartree
N 2.899694 1.327864 -1.693309
N 2.718954 1.642775 -2.730075
O 1.252039 0.889337 2.285898
H 1.292395 1.561093 2.969747
H 1.393854 0.041744 2.713547
5
Structure 675 | Energy: -10.834510 Hartree
N 2.899694 1.327864 -1.693309
N 2.718954 1.642775 -2.730075
O 1.252102 0.889264 2.285876
H 2.086217 0.653073 2.696972
H 0.599030 0.950909 2.986666
5
Structure 676 | Energy: -10.834515 Hartree
N 2.917445 1.342705 -1.704700
N 2.736705 1.657616 -2.741467
O 1.213112 0.932679 2.314505
H 2.047228 0.696487 2.725601
H 0.560041 0.994324 3.015295
5
Structure 677 | Energy: -10.834509 Hartree
N 2.915192 1.356335 -1.700370
N 2.738958 1.643985 -2.745798
O 1.213112 0.932679 2.314505
H 2.047228 0.696487 2.725601
H 0.560041 0.994324 3.015295
5
Structure 678 | Energy: -10.834873 Hartree
N 1.311360 0.779087 2.899433
N 1.135125 1.066737 1.854005
O 2.816945 1.509927 -2.285297
H 3.651060 1.273735 -1.874201
H 2.163874 1.571572 -1.584508
5
Structure 679 | Energy: -10.834870 Hartree
N 1.311360 0.779087 2.899433
N 1.135125 1.066737 1.854005
O 2.868731 1.415966 -2.252633
H 3.702847 1.179774 -1.841537
H 2.215660 1.477611 -1.551843
5
Structure 680 | Energy: -10.834868 Hartree
N 1.446875 1.238186 2.974667
N 1.245732 1.440439 1.913839
O 2.868731 1.415966 -2.252633
H 3.702847 1.179774 -1.841537
H 2.215660 1.477611 -1.551843
5
Structure 681 | Energy: -10.834877 Hartree
N 1.446875 1.238186 2.974667
N 1.245732 1.440439 1.913839
O 2.861556 1.415653 -2.230933
H 3.695671 1.179461 -1.819837
H 2.208485 1.477298 -1.530143
5
Structure 682 | Energy: -10.834873 Hartree
N 1.450234 1.239801 2.974324
N 1.242373 1.438824 1.914181
O 2.861556 1.415653 -2.230933
H 3.695671 1.179461 -1.819837
H 2.208485 1.477298 -1.530143
5
Structure 683 | Energy: -10.834808 Hartree
N 1.450234 1.239801 2.974324
N 1.242373 1.438824 1.914181
O 3.260598 1.291441 -2.082597
H 4.027605 0.968036 -1.605477
H 2.558966 1.415064 -1.439293
5
Structure 684 | Energy: -10.834786 Hartree
N 1.450234 1.239801 2.974324
N 1.242373 1.438824 1.914181
O 3.409116 1.305626 -2.017008
H 4.121984 0.884008 -1.532660
H 2.700553 1.470303 -1.390727
5
Structure 685 | Energy: -10.834773 Hartree
N 1.433303 1.240196 3.010427
N 1.225441 1.439219 1.950284
O 3.409116 1.305626 -2.017008
H 4.121984 0.884008 -1.532660
H 2.700553 1.470303 -1.390727
5
Structure 686 | Energy: -10.834773 Hartree
N 1.272857 0.871694 2.925798
N 1.159590 1.287976 1.915550
O 3.409116 1.305626 -2.017008
H 4.121984 0.884008 -1.532660
H 2.700553 1.470303 -1.390727
5
Structure 687 | Energy: -10.834772 Hartree
N 1.282072 0.888294 2.931218
N 1.150375 1.271377 1.910129
O 3.409116 1.305626 -2.017008
H 4.121984 0.884008 -1.532660
H 2.700553 1.470303 -1.390727
5
Structure 688 | Energy: -10.834772 Hartree
N 1.282072 0.888294 2.931218
N 1.150375 1.271377 1.910129
O -1.921564 1.079509 -1.414305
H -2.470736 0.604358 -0.787267
H -1.107556 1.308771 -0.960171
5
Structure 689 | Energy: -10.834602 Hartree
N -1.840897 0.874209 -0.843265
N -1.972594 1.257293 -1.864355
O 1.201405 1.093594 2.360178
H 0.652233 0.618442 2.987216
H 2.015413 1.322855 2.814313
5
Structure 690 | Energy: -10.834605 Hartree
N -1.840897 0.874209 -0.843265
N -1.972594 1.257293 -1.864355
O 1.218357 1.099280 2.345879
H 0.670661 0.628250 2.977303
H 2.035091 1.327959 2.795390
5
Structure 691 | Energy: -10.834605 Hartree
N -1.765577 0.711262 -0.898489
N -1.895883 1.082071 -1.924277
O 1.218357 1.099280 2.345879
H 0.670661 0.628250 2.977303
H 2.035091 1.327959 2.795390
5
Structure 692 | Energy: -10.834622 Hartree
N -1.765577 0.711262 -0.898489
N -1.895883 1.082071 -1.924277
O 1.157782 1.095543 2.270406
H 0.610086 0.624513 2.901830
H 1.974516 1.324222 2.719917
5
Structure 693 | Energy: -10.834477 Hartree
N -1.538396 1.056776 -1.406303
N -1.668702 1.427584 -2.432092
O 1.157782 1.095543 2.270406
H 0.610086 0.624513 2.901830
H 1.974516 1.324222 2.719917
5
Structure 694 | Energy: -10.834423 Hartree
N -1.538396 1.056776 -1.406303
N -1.668702 1.427584 -2.432092
O 0.636277 1.080285 2.570368
H 0.035428 0.572458 3.119574
H 1.383240 1.325952 3.120915
5
Structure 695 | Energy: -10.834422 Hartree
N -1.538396 1.056776 -1.406303
N -1.668702 1.427584 -2.432092
O 0.655094 1.061464 2.578105
H 0.054245 0.553638 3.127312
H 1.402057 1.307132 3.128652
5
Structure 696 | Energy: -10.834413 Hartree
N -1.371851 1.281366 -0.903777
N -1.502157 1.652174 -1.929565
O 0.655094 1.061464 2.578105
H 0.054245 0.553638 3.127312
H 1.402057 1.307132 3.128652
5
Structure 697 | Energy: -10.834548 Hartree
N -1.533166 1.134269 -0.507288
N -1.663472 1.505077 -1.533077
O 0.655094 1.061464 2.578105
H 0.054245 0.553638 3.127312
H 1.402057 1.307132 3.128652
5
Structure 698 | Energy: -10.835224 Hartree
N 0.728423 0.861391 3.152535
N 0.598117 1.232200 2.126746
O -1.606495 1.334342 -1.081717
H -2.207344 0.826515 -0.532511
H -0.859532 1.580009 -0.531171
5
Structure 699 | Energy: -10.834548 Hartree
N -1.533166 1.134269 -0.507288
N -1.663472 1.505077 -1.533077
O 0.655094 1.061464 2.578105
H 0.054245 0.553638 3.127312
H 1.402057 1.307132 3.128652
5
Structure 700 | Energy: -10.834526 Hartree
N -1.533166 1.134269 -0.507288
N -1.663472 1.505077 -1.533077
O 0.621931 1.060208 2.634804
H 0.021082 0.552382 3.184011
H 1.368894 1.305876 3.185351
5
Structure 701 | Energy: -10.834532 Hartree
N -1.533166 1.134269 -0.507288
N -1.663472 1.505077 -1.533077
O 0.589744 1.064168 2.581123
H -0.011105 0.556342 3.130330
H 1.336707 1.309836 3.131670
5
Structure 702 | Energy: -10.834566 Hartree
N -1.656020 0.977256 -0.420904
N -1.835479 1.309925 -1.452333
O 0.589744 1.064168 2.581123
H -0.011105 0.556342 3.130330
H 1.336707 1.309836 3.131670
5
Structure 703 | Energy: -10.834570 Hartree
N -1.656020 0.977256 -0.420904
N -1.835479 1.309925 -1.452333
O 0.605165 1.060204 2.570744
H 0.009424 0.546534 3.120081
H 1.353137 1.307314 3.119272
5
Structure 704 | Energy: -10.834583 Hartree
N -1.661191 0.973127 -0.421379
N -1.830307 1.314054 -1.451859
O 0.605165 1.060204 2.570744
H 0.009424 0.546534 3.120081
H 1.353137 1.307314 3.119272
5
Structure 705 | Energy: -10.835244 Hartree
N 0.698241 0.874826 3.147414
N 0.529125 1.215753 2.116933
O -1.754267 1.158506 -0.998048
H -2.350008 0.644835 -0.448711
H -1.006295 1.405616 -0.449521
5
Structure 706 | Energy: -10.834583 Hartree
N -1.661191 0.973127 -0.421379
N -1.830307 1.314054 -1.451859
O 0.605165 1.060204 2.570744
H 0.009424 0.546534 3.120081
H 1.353137 1.307314 3.119272
5
Structure 707 | Energy: -10.834593 Hartree
N -1.628093 0.971748 -0.371315
N -1.797209 1.312675 -1.401795
O 0.605165 1.060204 2.570744
H 0.009424 0.546534 3.120081
H 1.353137 1.307314 3.119272
5
Structure 708 | Energy: -10.834584 Hartree
N -1.639587 1.073976 -0.363467
N -1.818152 1.458571 -1.376839
O 0.605165 1.060204 2.570744
H 0.009424 0.546534 3.120081
H 1.353137 1.307314 3.119272
5
Structure 709 | Energy: -10.835294 Hartree
N 0.702965 0.852992 3.138859
N 0.524400 1.237587 2.125488
O -1.737387 1.281188 -0.931582
H -2.333128 0.767518 -0.382245
H -0.989415 1.528298 -0.383055
5
Structure 710 | Energy: -10.835294 Hartree
N 0.304070 1.557773 3.365291
N 0.252799 1.717461 2.279661
O -1.737387 1.281188 -0.931582
H -2.333128 0.767518 -0.382245
H -0.989415 1.528298 -0.383055
5
Structure 711 | Energy: -10.835302 Hartree
N 0.290211 1.535944 3.374083
N 0.238940 1.695631 2.288453
O -1.737387 1.281188 -0.931582
H -2.333128 0.767518 -0.382245
H -0.989415 1.528298 -0.383055
5
Structure 712 | Energy: -10.835324 Hartree
N 0.290211 1.535944 3.374083
N 0.238940 1.695631 2.288453
O -1.658861 1.292052 -0.973261
H -2.264443 0.774617 -0.438410
H -0.922938 1.538699 -0.408468
5
Structure 713 | Energy: -10.834549 Hartree
N -1.625932 1.197057 -0.368917
N -1.677203 1.356745 -1.454547
O 0.257283 1.630939 2.769739
H -0.348300 1.113504 3.304590
H 0.993205 1.877586 3.334532
5
Structure 714 | Energy: -10.834933 Hartree
N -1.625932 1.197057 -0.368917
N -1.677203 1.356745 -1.454547
O 0.293449 1.671399 2.819340
H 0.643325 0.797067 2.635857
H -0.572447 1.551843 3.215999
5
Structure 715 | Energy: -10.834667 Hartree
N -1.625932 1.197057 -0.368917
N -1.677203 1.356745 -1.454547
O 0.557192 1.003740 3.274935
H 0.907068 0.129409 3.091452
H -0.308704 0.884184 3.671594
5
Structure 716 | Energy: -10.834411 Hartree
N 0.553954 0.868285 3.829678
N 0.502684 1.027973 2.744048
O -1.622695 1.332512 -0.923660
H -1.272819 0.458181 -1.107143
H -2.488591 1.212956 -0.527001
5
Structure 717 | Energy: -10.834415 Hartree
N 0.604978 0.843708 3.784643
N 0.553707 1.003396 2.699013
O -1.622695 1.332512 -0.923660
H -1.272819 0.458181 -1.107143
H -2.488591 1.212956 -0.527001
5
Structure 718 | Energy: -10.834432 Hartree
N 0.604978 0.843708 3.784643
N 0.553707 1.003396 2.699013
O -1.681907 1.544485 -0.865324
H -1.359402 0.668422 -1.086774
H -2.543815 1.433695 -0.457588
5
Structure 719 | Energy: -10.834667 Hartree
N -1.686454 1.409423 -0.312086
N -1.737724 1.569111 -1.397716
O 0.609524 0.978770 3.231405
H 0.932029 0.102707 3.009955
H -0.252384 0.867980 3.639141
5
Structure 720 | Energy: -10.834681 Hartree
N -1.799158 1.374828 -0.242321
N -1.885516 1.537675 -1.325254
O 0.609524 0.978770 3.231405
H 0.932029 0.102707 3.009955
H -0.252384 0.867980 3.639141
5
Structure 721 | Energy: -10.834427 Hartree
N 0.622522 0.842128 3.783295
N 0.536164 1.004975 2.700362
O -1.812155 1.511469 -0.794211
H -1.489650 0.635407 -1.015661
H -2.674063 1.400680 -0.386475
5
Structure 722 | Energy: -10.834951 Hartree
N 0.622522 0.842128 3.783295
N 0.536164 1.004975 2.700362
O -1.883845 1.412687 -0.762628
H -2.082768 2.161082 -1.329082
H -0.943081 1.442885 -0.574325
5
Structure 723 | Energy: -10.834951 Hartree
N 0.622522 0.842128 3.783295
N 0.536164 1.004975 2.700362
O 2.299814 0.987207 -1.160234
H 2.534883 1.691465 -1.767933
H 1.435948 1.200936 -0.800422
5
Structure 724 | Energy: -10.834991 Hartree
N 0.741883 0.877353 3.724625
N 0.655526 1.040200 2.641692
O 2.299814 0.987207 -1.160234
H 2.534883 1.691465 -1.767933
H 1.435948 1.200936 -0.800422
5
Structure 725 | Energy: -10.834987 Hartree
N 0.741883 0.877353 3.724625
N 0.655526 1.040200 2.641692
O 2.294032 1.034867 -1.161788
H 2.529885 1.745717 -1.761454
H 1.431139 1.246285 -0.798294
5
Structure 726 | Energy: -10.834985 Hartree
N 0.738344 0.878099 3.725007
N 0.659065 1.039453 2.641310
O 2.294032 1.034867 -1.161788
H 2.529885 1.745717 -1.761454
H 1.431139 1.246285 -0.798294
5
Structure 727 | Energy: -10.834989 Hartree
N 0.744871 0.877029 3.724330
N 0.652538 1.040523 2.641987
O 2.294032 1.034867 -1.161788
H 2.529885 1.745717 -1.761454
H 1.431139 1.246285 -0.798294
5
Structure 728 | Energy: -10.834989 Hartree
N 0.749663 0.880524 3.724416
N 0.647746 1.037029 2.641901
O 2.294032 1.034867 -1.161788
H 2.529885 1.745717 -1.761454
H 1.431139 1.246285 -0.798294
5
Structure 729 | Energy: -10.835025 Hartree
N 0.749663 0.880524 3.724416
N 0.647746 1.037029 2.641901
O 2.272031 1.033067 -1.100335
H 2.507885 1.743917 -1.700002
H 1.409139 1.244484 -0.736842
5
Structure 730 | Energy: -10.835395 Hartree
N 0.694808 0.606418 3.149585
N 0.592890 0.762923 2.067070
O 2.272031 1.033067 -1.100335
H 2.507885 1.743917 -1.700002
H 1.409139 1.244484 -0.736842
5
Structure 731 | Energy: -10.835431 Hartree
N 0.694808 0.606418 3.149585
N 0.592890 0.762923 2.067070
O 2.257157 1.029332 -1.065584
H 2.493010 1.740182 -1.665250
H 1.394264 1.240749 -0.702090
5
Structure 732 | Energy: -10.834511 Hartree
N 0.563079 1.147471 2.892885
N 0.724618 0.221871 2.323771
O 2.257157 1.029332 -1.065584
H 2.493010 1.740182 -1.665250
H 1.394264 1.240749 -0.702090
5
Structure 733 | Energy: -10.834516 Hartree
N 0.602689 1.157416 2.800345
N 0.764229 0.231816 2.231231
O 2.257157 1.029332 -1.065584
H 2.493010 1.740182 -1.665250
H 1.394264 1.240749 -0.702090
5
Structure 734 | Energy: -10.834516 Hartree
N 0.602689 1.157416 2.800345
N 0.764229 0.231816 2.231231
O -0.338419 3.901338 0.494036
H -0.577868 4.114578 -0.410247
H -0.800826 3.092685 0.725701
5
Structure 735 | Energy: -10.835224 Hartree
N -0.458460 4.330823 0.740958
N -0.296921 3.405223 0.171844
O 0.722730 0.727932 2.553423
H 0.483281 0.941171 1.649140
H 0.260324 -0.080722 2.785088
5
Structure 736 | Energy: -10.834516 Hartree
N 0.602689 1.157416 2.800345
N 0.764229 0.231816 2.231231
O -0.338419 3.901338 0.494036
H -0.577868 4.114578 -0.410247
H -0.800826 3.092685 0.725701
5
Structure 737 | Energy: -10.834547 Hartree
N 0.111990 1.103146 1.865558
N 0.273529 0.177546 1.296445
O -0.338419 3.901338 0.494036
H -0.577868 4.114578 -0.410247
H -0.800826 3.092685 0.725701
5
Structure 738 | Energy: -10.834525 Hartree
N 0.111990 1.103146 1.865558
N 0.273529 0.177546 1.296445
O -0.341104 3.904119 0.494178
H -0.583069 4.093961 -0.414639
H -0.753011 3.069170 0.727848
5
Structure 739 | Energy: -10.835918 Hartree
N -0.458460 4.330823 0.740958
N -0.296921 3.405223 0.171844
O 0.229346 0.676442 1.618778
H -0.012619 0.866284 0.709961
H -0.182561 -0.158507 1.852448
5
Structure 740 | Energy: -10.835987 Hartree
N -0.458460 4.330823 0.740958
N -0.296921 3.405223 0.171844
O 0.217445 0.743777 1.595317
H -0.024520 0.933619 0.686500
H -0.194461 -0.091172 1.828987
5
Structure 741 | Energy: -10.835987 Hartree
N 2.841758 2.340466 -0.553461
N 1.760536 2.164374 -0.635136
O 0.217445 0.743777 1.595317
H -0.024520 0.933619 0.686500
H -0.194461 -0.091172 1.828987
5
Structure 742 | Energy: -10.834453 Hartree
N 0.721470 0.795727 1.598378
N -0.359752 0.619635 1.516703
O 2.337733 2.288516 -0.556521
H 2.095768 2.478358 -1.465338
H 1.925827 1.453567 -0.322852
5
Structure 743 | Energy: -10.834461 Hartree
N 0.721974 0.793444 1.596514
N -0.360257 0.621917 1.518566
O 2.337733 2.288516 -0.556521
H 2.095768 2.478358 -1.465338
H 1.925827 1.453567 -0.322852
5
Structure 744 | Energy: -10.834461 Hartree
N 2.775989 -0.445329 0.790885
N 2.943403 -1.370516 0.222797
O 2.337733 2.288516 -0.556521
H 2.095768 2.478358 -1.465338
H 1.925827 1.453567 -0.322852
5
Structure 745 | Energy: -10.834484 Hartree
N 2.775989 -0.445329 0.790885
N 2.943403 -1.370516 0.222797
O 2.335593 2.290493 -0.556451
H 2.146125 2.431970 -1.486301
H 1.909438 1.468564 -0.303008
5
Structure 746 | Energy: -10.834059 Hartree
N 2.775989 -0.445329 0.790885
N 2.943403 -1.370516 0.222797
O 2.335533 2.290486 -0.556389
H 1.389916 2.343133 -0.709922
H 2.666602 1.557513 -1.080367
5
Structure 747 | Energy: -10.835305 Hartree
N 2.217439 2.715013 -0.310255
N 2.384854 1.789826 -0.878342
O 2.894082 -0.869856 0.544750
H 1.948465 -0.817209 0.391217
H 3.225151 -1.602829 0.020773
5
Structure 748 | Energy: -10.835278 Hartree
N 2.035514 2.670912 -0.340782
N 2.256829 1.752269 -0.900991
O 2.894082 -0.869856 0.544750
H 1.948465 -0.817209 0.391217
H 3.225151 -1.602829 0.020773
5
Structure 749 | Energy: -10.835376 Hartree
N 2.035514 2.670912 -0.340782
N 2.256829 1.752269 -0.900991
O 2.880453 -0.191965 0.910140
H 1.934836 -0.139319 0.756606
H 3.211522 -0.924938 0.386162
5
Structure 750 | Energy: -10.835463 Hartree
N 2.035514 2.670912 -0.340782
N 2.256829 1.752269 -0.900991
O 2.918475 -0.342702 0.943870
H 1.972858 -0.290055 0.790337
H 3.249544 -1.075675 0.419893
5
Structure 751 | Energy: -10.835131 Hartree
N 2.035514 2.670912 -0.340782
N 2.256829 1.752269 -0.900991
O 3.405836 -1.174986 0.190350
H 2.460220 -1.122340 0.036817
H 3.736905 -1.907959 -0.333627
5
Structure 752 | Energy: -10.835163 Hartree
N 2.057160 2.610411 -0.327120
N 2.278476 1.691768 -0.887329
O 3.405836 -1.174986 0.190350
H 2.460220 -1.122340 0.036817
H 3.736905 -1.907959 -0.333627
5
Structure 753 | Energy: -10.835133 Hartree
N 2.057160 2.610411 -0.327120
N 2.278476 1.691768 -0.887329
O 3.439698 -1.202119 0.000977
H 2.488941 -1.145903 -0.114939
H 3.752130 -1.911053 -0.565774
5
Structure 754 | Energy: -10.834960 Hartree
N 1.997338 2.048987 -1.119271
N 2.338298 2.253192 -0.095177
O 3.439698 -1.202119 0.000977
H 2.488941 -1.145903 -0.114939
H 3.752130 -1.911053 -0.565774
5
Structure 755 | Energy: -10.835026 Hartree
N 2.454319 2.214099 -1.247082
N 2.795279 2.418304 -0.222988
O 3.439698 -1.202119 0.000977
H 2.488941 -1.145903 -0.114939
H 3.752130 -1.911053 -0.565774
5
Structure 756 | Energy: -10.835063 Hartree
N 2.454319 2.214099 -1.247082
N 2.795279 2.418304 -0.222988
O 3.244711 -1.256209 -0.073259
H 2.322783 -1.166384 -0.323290
H 3.621273 -1.945733 -0.624770
5
Structure 757 | Energy: -10.835030 Hartree
N 2.186354 2.133444 -1.281827
N 2.592730 2.387104 -0.293275
O 3.244711 -1.256209 -0.073259
H 2.322783 -1.166384 -0.323290
H 3.621273 -1.945733 -0.624770
5
Structure 758 | Energy: -10.835006 Hartree
N 2.186354 2.133444 -1.281827
N 2.592730 2.387104 -0.293275
O 3.353815 -1.215753 -0.016453
H 2.426711 -1.157104 -0.256399
H 3.743238 -1.905007 -0.559304
5
Structure 759 | Energy: -10.834782 Hartree
N 3.120541 -1.377867 -0.554529
N 3.526918 -1.124208 0.434023
O 2.419627 2.295558 -0.743751
H 1.492523 2.354207 -0.983697
H 2.809050 1.606304 -1.286601
5
Structure 760 | Energy: -10.833726 Hartree
N 2.894945 -0.854096 -1.113192
N 3.301321 -0.600436 -0.124640
O 2.419627 2.295558 -0.743751
H 1.492523 2.354207 -0.983697
H 2.809050 1.606304 -1.286601
5
Structure 761 | Energy: -10.833780 Hartree
N 2.894945 -0.854096 -1.113192
N 3.301321 -0.600436 -0.124640
O 2.419226 2.294365 -0.742549
H 1.495709 2.363680 -0.993241
H 2.812231 1.615764 -1.296132
5
Structure 762 | Energy: -10.833780 Hartree
N 2.894945 -0.854096 -1.113192
N 3.301321 -0.600436 -0.124640
O 2.171130 2.139504 -1.346069
H 1.655454 2.463393 -0.604644
H 2.941086 1.696195 -0.982679
5
Structure 763 | Energy: -10.833288 Hartree
N 2.866210 -0.764060 -1.134137
N 3.272587 -0.510400 -0.145585
O 2.171130 2.139504 -1.346069
H 1.655454 2.463393 -0.604644
H 2.941086 1.696195 -0.982679
5
Structure 764 | Energy: -10.833136 Hartree
N 2.861140 -0.748205 -1.224971
N 3.267517 -0.494545 -0.236419
O 2.114971 2.130229 -1.388905
H 1.599296 2.454118 -0.647481
H 2.884928 1.686920 -1.025516
5
Structure 765 | Energy: -10.833111 Hartree
N 2.861140 -0.748205 -1.224971
N 3.267517 -0.494545 -0.236419
O 2.187520 2.131815 -1.287575
H 1.671845 2.455704 -0.546150
H 2.957477 1.688506 -0.924185
5
Structure 766 | Energy: -10.832534 Hartree
N 3.096601 -0.674087 -0.992362
N 3.460747 -0.312328 -0.021152
O 2.187520 2.131815 -1.287575
H 1.671845 2.455704 -0.546150
H 2.957477 1.688506 -0.924185
5
Structure 767 | Energy: -10.833371 Hartree
N 3.087771 -0.796690 -0.922851
N 3.469577 -0.189726 -0.090662
O 2.187520 2.131815 -1.287575
H 1.671845 2.455704 -0.546150
H 2.957477 1.688506 -0.924185
5
Structure 768 | Energy: -10.833343 Hartree
N 3.064398 -0.794457 -0.844099
N 3.502222 -0.157801 -0.063267
O 2.187520 2.131815 -1.287575
H 1.671845 2.455704 -0.546150
H 2.957477 1.688506 -0.924185
5
Structure 769 | Energy: -10.834774 Hartree
N 1.982836 1.806805 -1.616173
N 2.420660 2.443462 -0.835340
O 3.269082 -0.469447 -0.515501
H 2.753407 -0.145558 0.225923
H 4.039039 -0.912756 -0.152112
5
Structure 770 | Energy: -10.832203 Hartree
N 1.982836 1.806805 -1.616173
N 2.420660 2.443462 -0.835340
O 3.286100 -0.500323 -0.394730
H 2.618260 0.099650 -0.733195
H 3.904084 -0.667896 -1.109869
5
Structure 771 | Energy: -10.831600 Hartree
N 2.000706 1.763827 -1.603417
N 2.438530 2.400484 -0.822584
O 3.286100 -0.500323 -0.394730
H 2.618260 0.099650 -0.733195
H 3.904084 -0.667896 -1.109869
5
Structure 772 | Energy: -10.831621 Hartree
N 2.000706 1.763827 -1.603417
N 2.438530 2.400484 -0.822584
O 3.389322 -0.481471 -0.481045
H 2.695791 0.102956 -0.794087
H 4.003135 -0.606690 -1.208342
5
Structure 773 | Energy: -10.832599 Hartree
N 2.000706 1.763827 -1.603417
N 2.438530 2.400484 -0.822584
O 2.672361 -0.742342 -1.754648
H 2.528148 0.177633 -1.985697
H 1.821380 -1.106794 -1.500847
5
Structure 774 | Energy: -10.835616 Hartree
N -0.295574 0.701727 0.762709
N 0.454652 -0.005869 0.384308
O 0.986683 -2.004657 2.010818
H 1.588143 -2.557598 1.507802
H 1.523861 -1.397613 2.524977
5
Structure 775 | Energy: -10.835744 Hartree
N -0.295574 0.701727 0.762709
N 0.454652 -0.005869 0.384308
O 1.315802 -1.215345 3.112799
H 1.917262 -1.768286 2.609782
H 1.852981 -0.608301 3.626957
5
Structure 776 | Energy: -10.835634 Hartree
N -0.295574 0.701727 0.762709
N 0.454652 -0.005869 0.384308
O 1.319814 -1.230130 3.099732
H 2.124206 -1.610725 2.741087
H 1.582357 -0.531194 3.703041
5
Structure 777 | Energy: -10.835572 Hartree
N -0.295574 0.701727 0.762709
N 0.454652 -0.005869 0.384308
O 1.605024 -1.160946 2.983187
H 2.452517 -1.385366 2.593422
H 1.764767 -0.466769 3.626632
5
Structure 778 | Energy: -10.835033 Hartree
N 1.286269 -0.780864 3.186582
N 2.036495 -1.488460 2.808181
O 0.023181 0.321644 0.559314
H 0.870673 0.097224 0.169550
H 0.182923 1.015821 1.202760
5
Structure 779 | Energy: -10.835020 Hartree
N 1.286269 -0.780864 3.186582
N 2.036495 -1.488460 2.808181
O -0.035377 0.478717 0.702448
H 0.784762 0.243177 0.263795
H 0.178297 1.138916 1.365699
5
Structure 780 | Energy: -10.835074 Hartree
N 1.286269 -0.780864 3.186582
N 2.036495 -1.488460 2.808181
O -0.206101 0.436976 0.808508
H 0.610882 0.263437 0.336335
H -0.009047 1.090136 1.483767
5
Structure 781 | Energy: -10.835074 Hartree
N 0.091098 3.248770 -0.362399
N 0.651350 3.181689 -1.304915
O -0.206101 0.436976 0.808508
H 0.610882 0.263437 0.336335
H -0.009047 1.090136 1.483767
5
Structure 782 | Energy: -10.835509 Hartree
N -0.429488 0.497353 1.291129
N 0.130764 0.430272 0.348614
O 0.314485 3.188393 -0.845020
H 1.131468 3.014854 -1.317194
H 0.511538 3.841552 -0.169762
5
Structure 783 | Energy: -10.835074 Hartree
N 0.091098 3.248770 -0.362399
N 0.651350 3.181689 -1.304915
O -0.206101 0.436976 0.808508
H 0.610882 0.263437 0.336335
H -0.009047 1.090136 1.483767
5
Structure 784 | Energy: -10.835509 Hartree
N -0.429488 0.497353 1.291129
N 0.130764 0.430272 0.348614
O 0.314485 3.188393 -0.845020
H 1.131468 3.014854 -1.317194
H 0.511538 3.841552 -0.169762
5
Structure 785 | Energy: -10.835419 Hartree
N -0.429488 0.497353 1.291129
N 0.130764 0.430272 0.348614
O 0.434444 3.124942 -0.941258
H 1.251427 2.951403 -1.413431
H 0.631498 3.778101 -0.265999
5
Structure 786 | Energy: -10.835047 Hartree
N 0.211057 3.185319 -0.458637
N 0.771309 3.118238 -1.401152
O -0.206101 0.436976 0.808508
H 0.610882 0.263437 0.336335
H -0.009047 1.090136 1.483767
5
Structure 787 | Energy: -10.835047 Hartree
N 1.401686 -0.828998 3.076855
N 2.151912 -1.536594 2.698454
O -0.206101 0.436976 0.808508
H 0.610882 0.263437 0.336335
H -0.009047 1.090136 1.483767
5
Structure 788 | Energy: -10.835314 Hartree
N -1.800851 1.830816 -1.319045
N -2.447706 2.610258 -0.893879
O -0.206101 0.436976 0.808508
H 0.610882 0.263437 0.336335
H -0.009047 1.090136 1.483767
5
Structure 789 | Energy: -10.835560 Hartree
N -1.800851 1.830816 -1.319045
N -2.447706 2.610258 -0.893879
O -2.915481 -0.012065 1.110990
H -2.768435 -0.879605 0.728528
H -3.864850 0.126730 1.140242
5
Structure 790 | Energy: -10.834955 Hartree
N -2.636946 -0.442562 0.878643
N -3.283801 0.336880 1.303810
O -2.079386 2.261313 -1.086699
H -1.932340 1.393773 -1.469160
H -3.028755 2.400108 -1.057446
5
Structure 791 | Energy: -10.835024 Hartree
N -2.636946 -0.442562 0.878643
N -3.283801 0.336880 1.303810
O -1.555800 1.524828 -1.369597
H -1.408755 0.657289 -1.752059
H -2.505169 1.663623 -1.340345
5
Structure 792 | Energy: -10.835024 Hartree
N -2.636946 -0.442562 0.878643
N -3.283801 0.336880 1.303810
O -2.513019 2.387792 -0.997004
H -3.361390 2.714839 -0.690685
H -2.675604 1.552092 -1.440393
5
Structure 793 | Energy: -10.835929 Hartree
N -2.831881 -0.153174 1.615729
N -3.088865 0.047492 0.566725
O -2.513019 2.387792 -0.997004
H -3.361390 2.714839 -0.690685
H -2.675604 1.552092 -1.440393
5
Structure 794 | Energy: -10.835970 Hartree
N -2.831881 -0.153174 1.615729
N -3.088865 0.047492 0.566725
O -2.510709 2.474490 -0.869933
H -3.359080 2.801537 -0.563615
H -2.673294 1.638791 -1.313322
5
Structure 795 | Energy: -10.835953 Hartree
N -2.831881 -0.153174 1.615729
N -3.088865 0.047492 0.566725
O -2.628616 2.400175 -0.984441
H -3.516838 2.665842 -0.737447
H -2.695206 1.531626 -1.387691
5
Structure 796 | Energy: -10.835960 Hartree
N -2.831881 -0.153174 1.615729
N -3.088865 0.047492 0.566725
O -2.536512 2.392894 -0.949126
H -3.424734 2.658562 -0.702132
H -2.603102 1.524345 -1.352376
5
Structure 797 | Energy: -10.835923 Hartree
N -2.831881 -0.153174 1.615729
N -3.088865 0.047492 0.566725
O -2.538374 2.396708 -0.958132
H -3.409944 2.628269 -0.630613
H -2.588334 1.494097 -1.280961
5
Structure 798 | Energy: -10.835926 Hartree
N -2.831881 -0.153174 1.615729
N -3.088865 0.047492 0.566725
O -2.263616 2.434098 -0.834366
H -3.150284 2.693392 -0.575308
H -2.321710 1.544098 -1.189256
5
Structure 799 | Energy: -10.835808 Hartree
N -3.281490 -0.296138 1.308187
N -3.444276 0.033862 0.273142
O -2.263616 2.434098 -0.834366
H -3.150284 2.693392 -0.575308
H -2.321710 1.544098 -1.189256
5
Structure 800 | Energy: -10.835824 Hartree
N -3.281490 -0.296138 1.308187
N -3.444276 0.033862 0.273142
O -2.263272 2.433440 -0.833541
H -3.148672 2.698632 -0.576121
H -2.328778 1.549297 -1.201537
5
Structure 801 | Energy: -10.835827 Hartree
N -3.281490 -0.296138 1.308187
N -3.444276 0.033862 0.273142
O -2.165163 2.353370 -0.887708
H -3.029053 2.668393 -0.613888
H -2.286137 1.470156 -1.243685
5
Structure 802 | Energy: -10.835871 Hartree
N -3.281490 -0.296138 1.308187
N -3.444276 0.033862 0.273142
O -2.205445 2.379498 -0.870077
H -3.080079 1.985954 -0.895815
H -1.595750 1.737894 -1.241612
5
Structure 803 | Energy: -10.835876 Hartree
N -3.422091 -0.224110 1.327676
N -3.584877 0.105890 0.292630
O -2.086856 2.281387 -0.886489
H -2.961490 1.887843 -0.912227
H -1.477161 1.639783 -1.258024
5
Structure 804 | Energy: -10.835831 Hartree
N -3.422091 -0.224110 1.327676
N -3.584877 0.105890 0.292630
O -2.051745 2.431708 -0.808639
H -2.926379 2.038165 -0.834378
H -1.442050 1.790105 -1.180174
5
Structure 805 | Energy: -10.834660 Hartree
N -1.985177 2.208789 -0.313345
N -2.147962 2.538788 -1.348390
O -3.488660 -0.001190 0.832382
H -4.363294 -0.394733 0.806643
H -2.878964 -0.642793 0.460847
5
Structure 806 | Energy: -10.834780 Hartree
N -1.985177 2.208789 -0.313345
N -2.147962 2.538788 -1.348390
O -3.452418 -0.210350 0.522245
H -4.334542 -0.585406 0.480836
H -2.873271 -0.794820 0.027871
5
Structure 807 | Energy: -10.834791 Hartree
N -1.974858 2.234866 -0.308108
N -2.137643 2.564866 -1.343153
O -3.452418 -0.210350 0.522245
H -4.334542 -0.585406 0.480836
H -2.873271 -0.794820 0.027871
5
Structure 808 | Energy: -10.835641 Hartree
N -3.387978 -0.429038 1.009788
N -3.550763 -0.099039 -0.025257
O -2.039298 2.453555 -0.795652
H -2.921422 2.078499 -0.837061
H -1.460151 1.869085 -1.290026
5
Structure 809 | Energy: -10.835657 Hartree
N -3.494113 -0.315619 1.098857
N -3.626452 -0.027361 0.047139
O -2.039298 2.453555 -0.795652
H -2.921422 2.078499 -0.837061
H -1.460151 1.869085 -1.290026
5
Structure 810 | Energy: -10.835620 Hartree
N -3.472957 -0.315137 1.095893
N -3.647608 -0.027843 0.050103
O -2.039298 2.453555 -0.795652
H -2.921422 2.078499 -0.837061
H -1.460151 1.869085 -1.290026
5
Structure 811 | Energy: -10.835664 Hartree
N -3.472957 -0.315137 1.095893
N -3.647608 -0.027843 0.050103
O -1.951603 2.337122 -0.909052
H -2.851430 2.004316 -0.917725
H -1.414114 1.711564 -1.400178
5
Structure 812 | Energy: -10.835747 Hartree
N -3.472957 -0.315137 1.095893
N -3.647608 -0.027843 0.050103
O -1.982270 2.305867 -0.997957
H -2.882097 1.973060 -1.006630
H -1.444781 1.680309 -1.489083
5
Structure 813 | Energy: -10.834706 Hartree
N -1.915218 2.108596 -0.503028
N -2.089870 2.395890 -1.548818
O -3.540008 -0.117867 0.600963
H -4.439836 -0.450673 0.592290
H -3.002519 -0.743424 0.109838
5
Structure 814 | Energy: -10.834815 Hartree
N -2.091354 2.345782 -1.559817
N -1.913735 2.158704 -0.492029
O -3.540008 -0.117867 0.600963
H -4.439836 -0.450673 0.592290
H -3.002519 -0.743424 0.109838
5
Structure 815 | Energy: -10.834697 Hartree
N -2.067279 2.367523 -1.559026
N -1.937810 2.136963 -0.492819
O -3.540008 -0.117867 0.600963
H -4.439836 -0.450673 0.592290
H -3.002519 -0.743424 0.109838
5
Structure 816 | Energy: -10.834690 Hartree
N -2.067279 2.367523 -1.559026
N -1.937810 2.136963 -0.492819
O -3.543234 -0.117295 0.601995
H -4.426423 -0.490353 0.565543
H -2.964734 -0.712818 0.120215
5
Structure 817 | Energy: -10.834667 Hartree
N -2.228194 2.414772 -1.608278
N -2.116877 2.236221 -0.530110
O -3.543234 -0.117295 0.601995
H -4.426423 -0.490353 0.565543
H -2.964734 -0.712818 0.120215
5
Structure 818 | Energy: -10.834672 Hartree
N -2.242500 2.423613 -1.606466
N -2.121809 2.239076 -0.530317
O -3.543234 -0.117295 0.601995
H -4.426423 -0.490353 0.565543
H -2.964734 -0.712818 0.120215
5
Structure 819 | Energy: -10.834708 Hartree
N -2.242500 2.423613 -1.606466
N -2.121809 2.239076 -0.530317
O -3.548167 -0.115370 0.600788
H -4.406815 -0.534650 0.514462
H -2.906042 -0.699078 0.190445
5
Structure 820 | Energy: -10.834731 Hartree
N -2.009927 2.383309 -1.498372
N -1.908667 2.143980 -0.431045
O -3.548167 -0.115370 0.600788
H -4.406815 -0.534650 0.514462
H -2.906042 -0.699078 0.190445
5
Structure 821 | Energy: -10.835713 Hartree
N -2.009927 2.383309 -1.498372
N -1.908667 2.143980 -0.431045
O -3.594327 -0.195569 0.524730
H -2.829644 0.379235 0.451350
H -3.750563 -0.340040 1.460754
5
Structure 822 | Energy: -10.835614 Hartree
N -2.009927 2.383309 -1.498372
N -1.908667 2.143980 -0.431045
O -3.596462 -0.197240 0.527209
H -2.837204 0.375113 0.398895
H -3.709124 -0.309392 1.473861
5
Structure 823 | Energy: -10.835661 Hartree
N -2.009927 2.383309 -1.498372
N -1.908667 2.143980 -0.431045
O -3.482349 -0.234159 0.585571
H -2.745208 0.361306 0.435341
H -3.570835 -0.340409 1.535468
5
Structure 824 | Energy: -10.835629 Hartree
N -2.009927 2.383309 -1.498372
N -1.908667 2.143980 -0.431045
O -3.476574 -0.249617 0.559266
H -2.739433 0.345848 0.409035
H -3.565061 -0.355867 1.509162
5
Structure 825 | Energy: -10.832533 Hartree
N -2.009927 2.383309 -1.498372
N -1.908667 2.143980 -0.431045
O -2.769076 0.478167 1.218193
H -2.031936 1.073632 1.067963
H -2.857563 0.371917 2.168089
5
Structure 826 | Energy: -10.831278 Hartree
N -2.005554 2.379887 -1.501174
N -1.904295 2.140557 -0.433847
O -2.726839 0.501622 1.183735
H -1.989698 1.097087 1.033504
H -2.815326 0.395372 2.133631
5
Structure 827 | Energy: -10.831844 Hartree
N -2.005554 2.379887 -1.501174
N -1.904295 2.140557 -0.433847
O -2.633663 0.504146 1.243163
H -2.888069 1.426435 1.315166
H -3.395839 0.025966 0.908718
5
Structure 828 | Energy: -10.829509 Hartree
N -2.005554 2.379887 -1.501174
N -1.904295 2.140557 -0.433847
O -2.604527 0.572715 1.156185
H -2.858933 1.495004 1.228188
H -3.366703 0.094536 0.821740
5
Structure 829 | Energy: -10.829509 Hartree
N -2.005554 2.379887 -1.501174
N -1.904295 2.140557 -0.433847
O -1.557340 0.324862 1.001260
H -0.914916 1.034886 0.940582
H -1.207140 -0.416599 0.502245
5
Structure 830 | Energy: -10.829203 Hartree
N -2.190741 2.732770 -1.105969
N -2.001947 2.333126 -0.100306
O -1.557340 0.324862 1.001260
H -0.914916 1.034886 0.940582
H -1.207140 -0.416599 0.502245
5
Structure 831 | Energy: -10.831266 Hartree
N -2.190741 2.732770 -1.105969
N -2.001947 2.333126 -0.100306
O -1.591546 0.320822 1.207206
H -0.949121 1.030845 1.146528
H -1.241345 -0.420640 0.708191
5
Structure 832 | Energy: -10.831402 Hartree
N -2.190741 2.732770 -1.105969
N -2.001947 2.333126 -0.100306
O -1.592508 0.314531 1.205138
H -1.012727 1.078968 1.201429
H -1.162471 -0.368914 0.686106
5
Structure 833 | Energy: -10.832709 Hartree
N -1.630402 0.518885 0.673057
N -1.441608 0.119240 1.678721
O -2.152847 2.528416 -0.573888
H -1.573066 3.292853 -0.577598
H -1.722811 1.844972 -1.092921
5
Structure 834 | Energy: -10.831402 Hartree
N -2.190741 2.732770 -1.105969
N -2.001947 2.333126 -0.100306
O -1.592508 0.314531 1.205138
H -1.012727 1.078968 1.201429
H -1.162471 -0.368914 0.686106
5
Structure 835 | Energy: -10.832735 Hartree
N -0.863848 -2.050759 3.498321
N -1.054633 -1.669483 2.485924
O -1.592508 0.314531 1.205138
H -1.012727 1.078968 1.201429
H -1.162471 -0.368914 0.686106
5
Structure 836 | Energy: -10.832038 Hartree
N -0.863848 -2.050759 3.498321
N -1.054633 -1.669483 2.485924
O -1.708475 0.311369 1.373592
H -1.128694 1.075806 1.369883
H -1.278439 -0.372075 0.854560
5
Structure 837 | Energy: -10.832119 Hartree
N -0.863848 -2.050759 3.498321
N -1.054633 -1.669483 2.485924
O -1.707101 0.310387 1.375951
H -1.139608 1.083602 1.351150
H -1.289337 -0.364291 0.835854
5
Structure 838 | Energy: -10.830110 Hartree
N -1.556580 0.125263 1.850541
N -1.747365 0.506539 0.838144
O -1.014369 -1.865635 3.023730
H -0.446877 -1.092420 2.998929
H -0.596605 -2.540313 2.483634
5
Structure 839 | Energy: -10.830047 Hartree
N -1.530072 0.172118 1.921643
N -1.750833 0.583620 0.927335
O -1.014369 -1.865635 3.023730
H -0.446877 -1.092420 2.998929
H -0.596605 -2.540313 2.483634
5
Structure 840 | Energy: -10.831663 Hartree
N -1.530072 0.172118 1.921643
N -1.750833 0.583620 0.927335
O -0.967922 -1.912950 2.957448
H -0.138588 -1.605520 3.329222
H -1.642106 -1.276218 3.205380
5
Structure 841 | Energy: -10.831679 Hartree
N -1.529760 0.172727 1.921825
N -1.751145 0.583012 0.927153
O -0.967922 -1.912950 2.957448
H -0.138588 -1.605520 3.329222
H -1.642106 -1.276218 3.205380
5
Structure 842 | Energy: -10.831596 Hartree
N -1.529760 0.172727 1.921825
N -1.751145 0.583012 0.927153
O -1.038109 -1.912484 2.975102
H -0.208775 -1.605054 3.346876
H -1.712293 -1.275752 3.223035
5
Structure 843 | Energy: -10.835545 Hartree
N -1.529760 0.172727 1.921825
N -1.751145 0.583012 0.927153
O -1.281170 -2.406537 2.749354
H -0.451836 -2.099108 3.121128
H -1.955354 -1.769806 2.997287
5
Structure 844 | Energy: -10.833858 Hartree
N -1.529760 0.172727 1.921825
N -1.751145 0.583012 0.927153
O -1.258364 -2.291769 2.778319
H -0.632964 -3.010573 2.891100
H -2.136218 -2.679943 2.767594
5
Structure 845 | Energy: -10.833834 Hartree
N -1.529760 0.172727 1.921825
N -1.751145 0.583012 0.927153
O -1.259882 -2.291338 2.779595
H -0.621278 -2.992689 2.923870
H -2.123801 -2.704663 2.714565
5
Structure 846 | Energy: -10.833835 Hartree
N -1.529760 0.172727 1.921825
N -1.751145 0.583012 0.927153
O -1.258570 -2.291699 2.778576
H -0.636676 -3.002270 2.948460
H -2.129229 -2.689355 2.706154
5
Structure 847 | Energy: -10.834556 Hartree
N -1.161797 -2.558851 3.281365
N -1.383181 -2.148566 2.286693
O -1.626533 0.439878 1.419036
H -1.004639 -0.270693 1.588919
H -2.497192 0.042223 1.346613
5
Structure 848 | Energy: -10.833819 Hartree
N -0.913059 -2.759408 2.872894
N -1.631920 -1.948009 2.695164
O -1.626533 0.439878 1.419036
H -1.004639 -0.270693 1.588919
H -2.497192 0.042223 1.346613
5
Structure 849 | Energy: -10.833956 Hartree
N -0.856317 -2.800902 2.822286
N -1.575177 -1.989503 2.644557
O -1.626533 0.439878 1.419036
H -1.004639 -0.270693 1.588919
H -2.497192 0.042223 1.346613
5
Structure 850 | Energy: -10.833924 Hartree
N -0.856317 -2.800902 2.822286
N -1.575177 -1.989503 2.644557
O -1.627438 0.440144 1.419891
H -0.999827 -0.260472 1.609011
H -2.487641 0.027791 1.312940
5
Structure 851 | Energy: -10.833657 Hartree
N -0.856317 -2.800902 2.822286
N -1.575177 -1.989503 2.644557
O -1.935953 0.528935 1.803495
H -1.234168 -0.116093 1.912866
H -2.741993 0.041217 1.619504
5
Structure 852 | Energy: -10.833545 Hartree
N -0.872952 -2.811086 2.839305
N -1.558543 -1.979318 2.627539
O -1.935953 0.528935 1.803495
H -1.234168 -0.116093 1.912866
H -2.741993 0.041217 1.619504
5
Structure 853 | Energy: -10.834736 Hartree
N -0.872952 -2.811086 2.839305
N -1.558543 -1.979318 2.627539
O -1.399531 0.507059 0.744992
H -0.697747 -0.137969 0.854363
H -2.205571 0.019341 0.561001
5
Structure 854 | Energy: -10.834750 Hartree
N -0.864714 -2.803233 2.842811
N -1.566780 -1.987171 2.624032
O -1.399531 0.507059 0.744992
H -0.697747 -0.137969 0.854363
H -2.205571 0.019341 0.561001
5
Structure 855 | Energy: -10.834803 Hartree
N -0.861701 -2.794672 2.862861
N -1.569793 -1.995732 2.603983
O -1.399531 0.507059 0.744992
H -0.697747 -0.137969 0.854363
H -2.205571 0.019341 0.561001
5
Structure 856 | Energy: -10.834861 Hartree
N -0.861701 -2.794672 2.862861
N -1.569793 -1.995732 2.603983
O -0.962344 0.602895 0.900952
H -0.361037 -0.140748 0.978088
H -1.827784 0.245808 0.689000
5
Structure 857 | Energy: -10.834911 Hartree
N -0.861701 -2.794672 2.862861
N -1.569793 -1.995732 2.603983
O -0.822470 0.714385 1.125147
H -0.251379 -0.056010 1.154667
H -1.698138 0.407844 0.878855
5
Structure 858 | Energy: -10.835101 Hartree
N 0.538374 -2.993442 3.105250
N -0.169719 -2.194502 2.846372
O -0.822470 0.714385 1.125147
H -0.251379 -0.056010 1.154667
H -1.698138 0.407844 0.878855
5
Structure 859 | Energy: -10.835135 Hartree
N 0.517443 -3.009488 3.110200
N -0.148788 -2.178457 2.841423
O -0.822470 0.714385 1.125147
H -0.251379 -0.056010 1.154667
H -1.698138 0.407844 0.878855
5
Structure 860 | Energy: -10.835297 Hartree
N 0.633292 -2.999354 2.942482
N -0.032938 -2.168322 2.673706
O -0.822470 0.714385 1.125147
H -0.251379 -0.056010 1.154667
H -1.698138 0.407844 0.878855
5
Structure 861 | Energy: -10.834498 Hartree
N -0.165698 -2.683063 3.081579
N 0.766052 -2.484613 2.534609
O -0.822470 0.714385 1.125147
H -0.251379 -0.056010 1.154667
H -1.698138 0.407844 0.878855
5
Structure 862 | Energy: -10.834486 Hartree
N -0.157572 -2.650238 3.104297
N 0.757926 -2.517438 2.511891
O -0.822470 0.714385 1.125147
H -0.251379 -0.056010 1.154667
H -1.698138 0.407844 0.878855
5
Structure 863 | Energy: -10.835194 Hartree
N -1.297261 0.587727 1.409220
N -0.381763 0.720527 0.816815
O 0.317219 -2.523580 2.820223
H 0.888310 -3.293975 2.849744
H -0.558449 -2.830121 2.573931
5
Structure 864 | Energy: -10.834486 Hartree
N -0.157572 -2.650238 3.104297
N 0.757926 -2.517438 2.511891
O -0.822470 0.714385 1.125147
H -0.251379 -0.056010 1.154667
H -1.698138 0.407844 0.878855
5
Structure 865 | Energy: -10.834483 Hartree
N -0.129144 -2.647681 3.098591
N 0.783358 -2.508397 2.503060
O -0.822470 0.714385 1.125147
H -0.251379 -0.056010 1.154667
H -1.698138 0.407844 0.878855
5
Structure 866 | Energy: -10.835092 Hartree
N 2.478766 2.125296 2.587382
N 2.709429 1.998041 1.520931
O -0.822470 0.714385 1.125147
H -0.251379 -0.056010 1.154667
H -1.698138 0.407844 0.878855
5
Structure 867 | Energy: -10.834759 Hartree
N 2.353500 2.022048 1.561995
N 2.834695 2.101289 2.546317
O -0.822470 0.714385 1.125147
H -0.251379 -0.056010 1.154667
H -1.698138 0.407844 0.878855
5
Structure 868 | Energy: -10.835036 Hartree
N 2.558501 2.023799 1.507367
N 2.629694 2.099538 2.600945
O -0.822470 0.714385 1.125147
H -0.251379 -0.056010 1.154667
H -1.698138 0.407844 0.878855
5
Structure 869 | Energy: -10.834984 Hartree
N 2.558501 2.023799 1.507367
N 2.629694 2.099538 2.600945
O -0.765197 0.820351 0.819072
H -0.234077 0.029236 0.931202
H -1.623669 0.540626 0.493185
5
Structure 870 | Energy: -10.834967 Hartree
N 2.558501 2.023799 1.507367
N 2.629694 2.099538 2.600945
O -0.763139 0.820280 0.815591
H -0.259039 0.019265 0.973018
H -1.631375 0.551721 0.506620
5
Structure 871 | Energy: -10.834982 Hartree
N 2.558501 2.023799 1.507367
N 2.629694 2.099538 2.600945
O -0.836238 0.732611 1.152752
H -0.339610 -0.048514 1.405196
H -1.721960 0.442460 0.923119
5
Structure 872 | Energy: -10.835009 Hartree
N 2.558501 2.023799 1.507367
N 2.629694 2.099538 2.600945
O -0.837503 0.711215 1.190141
H -0.307328 -0.073419 1.344372
H -1.724890 0.414991 0.975162
5
Structure 873 | Energy: -10.835026 Hartree
N 2.571824 1.989514 1.510119
N 2.616371 2.133823 2.598194
O -0.837503 0.711215 1.190141
H -0.307328 -0.073419 1.344372
H -1.724890 0.414991 0.975162
5
Structure 874 | Energy: -10.835026 Hartree
N 2.571824 1.989514 1.510119
N 2.616371 2.133823 2.598194
O -0.919318 1.719229 3.427027
H -0.565817 0.827856 3.458902
H -1.818773 1.678671 3.759827
5
Structure 875 | Energy: -10.834342 Hartree
N 0.117271 -2.210162 3.151417
N 0.361204 -1.724708 4.106167
O -0.919318 1.719229 3.427027
H -0.565817 0.827856 3.458902
H -1.818773 1.678671 3.759827
5
Structure 876 | Energy: -10.834339 Hartree
N 0.256150 -2.169326 3.152587
N 0.485688 -1.673992 4.105831
O -0.919318 1.719229 3.427027
H -0.565817 0.827856 3.458902
H -1.818773 1.678671 3.759827
5
Structure 877 | Energy: -10.834611 Hartree
N 0.256150 -2.169326 3.152587
N 0.485688 -1.673992 4.105831
O -0.978317 1.715647 3.417419
H -0.118265 1.733949 3.842272
H -1.329887 0.829431 3.528961
5
Structure 878 | Energy: -10.834667 Hartree
N 0.256150 -2.169326 3.152587
N 0.485688 -1.673992 4.105831
O -0.768030 1.792438 3.569526
H 0.113553 1.750089 3.945747
H -1.165313 0.925881 3.682067
5
Structure 879 | Energy: -10.834653 Hartree
N 0.256150 -2.169326 3.152587
N 0.485688 -1.673992 4.105831
O -0.768614 1.792880 3.570974
H 0.118186 1.746579 3.934247
H -1.160686 0.922376 3.670584
5
Structure 880 | Energy: -10.834531 Hartree
N -0.153975 -2.003019 3.769018
N 0.895812 -1.840298 3.489401
O -0.768614 1.792880 3.570974
H 0.118186 1.746579 3.934247
H -1.160686 0.922376 3.670584
5
Structure 881 | Energy: -10.834426 Hartree
N -0.153975 -2.003019 3.769018
N 0.895812 -1.840298 3.489401
O -0.587443 2.414319 3.262290
H 0.299357 2.368018 3.625562
H -0.979515 1.543815 3.361900
5
Structure 882 | Energy: -10.834426 Hartree
N -0.153975 -2.003019 3.769018
N 0.895812 -1.840298 3.489401
O -0.627002 -1.721562 -0.708752
H -1.353455 -1.295563 -0.249063
H 0.101932 -1.785543 -0.087476
5
Structure 883 | Energy: -10.835118 Hartree
N 0.262820 -2.158212 4.112982
N 0.479018 -1.685105 3.145436
O -0.627002 -1.721562 -0.708752
H -1.353455 -1.295563 -0.249063
H 0.101932 -1.785543 -0.087476
5
Structure 884 | Energy: -10.835117 Hartree
N 0.262820 -2.158212 4.112982
N 0.479018 -1.685105 3.145436
O -0.628935 -1.722611 -0.708355
H -1.316346 -1.230779 -0.254382
H 0.095503 -1.833684 -0.088457
5
Structure 885 | Energy: -10.835114 Hartree
N 0.262820 -2.158212 4.112982
N 0.479018 -1.685105 3.145436
O -0.669127 -1.699112 -0.695992
H -0.778785 -1.322795 0.179728
H 0.195877 -2.114647 -0.718797
5
Structure 886 | Energy: -10.835114 Hartree
N 1.512032 0.496246 3.128728
N 1.081609 -0.404655 2.670654
O -0.669127 -1.699112 -0.695992
H -0.778785 -1.322795 0.179728
H 0.195877 -2.114647 -0.718797
5
Structure 887 | Energy: -10.835094 Hartree
N 1.523588 0.304215 3.227716
N 1.092133 -0.572715 2.726160
O -0.669127 -1.699112 -0.695992
H -0.778785 -1.322795 0.179728
H 0.195877 -2.114647 -0.718797
5
Structure 888 | Energy: -10.835093 Hartree
N 1.490251 0.309712 3.243978
N 1.125470 -0.578212 2.709897
O -0.669127 -1.699112 -0.695992
H -0.778785 -1.322795 0.179728
H 0.195877 -2.114647 -0.718797
5
Structure 889 | Energy: -10.834774 Hartree
N 0.922867 -0.916903 3.078505
N 0.558086 -1.804827 2.544424
O -0.669127 -1.699112 -0.695992
H -0.778785 -1.322795 0.179728
H 0.195877 -2.114647 -0.718797
5
Structure 890 | Energy: -10.834596 Hartree
N 0.922867 -0.916903 3.078505
N 0.558086 -1.804827 2.544424
O -1.704354 -1.613265 -1.391292
H -1.814012 -1.236949 -0.515572
H -0.839349 -2.028800 -1.414097
5
Structure 891 | Energy: -10.834556 Hartree
N 0.917377 -1.077380 3.176858
N 0.552596 -1.965304 2.642778
O -1.704354 -1.613265 -1.391292
H -1.814012 -1.236949 -0.515572
H -0.839349 -2.028800 -1.414097
5
Structure 892 | Energy: -10.834593 Hartree
N -1.479699 -1.171497 -1.076528
N -1.844480 -2.059422 -1.610609
O 0.692723 -1.519148 2.862095
H 0.583065 -1.142831 3.737814
H 1.557727 -1.934682 2.839289
5
Structure 893 | Energy: -10.834556 Hartree
N 0.917377 -1.077380 3.176858
N 0.552596 -1.965304 2.642778
O -1.704354 -1.613265 -1.391292
H -1.814012 -1.236949 -0.515572
H -0.839349 -2.028800 -1.414097
5
Structure 894 | Energy: -10.834463 Hartree
N 0.917377 -1.077380 3.176858
N 0.552596 -1.965304 2.642778
O -1.636950 -0.691101 -0.466145
H -1.746608 -0.314784 0.409575
H -0.771946 -1.106636 -0.488950
5
Structure 895 | Energy: -10.834454 Hartree
N 0.917377 -1.077380 3.176858
N 0.552596 -1.965304 2.642778
O -1.382595 -0.693443 -0.631784
H -1.558255 -0.318926 0.233898
H -0.516866 -1.106070 -0.590878
5
Structure 896 | Energy: -10.834469 Hartree
N 0.917377 -1.077380 3.176858
N 0.552596 -1.965304 2.642778
O -1.599116 -0.773244 -0.511413
H -1.732945 -0.393894 0.359625
H -0.723803 -1.167224 -0.516694
5
Structure 897 | Energy: -10.834989 Hartree
N -1.375237 -0.330100 -0.195931
N -1.740018 -1.218025 -0.730012
O 0.693498 -1.520523 2.861376
H 0.559670 -1.141173 3.732414
H 1.568811 -1.914504 2.856095
5
Structure 898 | Energy: -10.835005 Hartree
N -1.364277 -0.321611 -0.218876
N -1.750978 -1.226514 -0.707066
O 0.693498 -1.520523 2.861376
H 0.559670 -1.141173 3.732414
H 1.568811 -1.914504 2.856095
5
Structure 899 | Energy: -10.834994 Hartree
N -1.364277 -0.321611 -0.218876
N -1.750978 -1.226514 -0.707066
O 0.789903 -1.458516 2.807606
H 0.627907 -1.138570 3.697503
H 1.699884 -1.762606 2.777836
5
Structure 900 | Energy: -10.834441 Hartree
N 1.025106 -1.005177 3.099829
N 0.638405 -1.910080 2.611638
O -1.599480 -0.774950 -0.511098
H -1.761476 -0.455004 0.378799
H -0.689500 -1.079040 -0.540869
5
Structure 901 | Energy: -10.834943 Hartree
N 1.025106 -1.005177 3.099829
N 0.638405 -1.910080 2.611638
O -1.505538 -0.791471 -0.430533
H -1.910873 0.078139 -0.432995
H -2.031147 -1.349960 -1.007809
5
Structure 902 | Energy: -10.834601 Hartree
N -1.364277 -0.321611 -0.218876
N -1.750978 -1.226514 -0.707066
O 0.883845 -1.475037 2.888172
H 0.478510 -0.605427 2.885710
H 0.358236 -2.033526 2.310896
5
Structure 903 | Energy: -10.834602 Hartree
N -1.364277 -0.321611 -0.218876
N -1.750978 -1.226514 -0.707066
O 0.883680 -1.475006 2.888451
H 0.481583 -0.603944 2.878781
H 0.357778 -2.035498 2.313389
5
Structure 904 | Energy: -10.834666 Hartree
N -1.394689 -0.068394 0.768115
N -1.781390 -0.973297 0.279924
O 0.883680 -1.475006 2.888451
H 0.481583 -0.603944 2.878781
H 0.357778 -2.035498 2.313389
5
Structure 905 | Energy: -10.834666 Hartree
N -1.394689 -0.068394 0.768115
N -1.781390 -0.973297 0.279924
O 1.234325 0.632817 -1.296332
H 0.777102 1.172497 -0.648092
H 0.675366 -0.126385 -1.476884
5
Structure 906 | Energy: -10.834683 Hartree
N -1.394689 -0.068394 0.768115
N -1.781390 -0.973297 0.279924
O 1.234327 0.632814 -1.296329
H 0.801063 1.143774 -0.609506
H 0.651374 -0.097625 -1.515521
5
Structure 907 | Energy: -10.834683 Hartree
N -1.394689 -0.068394 0.768115
N -1.781390 -0.973297 0.279924
O -3.260743 2.303065 -0.831689
H -2.485533 2.364988 -0.269781
H -3.340743 1.385741 -1.102869
5
Structure 908 | Energy: -10.835546 Hartree
N -3.028493 2.707654 -0.571327
N -3.415194 1.802751 -1.059517
O -1.626939 -0.472983 0.507752
H -0.851729 -0.411060 1.069660
H -1.706939 -1.390306 0.236572
5
Structure 909 | Energy: -10.835014 Hartree
N -2.401412 3.388306 -0.943291
N -2.788114 2.483402 -1.431481
O -1.626939 -0.472983 0.507752
H -0.851729 -0.411060 1.069660
H -1.706939 -1.390306 0.236572
5
Structure 910 | Energy: -10.834561 Hartree
N 0.399937 -4.214720 -0.182572
N -0.294280 -4.070256 0.656421
O -1.626939 -0.472983 0.507752
H -0.851729 -0.411060 1.069660
H -1.706939 -1.390306 0.236572
5
Structure 911 | Energy: -10.834579 Hartree
N 0.399937 -4.214720 -0.182572
N -0.294280 -4.070256 0.656421
O -1.733770 -0.297859 0.635609
H -0.958561 -0.235936 1.197517
H -1.813771 -1.215183 0.364429
5
Structure 912 | Energy: -10.834585 Hartree
N 0.399937 -4.214720 -0.182572
N -0.294280 -4.070256 0.656421
O -1.714539 -0.339638 0.631043
H -0.939329 -0.277715 1.192951
H -1.794539 -1.256962 0.359863
5
Structure 913 | Energy: -10.834757 Hartree
N 0.399937 -4.214720 -0.182572
N -0.294280 -4.070256 0.656421
O -1.473522 -0.458108 1.148802
H -0.698312 -0.396185 1.710709
H -1.553522 -1.375432 0.877622
5
Structure 914 | Energy: -10.835617 Hartree
N 0.399937 -4.214720 -0.182572
N -0.294280 -4.070256 0.656421
O -1.882174 -1.323783 1.774515
H -1.106965 -1.261860 2.336422
H -1.962175 -2.241107 1.503335
5
Structure 915 | Energy: -10.835621 Hartree
N 0.404561 -4.214646 -0.178716
N -0.298904 -4.070331 0.652565
O -1.882174 -1.323783 1.774515
H -1.106965 -1.261860 2.336422
H -1.962175 -2.241107 1.503335
5
Structure 916 | Energy: -10.835625 Hartree
N 0.403464 -4.197043 -0.205121
N -0.292565 -4.058506 0.633371
O -1.882174 -1.323783 1.774515
H -1.106965 -1.261860 2.336422
H -1.962175 -2.241107 1.503335
5
Structure 917 | Energy: -10.835562 Hartree
N 1.178514 0.403450 -0.384573
N 0.978910 -0.335958 0.402924
O -1.882174 -1.323783 1.774515
H -1.106965 -1.261860 2.336422
H -1.962175 -2.241107 1.503335
5
Structure 918 | Energy: -10.835399 Hartree
N 1.178514 0.403450 -0.384573
N 0.978910 -0.335958 0.402924
O -2.358315 -0.587996 0.643120
H -1.583106 -0.526073 1.205028
H -2.438316 -1.505320 0.371941
5
Structure 919 | Energy: -10.835117 Hartree
N 1.434042 -0.044705 -0.781984
N 1.234438 -0.784113 0.005513
O -2.358315 -0.587996 0.643120
H -1.583106 -0.526073 1.205028
H -2.438316 -1.505320 0.371941
5
Structure 920 | Energy: -10.834736 Hartree
N 2.019344 -0.179179 -0.399136
N 1.819740 -0.918587 0.388361
O -2.358315 -0.587996 0.643120
H -1.583106 -0.526073 1.205028
H -2.438316 -1.505320 0.371941
5
Structure 921 | Energy: -10.834739 Hartree
N -2.219614 -0.266154 0.265639
N -2.419218 -1.005563 1.053136
O 1.880642 -0.501021 -0.021654
H 2.655852 -0.439098 0.540253
H 1.800642 -1.418344 -0.292834
5
Structure 922 | Energy: -10.834709 Hartree
N -2.309088 -0.222085 0.354187
N -2.508691 -0.961493 1.141684
O 1.880642 -0.501021 -0.021654
H 2.655852 -0.439098 0.540253
H 1.800642 -1.418344 -0.292834
5
Structure 923 | Energy: -10.834862 Hartree
N -2.309088 -0.222085 0.354187
N -2.508691 -0.961493 1.141684
O 1.866600 -0.525059 0.021035
H 2.767377 -0.248192 0.201224
H 1.912005 -1.227717 -0.631369
5
Structure 924 | Energy: -10.834900 Hartree
N -2.284492 -0.233732 0.379872
N -2.484096 -0.973140 1.167369
O 1.799210 -0.513339 0.080868
H 2.699988 -0.236473 0.261058
H 1.844615 -1.215998 -0.571535
5
Structure 925 | Energy: -10.834911 Hartree
N -2.271349 -0.046977 0.311834
N -2.511943 -0.747363 1.123186
O 1.799210 -0.513339 0.080868
H 2.699988 -0.236473 0.261058
H 1.844615 -1.215998 -0.571535
5
Structure 926 | Energy: -10.834927 Hartree
N -2.271349 -0.046977 0.311834
N -2.511943 -0.747363 1.123186
O 1.799156 -0.513438 0.080850
H 2.045635 -1.439367 0.031582
H 2.499816 -0.011544 -0.341762
5
Structure 927 | Energy: -10.835027 Hartree
N -2.271349 -0.046977 0.311834
N -2.511943 -0.747363 1.123186
O 1.271030 -0.580883 -0.534671
H 1.517508 -1.506812 -0.583939
H 1.971690 -0.078990 -0.957282
5
Structure 928 | Energy: -10.835017 Hartree
N -2.271349 -0.046977 0.311834
N -2.511943 -0.747363 1.123186
O 1.226988 -0.624040 -0.650306
H 1.439767 -1.552797 -0.762815
H 1.932864 -0.120441 -1.062068
5
Structure 929 | Energy: -10.835357 Hartree
N -2.177666 0.538019 -0.356500
N -2.418259 -0.162367 0.454852
O 1.226988 -0.624040 -0.650306
H 1.439767 -1.552797 -0.762815
H 1.932864 -0.120441 -1.062068
5
Structure 930 | Energy: -10.835103 Hartree
N -2.177666 0.538019 -0.356500
N -2.418259 -0.162367 0.454852
O 1.293678 -0.640308 -0.618173
H 0.910123 -1.423596 -1.018010
H 1.403992 0.008572 -1.316891
5
Structure 931 | Energy: -10.835125 Hartree
N -2.142142 0.529718 -0.363739
N -2.382735 -0.170668 0.447613
O 1.293678 -0.640308 -0.618173
H 0.910123 -1.423596 -1.018010
H 1.403992 0.008572 -1.316891
5
Structure 932 | Energy: -10.834928 Hartree
N 1.398686 -0.297636 -1.085317
N 1.158093 -0.998022 -0.273965
O -2.247150 0.187046 0.103405
H -2.630705 -0.596242 -0.296432
H -2.136836 0.835926 -0.595313
5
Structure 933 | Energy: -10.834909 Hartree
N 1.398686 -0.297636 -1.085317
N 1.158093 -0.998022 -0.273965
O -2.343454 -0.054985 -0.159651
H -2.646540 -0.807211 -0.672309
H -2.204432 0.668726 -0.774742
5
Structure 934 | Energy: -10.834926 Hartree
N 1.408957 -0.262728 -1.048868
N 1.147822 -1.032929 -0.310413
O -2.343454 -0.054985 -0.159651
H -2.646540 -0.807211 -0.672309
H -2.204432 0.668726 -0.774742
5
Structure 935 | Energy: -10.834622 Hartree
N 2.075643 -0.009950 -1.353555
N 1.814509 -0.780152 -0.615100
O -2.343454 -0.054985 -0.159651
H -2.646540 -0.807211 -0.672309
H -2.204432 0.668726 -0.774742
5
Structure 936 | Energy: -10.834821 Hartree
N -2.222066 0.328520 -0.591980
N -2.483201 -0.441681 0.146475
O 1.954256 -0.393455 -0.921226
H 1.651169 -1.145681 -1.433884
H 2.093278 0.330256 -1.536317
5
Structure 937 | Energy: -10.834622 Hartree
N 2.075643 -0.009950 -1.353555
N 1.814509 -0.780152 -0.615100
O -2.343454 -0.054985 -0.159651
H -2.646540 -0.807211 -0.672309
H -2.204432 0.668726 -0.774742
5
Structure 938 | Energy: -10.834426 Hartree
N 2.075643 -0.009950 -1.353555
N 1.814509 -0.780152 -0.615100
O -1.619407 -1.000514 0.461601
H -1.922494 -1.752740 -0.051057
H -1.480385 -0.276803 -0.153490
5
Structure 939 | Energy: -10.834430 Hartree
N 2.068727 0.010439 -1.343206
N 1.807593 -0.759762 -0.604751
O -1.656197 -0.968695 0.487243
H -1.959284 -1.720921 -0.025416
H -1.517175 -0.244984 -0.127848
5
Structure 940 | Energy: -10.834394 Hartree
N 1.833646 -0.083546 -1.811793
N 1.669084 -0.800668 -0.996090
O -1.656197 -0.968695 0.487243
H -1.959284 -1.720921 -0.025416
H -1.517175 -0.244984 -0.127848
5
Structure 941 | Energy: -10.835020 Hartree
N -1.583096 -0.611730 0.016289
N -1.747658 -1.328852 0.831993
O 1.760545 -0.440512 -1.340840
H 1.457458 -1.192738 -1.853498
H 1.899567 0.283199 -1.955931
5
Structure 942 | Energy: -10.835002 Hartree
N -1.694295 -0.619365 -0.075000
N -1.858856 -1.336487 0.740704
O 1.760545 -0.440512 -1.340840
H 1.457458 -1.192738 -1.853498
H 1.899567 0.283199 -1.955931
5
Structure 943 | Energy: -10.834409 Hartree
N 1.833646 -0.083546 -1.811793
N 1.669084 -0.800668 -0.996090
O -1.767395 -0.976330 0.395954
H -2.070482 -1.728556 -0.116705
H -1.628373 -0.252619 -0.219137
5
Structure 944 | Energy: -10.835002 Hartree
N -1.694295 -0.619365 -0.075000
N -1.858856 -1.336487 0.740704
O 1.760545 -0.440512 -1.340840
H 1.457458 -1.192738 -1.853498
H 1.899567 0.283199 -1.955931
5
Structure 945 | Energy: -10.835031 Hartree
N -1.644168 -0.611751 -0.099677
N -1.808730 -1.328874 0.716027
O 1.760545 -0.440512 -1.340840
H 1.457458 -1.192738 -1.853498
H 1.899567 0.283199 -1.955931
5
Structure 946 | Energy: -10.835029 Hartree
N -1.647103 -0.611491 -0.097686
N -1.811664 -1.328613 0.718018
O 1.760545 -0.440512 -1.340840
H 1.457458 -1.192738 -1.853498
H 1.899567 0.283199 -1.955931
5
Structure 947 | Energy: -10.834963 Hartree
N -2.030895 -0.267092 -0.416283
N -2.195456 -0.984215 0.399421
O 1.760545 -0.440512 -1.340840
H 1.457458 -1.192738 -1.853498
H 1.899567 0.283199 -1.955931
5
Structure 948 | Energy: -10.834518 Hartree
N 1.833646 -0.083546 -1.811793
N 1.669084 -0.800668 -0.996090
O -2.103995 -0.624058 0.054670
H -2.407082 -1.376284 -0.457988
H -1.964973 0.099653 -0.560421
5
Structure 949 | Energy: -10.834513 Hartree
N 1.837360 -0.074372 -1.825539
N 1.672799 -0.791494 -1.009835
O -2.109249 -0.626749 0.056932
H -2.412336 -1.378975 -0.455726
H -1.970227 0.096962 -0.558158
5
Structure 950 | Energy: -10.834956 Hartree
N -2.036148 -0.269784 -0.414021
N -2.200710 -0.986906 0.401683
O 1.764260 -0.431338 -1.354586
H 1.461173 -1.183564 -1.867244
H 1.903282 0.292373 -1.969677
5
Structure 951 | Energy: -10.834513 Hartree
N 1.837360 -0.074372 -1.825539
N 1.672799 -0.791494 -1.009835
O -2.109249 -0.626749 0.056932
H -2.412336 -1.378975 -0.455726
H -1.970227 0.096962 -0.558158
5
Structure 952 | Energy: -10.834956 Hartree
N -2.036148 -0.269784 -0.414021
N -2.200710 -0.986906 0.401683
O 1.764260 -0.431338 -1.354586
H 1.461173 -1.183564 -1.867244
H 1.903282 0.292373 -1.969677
5
Structure 953 | Energy: -10.834513 Hartree
N -2.166036 -0.293165 -1.305032
N -2.551099 -1.049980 -2.001936
O 1.764260 -0.431338 -1.354586
H 1.461173 -1.183564 -1.867244
H 1.903282 0.292373 -1.969677
5
Structure 954 | Energy: -10.834538 Hartree
N -3.064244 0.347003 -0.450082
N -3.449307 -0.409811 -1.146986
O 1.764260 -0.431338 -1.354586
H 1.461173 -1.183564 -1.867244
H 1.903282 0.292373 -1.969677
5
Structure 955 | Energy: -10.834544 Hartree
N -3.064244 0.347003 -0.450082
N -3.449307 -0.409811 -1.146986
O 1.753592 -0.551021 -1.351838
H 1.432557 -1.288553 -1.874817
H 1.912056 0.176932 -1.957143
5
Structure 956 | Energy: -10.834544 Hartree
N -2.634543 1.660577 -0.524529
N -2.522664 2.422882 -1.307530
O 1.753592 -0.551021 -1.351838
H 1.432557 -1.288553 -1.874817
H 1.912056 0.176932 -1.957143
5
Structure 957 | Energy: -10.834576 Hartree
N -2.441191 0.957313 -1.295617
N -2.329313 1.719619 -2.078618
O 1.753592 -0.551021 -1.351838
H 1.432557 -1.288553 -1.874817
H 1.912056 0.176932 -1.957143
5
Structure 958 | Energy: -10.834556 Hartree
N -2.442725 1.035155 -1.383975
N -2.330847 1.797461 -2.166976
O 1.753592 -0.551021 -1.351838
H 1.432557 -1.288553 -1.874817
H 1.912056 0.176932 -1.957143
5
Structure 959 | Energy: -10.834556 Hartree
N -2.442850 1.034789 -1.382222
N -2.331260 1.797381 -2.164985
O 1.753592 -0.551021 -1.351838
H 1.432557 -1.288553 -1.874817
H 1.912056 0.176932 -1.957143
5
Structure 960 | Energy: -10.834576 Hartree
N -2.564932 0.655455 -1.262030
N -2.525050 1.483116 -1.983212
O 1.753592 -0.551021 -1.351838
H 1.432557 -1.288553 -1.874817
H 1.912056 0.176932 -1.957143
5
Structure 961 | Energy: -10.834632 Hartree
N -2.720670 0.671743 -1.958442
N -2.369312 1.466829 -1.286800
O 1.753592 -0.551021 -1.351838
H 1.432557 -1.288553 -1.874817
H 1.912056 0.176932 -1.957143
5
Structure 962 | Energy: -10.834620 Hartree
N -2.739172 0.684053 -1.962576
N -2.350810 1.454518 -1.282666
O 1.753592 -0.551021 -1.351838
H 1.432557 -1.288553 -1.874817
H 1.912056 0.176932 -1.957143
5
Structure 963 | Energy: -10.834620 Hartree
N -2.739172 0.684053 -1.962576
N -2.350810 1.454518 -1.282666
O 1.753445 -0.550941 -1.351817
H 1.425430 -1.286339 -1.873467
H 1.921520 0.173439 -1.958815
5
Structure 964 | Energy: -10.834646 Hartree
N -2.739172 0.684053 -1.962576
N -2.350810 1.454518 -1.282666
O 1.671113 -0.774296 -1.649014
H 1.283744 -1.457167 -2.200517
H 1.850924 -0.021060 -2.216223
5
Structure 965 | Energy: -10.836337 Hartree
N 0.523648 -0.366133 1.873199
N -0.027500 -0.658509 0.970126
O -1.574679 -2.356167 -1.242859
H -1.130278 -1.775624 -0.618642
H -1.896671 -1.804989 -1.958447
5
Structure 966 | Energy: -10.835200 Hartree
N 0.523648 -0.366133 1.873199
N -0.027500 -0.658509 0.970126
O -1.627686 -2.313249 -1.238818
H -1.357122 -1.426321 -1.492436
H -0.828498 -2.835492 -1.148793
5
Structure 967 | Energy: -10.835885 Hartree
N 0.523648 -0.366133 1.873199
N -0.027500 -0.658509 0.970126
O -1.627722 -2.313237 -1.239028
H -1.272338 -1.454191 -0.994261
H -0.912716 -2.807808 -1.643638
5
Structure 968 | Energy: -10.834973 Hartree
N 0.523648 -0.366133 1.873199
N -0.027500 -0.658509 0.970126
O -1.540693 -2.271934 -1.301910
H -1.849767 -1.731790 -0.569184
H -1.716607 -3.185782 -1.070655
5
Structure 969 | Energy: -10.835098 Hartree
N 0.523648 -0.366133 1.873199
N -0.027500 -0.658509 0.970126
O -1.646780 -1.556853 -2.065198
H -1.955855 -1.016709 -1.332473
H -1.822694 -2.470700 -1.833944
5
Structure 970 | Energy: -10.835121 Hartree
N 0.501447 -0.378439 1.833547
N -0.049700 -0.670816 0.930473
O -1.646780 -1.556853 -2.065198
H -1.955855 -1.016709 -1.332473
H -1.822694 -2.470700 -1.833944
5
Structure 971 | Energy: -10.835105 Hartree
N 0.548332 -0.472072 1.834801
N -0.014866 -0.737166 0.930742
O -1.646780 -1.556853 -2.065198
H -1.955855 -1.016709 -1.332473
H -1.822694 -2.470700 -1.833944
5
Structure 972 | Energy: -10.834953 Hartree
N 0.548332 -0.472072 1.834801
N -0.014866 -0.737166 0.930742
O -2.028318 -1.513824 -1.836369
H -2.239647 -0.956215 -1.082325
H -2.212416 -2.418415 -1.576821
5
Structure 973 | Energy: -10.834953 Hartree
N 0.548200 -0.472374 1.834931
N -0.014998 -0.737468 0.930872
O -2.028318 -1.513824 -1.836369
H -2.239647 -0.956215 -1.082325
H -2.212416 -2.418415 -1.576821
5
Structure 974 | Energy: -10.835068 Hartree
N 0.377258 -1.139753 2.080662
N -0.185940 -1.404847 1.176603
O -2.028318 -1.513824 -1.836369
H -2.239647 -0.956215 -1.082325
H -2.212416 -2.418415 -1.576821
5
Structure 975 | Energy: -10.835277 Hartree
N 0.036010 -2.030396 1.709677
N -0.527188 -2.295490 0.805618
O -2.028318 -1.513824 -1.836369
H -2.239647 -0.956215 -1.082325
H -2.212416 -2.418415 -1.576821
5
Structure 976 | Energy: -10.834017 Hartree
N -1.768845 -1.400691 -1.327626
N -2.332042 -1.665785 -2.231685
O -0.223463 -2.143528 1.200933
H -0.434792 -1.585919 1.954977
H -0.407561 -3.048119 1.460481
5
Structure 977 | Energy: -10.833880 Hartree
N -1.790994 -1.472362 -1.299887
N -2.309893 -1.594115 -2.259423
O -0.223463 -2.143528 1.200933
H -0.434792 -1.585919 1.954977
H -0.407561 -3.048119 1.460481
5
Structure 978 | Energy: -10.833881 Hartree
N -1.790994 -1.472362 -1.299887
N -2.309893 -1.594115 -2.259423
O -0.223462 -2.143528 1.200934
H -0.438081 -1.585593 1.953806
H -0.404295 -3.048444 1.461644
5
Structure 979 | Energy: -10.835170 Hartree
N 0.013861 -2.102067 1.737415
N -0.505039 -2.223819 0.777879
O -2.028317 -1.513824 -1.836369
H -2.242935 -0.955888 -1.083496
H -2.209150 -2.418739 -1.575658
5
Structure 980 | Energy: -10.835123 Hartree
N -0.037294 -2.084219 1.651329
N -0.556193 -2.205972 0.691794
O -2.028317 -1.513824 -1.836369
H -2.242935 -0.955888 -1.083496
H -2.209150 -2.418739 -1.575658
5
Structure 981 | Energy: -10.833736 Hartree
N -1.790994 -1.472362 -1.299887
N -2.309893 -1.594115 -2.259423
O -0.274617 -2.125681 1.114848
H -0.489235 -1.567745 1.867720
H -0.455450 -3.030596 1.375558
5
Structure 982 | Energy: -10.833738 Hartree
N -1.808954 -1.483351 -1.291917
N -2.333879 -1.609216 -2.247637
O -0.274617 -2.125681 1.114848
H -0.489235 -1.567745 1.867720
H -0.455450 -3.030596 1.375558
5
Structure 983 | Energy: -10.833789 Hartree
N -1.808954 -1.483351 -1.291917
N -2.333879 -1.609216 -2.247637
O -0.326082 -2.248504 1.119158
H -0.518230 -1.689704 1.877439
H -0.553275 -3.146421 1.367495
5
Structure 984 | Energy: -10.835132 Hartree
N -0.087082 -2.204546 1.653341
N -0.612008 -2.330412 0.697622
O -2.047953 -1.527309 -1.826101
H -2.240101 -0.968508 -1.067819
H -2.275146 -2.425225 -1.577764
5
Structure 985 | Energy: -10.835089 Hartree
N -0.087082 -2.204546 1.653341
N -0.612008 -2.330412 0.697622
O -2.118542 -1.767492 -1.890462
H -2.310690 -1.208691 -1.132181
H -2.345735 -2.665408 -1.642125
5
Structure 986 | Energy: -10.835089 Hartree
N -0.087082 -2.204546 1.653341
N -0.612008 -2.330412 0.697622
O -1.563886 -3.443551 -1.974372
H -1.363004 -4.072409 -1.275550
H -2.273356 -2.884121 -1.653075
5
Structure 987 | Energy: -10.835176 Hartree
N -0.280791 -2.516530 1.820789
N -0.744204 -2.553575 0.826473
O -1.563886 -3.443551 -1.974372
H -1.363004 -4.072409 -1.275550
H -2.273356 -2.884121 -1.653075
5
Structure 988 | Energy: -10.835831 Hartree
N -0.280791 -2.516530 1.820789
N -0.744204 -2.553575 0.826473
O -1.635962 -3.434392 -1.962128
H -1.712787 -3.259706 -1.019922
H -0.779580 -3.842187 -2.103037
5
Structure 989 | Energy: -10.835813 Hartree
N -0.280791 -2.516530 1.820789
N -0.744204 -2.553575 0.826473
O -1.633064 -3.434173 -1.949461
H -1.709889 -3.259486 -1.007255
H -0.776682 -3.841968 -2.090370
5
Structure 990 | Energy: -10.835708 Hartree
N -0.280791 -2.516530 1.820789
N -0.744204 -2.553575 0.826473
O -1.600847 -3.703458 -1.874422
H -1.693101 -3.412309 -0.962890
H -0.785029 -4.204593 -1.927766
5
Structure 991 | Energy: -10.835709 Hartree
N -0.086400 -2.781691 1.824915
N -0.547820 -2.730369 0.830307
O -1.600847 -3.703458 -1.874422
H -1.693101 -3.412309 -0.962890
H -0.785029 -4.204593 -1.927766
5
Structure 992 | Energy: -10.835695 Hartree
N 0.302008 -3.169759 1.724682
N -0.216662 -3.007417 0.771049
O -1.600847 -3.703458 -1.874422
H -1.693101 -3.412309 -0.962890
H -0.785029 -4.204593 -1.927766
5
Structure 993 | Energy: -10.835695 Hartree
N 0.302008 -3.169759 1.724682
N -0.216662 -3.007417 0.771049
O -1.525509 -3.696679 -1.914244
H -0.766699 -3.328951 -1.452558
H -1.950750 -4.309486 -1.311600
5
Structure 994 | Energy: -10.835584 Hartree
N 0.297873 -3.046179 1.656363
N -0.220797 -2.883838 0.702730
O -1.525509 -3.696679 -1.914244
H -0.766699 -3.328951 -1.452558
H -1.950750 -4.309486 -1.311600
5
Structure 995 | Energy: -10.835808 Hartree
N 0.297873 -3.046179 1.656363
N -0.220797 -2.883838 0.702730
O -1.521690 -3.068390 -1.999781
H -0.769720 -2.787606 -1.470752
H -1.929592 -3.804105 -1.539476
5
Structure 996 | Energy: -10.833653 Hartree
N -1.243103 -3.175015 -1.467608
N -1.761773 -3.012674 -2.421241
O 0.019286 -2.939553 1.124190
H 0.771256 -2.658770 1.653218
H -0.388616 -3.675269 1.584495
5
Structure 997 | Energy: -10.833626 Hartree
N -1.237245 -3.168606 -1.469787
N -1.767631 -3.019083 -2.419062
O 0.019286 -2.939553 1.124190
H 0.771256 -2.658770 1.653218
H -0.388616 -3.675269 1.584495
5
Structure 998 | Energy: -10.833649 Hartree
N -1.237245 -3.168606 -1.469787
N -1.767631 -3.019083 -2.419062
O 0.047430 -2.919495 1.110247
H 0.799400 -2.638711 1.639276
H -0.360472 -3.655210 1.570552
5
Structure 999 | Energy: -10.833641 Hartree
N -1.086937 -3.207971 -1.535418
N -1.566050 -3.073467 -2.513757
O 0.047430 -2.919495 1.110247
H 0.799400 -2.638711 1.639276
H -0.360472 -3.655210 1.570552
5
Structure 1000 | Energy: -10.833519 Hartree
N -1.086937 -3.207971 -1.535418
N -1.566050 -3.073467 -2.513757
O -0.171740 -2.884703 1.121178
H 0.580230 -2.603919 1.650206
H -0.579642 -3.620418 1.581483
5
Structure 1001 | Energy: -10.833402 Hartree
N -1.118244 -3.161047 -1.496804
N -1.597357 -3.026544 -2.475144
O -0.171740 -2.884703 1.121178
H 0.580230 -2.603919 1.650206
H -0.579642 -3.620418 1.581483
5
Structure 1002 | Energy: -10.833374 Hartree
N -1.118244 -3.161047 -1.496804
N -1.597357 -3.026544 -2.475144
O -0.173753 -2.886509 1.121113
H 0.585904 -2.576964 1.622385
H -0.553369 -3.618698 1.610330
5
Structure 1003 | Energy: -10.833374 Hartree
N -1.118244 -3.161047 -1.496804
N -1.597357 -3.026544 -2.475144
O -0.173753 -4.131878 0.949898
H 0.585904 -4.565214 1.349037
H -0.553369 -3.558876 1.618555
5
Structure 1004 | Energy: -10.833372 Hartree
N -1.118244 -3.161047 -1.496804
N -1.597357 -3.026544 -2.475144
O -0.171307 -4.132091 0.949111
H 0.600524 -4.525183 1.366154
H -0.606805 -3.595526 1.613928
5
Structure 1005 | Energy: -10.835389 Hartree
N 0.087068 -4.191315 1.498814
N -0.392044 -4.056811 0.520475
O -1.376619 -3.101823 -2.046508
H -0.604788 -3.494915 -1.629465
H -1.812117 -2.565258 -1.381691
5
Structure 1006 | Energy: -10.835827 Hartree
N 0.087068 -4.191315 1.498814
N -0.392044 -4.056811 0.520475
O -1.376338 -3.102343 -2.046524
H -1.272810 -2.261478 -1.592213
H -1.148562 -3.790448 -1.418693
5
Structure 1007 | Energy: -10.833512 Hartree
N -1.118244 -3.161047 -1.496804
N -1.597357 -3.026544 -2.475144
O -0.171026 -4.132611 0.949095
H -0.067497 -3.291746 1.403406
H 0.056750 -4.820716 1.576926
5
Structure 1008 | Energy: -10.835827 Hartree
N 0.087068 -4.191315 1.498814
N -0.392044 -4.056811 0.520475
O -1.376338 -3.102343 -2.046524
H -1.272810 -2.261478 -1.592213
H -1.148562 -3.790448 -1.418693
5
Structure 1009 | Energy: -10.835767 Hartree
N 0.087068 -4.191315 1.498814
N -0.392044 -4.056811 0.520475
O -0.722479 -2.894085 -2.159606
H -0.593303 -2.082464 -1.660854
H -0.686898 -3.617998 -1.531731
5
Structure 1010 | Energy: -10.835211 Hartree
N 0.067153 -4.147459 1.388501
N -0.411960 -4.012956 0.410161
O -0.722479 -2.894085 -2.159606
H -0.593303 -2.082464 -1.660854
H -0.686898 -3.617998 -1.531731
5
Structure 1011 | Energy: -10.835127 Hartree
N 0.067153 -4.147459 1.388501
N -0.411960 -4.012956 0.410161
O -0.722179 -2.893602 -2.159685
H -1.305488 -3.230020 -1.473578
H 0.020526 -2.478114 -1.717754
5
Structure 1012 | Energy: -10.835390 Hartree
N 0.067153 -4.147459 1.388501
N -0.411960 -4.012956 0.410161
O -0.735904 -2.866861 -2.151994
H -1.196976 -3.441434 -1.534379
H 0.129861 -2.691131 -1.779017
5
Structure 1013 | Energy: -10.831475 Hartree
N 0.067153 -4.147459 1.388501
N -0.411960 -4.012956 0.410161
O 0.448225 -2.382292 -1.439549
H -0.012847 -2.956865 -0.821934
H 1.313990 -2.206562 -1.066571
5
Structure 1014 | Energy: -10.831461 Hartree
N 0.067153 -4.147459 1.388501
N -0.411960 -4.012956 0.410161
O 0.592579 -2.607825 -1.547166
H 0.083649 -3.096628 -0.894302
H 1.470095 -2.481451 -1.181740
5
Structure 1015 | Energy: -10.835442 Hartree
N -1.779152 -1.361383 -3.378449
N -1.644739 -1.797725 -2.380287
O 0.592579 -2.607825 -1.547166
H 0.083649 -3.096628 -0.894302
H 1.470095 -2.481451 -1.181740
5
Structure 1016 | Energy: -10.835369 Hartree
N -1.779152 -1.361383 -3.378449
N -1.644739 -1.797725 -2.380287
O 1.643848 -3.287749 -2.434783
H 1.134919 -3.776552 -1.781919
H 2.521365 -3.161374 -2.069357
5
Structure 1017 | Energy: -10.834360 Hartree
N 1.597265 -3.089857 -2.876887
N 1.731678 -3.526199 -1.878725
O -1.732569 -1.559275 -2.936345
H -2.241499 -2.048078 -2.283481
H -0.855053 -1.432900 -2.570919
5
Structure 1018 | Energy: -10.834362 Hartree
N 1.622744 -3.065159 -2.832995
N 1.757158 -3.501501 -1.834833
O -1.732569 -1.559275 -2.936345
H -2.241499 -2.048078 -2.283481
H -0.855053 -1.432900 -2.570919
5
Structure 1019 | Energy: -10.835357 Hartree
N -1.779152 -1.361383 -3.378449
N -1.644739 -1.797725 -2.380287
O 1.669327 -3.263051 -2.390891
H 1.160398 -3.751854 -1.738026
H 2.546844 -3.136676 -2.025465
5
Structure 1020 | Energy: -10.834362 Hartree
N 1.622744 -3.065159 -2.832995
N 1.757158 -3.501501 -1.834833
O -1.732569 -1.559275 -2.936345
H -2.241499 -2.048078 -2.283481
H -0.855053 -1.432900 -2.570919
5
Structure 1021 | Energy: -10.835357 Hartree
N -1.779152 -1.361383 -3.378449
N -1.644739 -1.797725 -2.380287
O 1.669327 -3.263051 -2.390891
H 1.160398 -3.751854 -1.738026
H 2.546844 -3.136676 -2.025465
5
Structure 1022 | Energy: -10.834915 Hartree
N -1.796880 -1.246660 -2.451390
N -1.627011 -1.912447 -3.307346
O 1.669327 -3.263051 -2.390891
H 1.160398 -3.751854 -1.738026
H 2.546844 -3.136676 -2.025465
5
Structure 1023 | Energy: -10.834937 Hartree
N -1.745261 -1.208943 -2.398052
N -1.575392 -1.874730 -3.254008
O 1.556105 -3.361154 -2.352042
H 1.047176 -3.849957 -1.699178
H 2.433621 -3.234779 -1.986616
5
Structure 1024 | Energy: -10.834910 Hartree
N 1.491794 -3.048540 -1.867088
N 1.661663 -3.714326 -2.723044
O -1.680950 -1.521557 -2.883007
H -2.189879 -2.010361 -2.230142
H -0.803434 -1.395183 -2.517580
5
Structure 1025 | Energy: -10.834446 Hartree
N 1.491794 -3.048540 -1.867088
N 1.661663 -3.714326 -2.723044
O -1.427534 -1.195882 -4.219694
H -1.936463 -1.684685 -3.566830
H -0.550017 -1.069507 -3.854268
5
Structure 1026 | Energy: -10.834457 Hartree
N 1.491794 -3.048540 -1.867088
N 1.661663 -3.714326 -2.723044
O -1.431120 -1.182243 -4.114279
H -0.786245 -1.892350 -4.050616
H -1.643304 -1.078322 -5.043645
5
Structure 1027 | Energy: -10.834480 Hartree
N 1.482761 -3.077653 -1.847757
N 1.670695 -3.685213 -2.742374
O -1.431120 -1.182243 -4.114279
H -0.786245 -1.892350 -4.050616
H -1.643304 -1.078322 -5.043645
5
Structure 1028 | Energy: -10.834447 Hartree
N 1.482761 -3.077653 -1.847757
N 1.670695 -3.685213 -2.742374
O -1.317174 -0.954446 -4.006261
H -0.730958 -1.715118 -3.962682
H -1.561195 -0.840553 -4.926601
5
Structure 1029 | Energy: -10.834418 Hartree
N 1.482761 -3.077653 -1.847757
N 1.670695 -3.685213 -2.742374
O -1.273932 -0.815111 -3.870139
H -0.744242 -1.616729 -3.838400
H -1.592249 -0.724521 -4.770144
5
Structure 1030 | Energy: -10.834887 Hartree
N 1.374565 -2.709846 -1.394645
N 1.163766 -1.961935 -0.619414
O -1.273932 -0.815111 -3.870139
H -0.744242 -1.616729 -3.838400
H -1.592249 -0.724521 -4.770144
5
Structure 1031 | Energy: -10.834891 Hartree
N 1.493988 -2.590092 -1.437415
N 1.269600 -1.845984 -0.662339
O -1.273932 -0.815111 -3.870139
H -0.744242 -1.616729 -3.838400
H -1.592249 -0.724521 -4.770144
5
Structure 1032 | Energy: -10.834924 Hartree
N 1.505009 -2.556450 -1.463994
N 1.258579 -1.879626 -0.635761
O -1.273932 -0.815111 -3.870139
H -0.744242 -1.616729 -3.838400
H -1.592249 -0.724521 -4.770144
5
Structure 1033 | Energy: -10.834917 Hartree
N 1.539935 -2.520968 -1.479321
N 1.223654 -1.915107 -0.620433
O -1.273932 -0.815111 -3.870139
H -0.744242 -1.616729 -3.838400
H -1.592249 -0.724521 -4.770144
5
Structure 1034 | Energy: -10.834399 Hartree
N -1.103964 -1.157825 -4.348165
N -1.420245 -0.551965 -3.489277
O 1.369967 -2.178253 -1.001295
H 1.899656 -2.979871 -0.969557
H 1.051650 -2.087664 -1.901300
5
Structure 1035 | Energy: -10.834402 Hartree
N -1.103964 -1.157825 -4.348165
N -1.420245 -0.551965 -3.489277
O 1.401877 -2.194706 -0.966670
H 1.931567 -2.996324 -0.934931
H 1.083560 -2.104116 -1.866675
5
Structure 1036 | Energy: -10.834366 Hartree
N -1.103964 -1.157825 -4.348165
N -1.420245 -0.551965 -3.489277
O 1.601427 -2.081747 0.019677
H 2.131116 -2.883365 0.051416
H 1.283110 -1.991157 -0.880328
5
Structure 1037 | Energy: -10.834380 Hartree
N -0.553933 -1.418663 -5.004728
N -0.870214 -0.812803 -4.145840
O 1.601427 -2.081747 0.019677
H 2.131116 -2.883365 0.051416
H 1.283110 -1.991157 -0.880328
5
Structure 1038 | Energy: -10.834725 Hartree
N 1.771394 -2.424462 -0.458349
N 1.455113 -1.818601 0.400539
O -0.723901 -1.075949 -4.526702
H -0.194212 -1.877567 -4.494963
H -1.042218 -0.985359 -5.426707
5
Structure 1039 | Energy: -10.834627 Hartree
N 1.330028 -2.237079 0.426758
N 1.896479 -2.005983 -0.484569
O -0.723901 -1.075949 -4.526702
H -0.194212 -1.877567 -4.494963
H -1.042218 -0.985359 -5.426707
5
Structure 1040 | Energy: -10.834360 Hartree
N 2.055665 -2.275590 0.256990
N 1.170843 -1.967473 -0.314800
O -0.723901 -1.075949 -4.526702
H -0.194212 -1.877567 -4.494963
H -1.042218 -0.985359 -5.426707
5
Structure 1041 | Energy: -10.834361 Hartree
N 2.068688 -2.281224 0.282453
N 1.183867 -1.973106 -0.289337
O -0.723901 -1.075949 -4.526702
H -0.194212 -1.877567 -4.494963
H -1.042218 -0.985359 -5.426707
5
Structure 1042 | Energy: -10.834371 Hartree
N 2.068688 -2.281224 0.282453
N 1.183867 -1.973106 -0.289337
O -0.725809 -1.073986 -4.528900
H -0.187494 -1.866134 -4.445915
H -1.018647 -1.027942 -5.440859
5
Structure 1043 | Energy: -10.834371 Hartree
N 2.068688 -2.281224 0.282453
N 1.183867 -1.973106 -0.289337
O -0.725809 1.073350 -3.371775
H -0.187494 1.439670 -2.664530
H -1.018647 1.809702 -3.911750
5
Structure 1044 | Energy: -10.834359 Hartree
N 2.051907 -2.274360 0.310199
N 1.200648 -1.979969 -0.317082
O -0.725809 1.073350 -3.371775
H -0.187494 1.439670 -2.664530
H -1.018647 1.809702 -3.911750
5
Structure 1045 | Energy: -10.834356 Hartree
N 2.009557 -2.303804 0.293119
N 1.158298 -2.009413 -0.334162
O -0.725809 1.073350 -3.371775
H -0.187494 1.439670 -2.664530
H -1.018647 1.809702 -3.911750
5
Structure 1046 | Energy: -10.834374 Hartree
N 2.009557 -2.303804 0.293119
N 1.158298 -2.009413 -0.334162
O -0.387249 0.875796 -3.751125
H 0.113602 1.279076 -3.036504
H -0.618728 1.577451 -4.362386
5
Structure 1047 | Energy: -10.834382 Hartree
N 2.009557 -2.303804 0.293119
N 1.158298 -2.009413 -0.334162
O -0.437700 0.881578 -3.863946
H 0.063151 1.284858 -3.149325
H -0.669179 1.583233 -4.475207
5
Structure 1048 | Energy: -10.834352 Hartree
N 2.009557 -2.303804 0.293119
N 1.158298 -2.009413 -0.334162
O -0.406915 0.897058 -3.817076
H -0.186098 1.829577 -3.740811
H -0.908558 0.792821 -4.627650
5
Structure 1049 | Energy: -10.834724 Hartree
N 0.003002 0.796207 -3.544523
N -0.848257 1.090598 -4.171803
O 1.599641 -2.202954 0.020566
H 1.820458 -1.270434 0.096831
H 1.097997 -2.307190 -0.790009
5
Structure 1050 | Energy: -10.834746 Hartree
N 0.003002 0.796207 -3.544523
N -0.848257 1.090598 -4.171803
O 1.895384 -2.217605 -0.161067
H 2.061465 -1.276835 -0.053651
H 1.378188 -2.321648 -0.961833
5
Structure 1051 | Energy: -10.834749 Hartree
N 0.003002 0.796207 -3.544523
N -0.848257 1.090598 -4.171803
O 1.909061 -2.178494 -0.145889
H 1.717064 -1.346128 -0.586880
H 1.505494 -2.873121 -0.669501
5
Structure 1052 | Energy: -10.834627 Hartree
N -0.043481 1.107732 -4.019995
N -0.894740 1.402123 -4.647275
O 1.909061 -2.178494 -0.145889
H 1.717064 -1.346128 -0.586880
H 1.505494 -2.873121 -0.669501
5
Structure 1053 | Energy: -10.834612 Hartree
N 0.474296 0.945611 -4.365138
N -0.311328 1.262019 -5.063329
O 1.909061 -2.178494 -0.145889
H 1.717064 -1.346128 -0.586880
H 1.505494 -2.873121 -0.669501
5
Structure 1054 | Energy: -10.834604 Hartree
N 0.474296 0.945611 -4.365138
N -0.311328 1.262019 -5.063329
O 1.773509 -2.199993 -0.109316
H 1.615183 -1.365369 -0.559322
H 1.342899 -2.883498 -0.625975
5
Structure 1055 | Energy: -10.834610 Hartree
N 0.474296 0.945611 -4.365138
N -0.311328 1.262019 -5.063329
O 1.770551 -2.199762 -0.107586
H 1.630328 -1.366128 -0.565365
H 1.374708 -2.886400 -0.647381
5
Structure 1056 | Energy: -10.834605 Hartree
N 0.462924 0.968200 -4.396332
N -0.322700 1.284607 -5.094523
O 1.770551 -2.199762 -0.107586
H 1.630328 -1.366128 -0.565365
H 1.374708 -2.886400 -0.647381
5
Structure 1057 | Energy: -10.834629 Hartree
N 0.462924 0.968200 -4.396332
N -0.322700 1.284607 -5.094523
O 2.107501 -1.833928 0.003248
H 1.898910 -1.036363 -0.491271
H 1.747419 -2.572705 -0.490809
5
Structure 1058 | Energy: -10.834629 Hartree
N 0.463814 0.964298 -4.399136
N -0.323590 1.288509 -5.091719
O 2.107501 -1.833928 0.003248
H 1.898910 -1.036363 -0.491271
H 1.747419 -2.572705 -0.490809
5
Structure 1059 | Energy: -10.834634 Hartree
N 0.475341 0.947302 -4.372160
N -0.312063 1.271513 -5.064743
O 2.107501 -1.833928 0.003248
H 1.898910 -1.036363 -0.491271
H 1.747419 -2.572705 -0.490809
5
Structure 1060 | Energy: -10.834415 Hartree
N 2.469384 -1.992745 0.294225
N 1.681980 -1.668534 -0.398357
O 0.113458 1.106118 -4.663137
H -0.095132 1.903683 -5.157657
H -0.246623 0.367341 -5.157194
5
Structure 1061 | Energy: -10.834410 Hartree
N 2.469384 -1.992745 0.294225
N 1.681980 -1.668534 -0.398357
O 0.001877 1.102419 -4.714671
H -0.206714 1.899984 -5.209190
H -0.358205 0.363642 -5.208728
5
Structure 1062 | Energy: -10.834408 Hartree
N 2.469384 -1.992745 0.294225
N 1.681980 -1.668534 -0.398357
O 0.044818 1.042537 -4.618457
H -0.163773 1.840103 -5.112976
H -0.315264 0.303760 -5.112514
5
Structure 1063 | Energy: -10.834389 Hartree
N 2.702497 -1.633173 0.694406
N 1.915092 -1.308962 0.001824
O 0.044818 1.042537 -4.618457
H -0.163773 1.840103 -5.112976
H -0.315264 0.303760 -5.112514
5
Structure 1064 | Energy: -10.834313 Hartree
N 2.702497 -1.633173 0.694406
N 1.915092 -1.308962 0.001824
O 0.019236 0.232816 -4.033993
H -0.189355 1.030381 -4.528512
H -0.340846 -0.505961 -4.528050
5
Structure 1065 | Energy: -10.834674 Hartree
N 2.702497 -1.633173 0.694406
N 1.915092 -1.308962 0.001824
O -1.445524 0.100579 3.631890
H -2.023038 -0.204987 4.337068
H -1.624542 1.034377 3.507326
5
Structure 1066 | Energy: -10.834387 Hartree
N -1.094153 -0.026374 4.010669
N -1.881557 0.297837 3.318086
O 2.351125 -1.506219 0.315627
H 1.773611 -1.811786 1.020806
H 2.172107 -0.572421 0.191063
5
Structure 1067 | Energy: -10.834384 Hartree
N -1.094153 -0.026374 4.010669
N -1.881557 0.297837 3.318086
O 2.280519 -1.536483 0.297295
H 1.703005 -1.842050 1.002473
H 2.101501 -0.602685 0.172730
5
Structure 1068 | Energy: -10.834483 Hartree
N -1.284721 0.520963 3.330416
N -1.690989 -0.249501 3.998339
O 2.280519 -1.536483 0.297295
H 1.703005 -1.842050 1.002473
H 2.101501 -0.602685 0.172730
5
Structure 1069 | Energy: -10.834482 Hartree
N -1.295227 0.525360 3.381807
N -1.701495 -0.245103 4.049730
O 2.280519 -1.536483 0.297295
H 1.703005 -1.842050 1.002473
H 2.101501 -0.602685 0.172730
5
Structure 1070 | Energy: -10.834481 Hartree
N -1.350103 0.549349 3.300680
N -1.741953 -0.206819 3.993105
O 2.280519 -1.536483 0.297295
H 1.703005 -1.842050 1.002473
H 2.101501 -0.602685 0.172730
5
Structure 1071 | Energy: -10.834628 Hartree
N -1.350103 0.549349 3.300680
N -1.741953 -0.206819 3.993105
O 2.262237 -1.529815 0.381679
H 2.609442 -1.581805 -0.513259
H 1.485247 -0.968773 0.349106
5
Structure 1072 | Energy: -10.834629 Hartree
N -1.350103 0.549349 3.300680
N -1.741953 -0.206819 3.993105
O 2.261728 -1.531411 0.381008
H 2.613869 -1.561116 -0.513019
H 1.488894 -0.964129 0.359526
5
Structure 1073 | Energy: -10.834627 Hartree
N -1.304795 0.575420 3.357752
N -1.696644 -0.180747 4.050178
O 2.261728 -1.531411 0.381008
H 2.613869 -1.561116 -0.513019
H 1.488894 -0.964129 0.359526
5
Structure 1074 | Energy: -10.834406 Hartree
N 2.434114 -1.123248 -0.016431
N 2.042264 -1.879415 0.675995
O -1.477180 0.167257 3.755191
H -1.125039 0.137552 2.861164
H -2.250014 0.734539 3.733709
5
Structure 1075 | Energy: -10.834406 Hartree
N 2.434114 -1.123248 -0.016431
N 2.042264 -1.879415 0.675995
O -0.446552 -0.886484 -4.223866
H -0.046982 -1.463107 -3.566584
H -0.866306 -1.451650 -4.874970
5
Structure 1076 | Energy: -10.834408 Hartree
N 2.434114 -1.123248 -0.016431
N 2.042264 -1.879415 0.675995
O -0.443781 -0.964874 -4.285629
H -0.746938 -0.133880 -3.909178
H -0.210332 -1.536676 -3.552085
5
Structure 1077 | Energy: -10.834599 Hartree
N -0.251756 -0.572287 -4.569733
N -0.643606 -1.328455 -3.877308
O 2.242089 -1.515834 0.267674
H 1.938932 -0.684841 0.644124
H 2.475539 -2.087636 1.001218
5
Structure 1078 | Energy: -10.834617 Hartree
N -0.251756 -0.572287 -4.569733
N -0.643606 -1.328455 -3.877308
O 2.367606 -1.072633 0.224474
H 1.990914 -0.261175 0.576340
H 2.669936 -1.589534 0.973441
5
Structure 1079 | Energy: -10.834650 Hartree
N -0.544526 0.113557 -3.903188
N -0.936376 -0.642610 -3.210763
O 2.367606 -1.072633 0.224474
H 1.990914 -0.261175 0.576340
H 2.669936 -1.589534 0.973441
5
Structure 1080 | Energy: -10.834503 Hartree
N -0.544526 0.113557 -3.903188
N -0.936376 -0.642610 -3.210763
O 2.385075 -1.104730 0.250640
H 1.968775 -0.300709 -0.072493
H 2.414800 -1.040553 1.206956
5
Structure 1081 | Energy: -10.834502 Hartree
N -0.547701 0.114237 -3.904226
N -0.933200 -0.643290 -3.209725
O 2.385075 -1.104730 0.250640
H 1.968775 -0.300709 -0.072493
H 2.414800 -1.040553 1.206956
5
Structure 1082 | Energy: -10.834494 Hartree
N 2.556195 -0.677388 -0.061181
N 2.170695 -1.434915 0.633320
O -0.718820 -0.313105 -3.592405
H -1.135121 0.490915 -3.915538
H -0.689096 -0.248928 -2.636089
5
Structure 1083 | Energy: -10.834502 Hartree
N -0.547701 0.114237 -3.904226
N -0.933200 -0.643290 -3.209725
O 2.385075 -1.104730 0.250640
H 1.968775 -0.300709 -0.072493
H 2.414800 -1.040553 1.206956
5
Structure 1084 | Energy: -10.834617 Hartree
N -0.547701 0.114237 -3.904226
N -0.933200 -0.643290 -3.209725
O 2.385285 -1.104458 0.250398
H 1.471487 -0.946908 0.504015
H 2.908763 -0.398675 0.634303
5
Structure 1085 | Energy: -10.834653 Hartree
N -0.516006 0.070775 -3.678635
N -0.901505 -0.686752 -2.984134
O 2.385285 -1.104458 0.250398
H 1.471487 -0.946908 0.504015
H 2.908763 -0.398675 0.634303
5
Structure 1086 | Energy: -10.834685 Hartree
N -0.258567 -0.267725 -3.930981
N -0.725726 -0.902512 -3.167046
O 2.385285 -1.104458 0.250398
H 1.471487 -0.946908 0.504015
H 2.908763 -0.398675 0.634303
5
Structure 1087 | Energy: -10.834632 Hartree
N 2.597024 -0.738758 -0.095899
N 2.129866 -1.373545 0.668037
O -0.470307 -0.633425 -3.584685
H -1.384105 -0.475875 -3.331068
H 0.053171 0.072358 -3.200780
5
Structure 1088 | Energy: -10.834638 Hartree
N 2.597024 -0.738758 -0.095899
N 2.129866 -1.373545 0.668037
O -0.442259 -0.627022 -3.569167
H -1.356057 -0.469473 -3.315550
H 0.081219 0.078760 -3.185261
5
Structure 1089 | Energy: -10.834639 Hartree
N 2.595322 -0.738810 -0.096977
N 2.131567 -1.373493 0.669115
O -0.442259 -0.627022 -3.569167
H -1.356057 -0.469473 -3.315550
H 0.081219 0.078760 -3.185261
5
Structure 1090 | Energy: -10.834640 Hartree
N 2.595322 -0.738810 -0.096977
N 2.131567 -1.373493 0.669115
O -0.442219 -0.627189 -3.568915
H -1.356379 -0.468154 -3.317544
H 0.080894 0.080089 -3.187271
5
Structure 1091 | Energy: -10.834517 Hartree
N 3.919105 -0.518179 -0.462499
N 3.455350 -1.152862 0.303594
O -0.442219 -0.627189 -3.568915
H -1.356379 -0.468154 -3.317544
H 0.080894 0.080089 -3.187271
5
Structure 1092 | Energy: -10.834506 Hartree
N 3.919105 -0.518179 -0.462499
N 3.455350 -1.152862 0.303594
O -0.445517 -0.626207 -3.571996
H -1.343141 -0.442224 -3.281151
H 0.120013 0.038562 -3.174756
5
Structure 1093 | Energy: -10.834510 Hartree
N 3.919105 -0.518179 -0.462499
N 3.455350 -1.152862 0.303594
O -0.326538 -0.429008 -3.691334
H -1.226770 -0.223049 -3.424250
H 0.246307 0.209902 -3.263333
5
Structure 1094 | Energy: -10.834504 Hartree
N 3.919105 -0.518179 -0.462499
N 3.455350 -1.152862 0.303594
O -0.323530 -0.425112 -3.694233
H -1.235932 -0.291323 -3.422583
H 0.207720 0.216327 -3.218973
5
Structure 1095 | Energy: -10.834503 Hartree
N 3.914987 -0.541702 -0.483177
N 3.459469 -1.129340 0.324272
O -0.323530 -0.425112 -3.694233
H -1.235932 -0.291323 -3.422583
H 0.207720 0.216327 -3.218973
5
Structure 1096 | Energy: -10.834501 Hartree
N 3.939011 -0.484569 -0.513334
N 3.492801 -1.066286 0.303545
O -0.323530 -0.425112 -3.694233
H -1.235932 -0.291323 -3.422583
H 0.207720 0.216327 -3.218973
5
Structure 1097 | Energy: -10.834498 Hartree
N 3.939011 -0.484569 -0.513334
N 3.492801 -1.066286 0.303545
O -0.723140 -0.367956 -3.179298
H -1.586734 -0.174861 -2.803679
H -0.106788 0.264517 -2.805627
5
Structure 1098 | Energy: -10.834552 Hartree
N 3.939011 -0.484569 -0.513334
N 3.492801 -1.066286 0.303545
O -0.214394 0.296149 -3.227766
H -1.077988 0.489245 -2.852147
H 0.401958 0.928622 -2.854095
5
Structure 1099 | Energy: -10.834541 Hartree
N 3.939011 -0.484569 -0.513334
N 3.492801 -1.066286 0.303545
O -0.215553 0.297839 -3.229905
H -1.073964 0.494234 -2.844250
H 0.416324 0.896820 -2.828042
5
Structure 1100 | Energy: -10.834543 Hartree
N 3.939011 -0.484569 -0.513334
N 3.492801 -1.066286 0.303545
O -0.189796 0.281772 -3.243711
H -1.048207 0.478167 -2.858056
H 0.442081 0.880753 -2.841847
5
Structure 1101 | Energy: -10.834504 Hartree
N 3.939011 -0.484569 -0.513334
N 3.492801 -1.066286 0.303545
O -0.982459 0.113556 -2.667999
H -1.840870 0.309952 -2.282344
H -0.350582 0.712538 -2.266135
5
Structure 1102 | Energy: -10.834529 Hartree
N -0.772029 0.448919 -3.032374
N -1.218239 -0.132798 -2.215495
O 3.728581 -0.819932 -0.148959
H 2.870171 -0.623536 0.236696
H 4.360459 -0.220950 0.252904
5
Structure 1103 | Energy: -10.834515 Hartree
N -0.772029 0.448919 -3.032374
N -1.218239 -0.132798 -2.215495
O 3.840955 -0.838050 -0.336410
H 2.982544 -0.641654 0.049245
H 4.472832 -0.239068 0.065453
5
Structure 1104 | Energy: -10.834504 Hartree
N 4.051384 -0.502687 -0.700785
N 3.605174 -1.084404 0.116094
O -0.982459 0.113556 -2.667999
H -1.840870 0.309952 -2.282344
H -0.350582 0.712538 -2.266135
5
Structure 1105 | Energy: -10.834503 Hartree
N 4.051384 -0.502687 -0.700785
N 3.605174 -1.084404 0.116094
O -1.069309 0.033234 -2.514919
H -1.921086 0.200380 -2.101753
H -0.441541 0.640754 -2.119483
5
Structure 1106 | Energy: -10.834503 Hartree
N 4.058285 -0.471062 -0.672212
N 3.598273 -1.116030 0.087521
O -1.069309 0.033234 -2.514919
H -1.921086 0.200380 -2.101753
H -0.441541 0.640754 -2.119483
5
Structure 1107 | Energy: -10.834507 Hartree
N 4.253708 -0.336033 -1.323659
N 3.905131 -0.955452 -0.487237
O -1.069309 0.033234 -2.514919
H -1.921086 0.200380 -2.101753
H -0.441541 0.640754 -2.119483
5
Structure 1108 | Energy: -10.834479 Hartree
N 4.253708 -0.336033 -1.323659
N 3.905131 -0.955452 -0.487237
O -1.074534 0.050317 -2.527466
H -1.879775 0.065320 -2.002555
H -0.399916 0.504670 -2.019532
5
Structure 1109 | Energy: -10.834470 Hartree
N 4.253708 -0.336033 -1.323659
N 3.905131 -0.955452 -0.487237
O -1.078260 0.051446 -2.528313
H -1.850608 0.062977 -1.956023
H -0.369937 0.489099 -2.052624
5
Structure 1110 | Energy: -10.834503 Hartree
N 4.253708 -0.336033 -1.323659
N 3.905131 -0.955452 -0.487237
O -1.078416 0.051097 -2.528172
H -1.481958 0.890998 -2.291762
H -0.736122 -0.333386 -1.719129
5
Structure 1111 | Energy: -10.834501 Hartree
N 4.253708 -0.336033 -1.323659
N 3.905131 -0.955452 -0.487237
O -1.088100 0.048114 -2.542812
H -1.491643 0.888015 -2.306402
H -0.745807 -0.336369 -1.733769
5
Structure 1112 | Energy: -10.834517 Hartree
N 4.253708 -0.336033 -1.323659
N 3.905131 -0.955452 -0.487237
O -1.114556 -0.706090 -2.603871
H -1.624362 0.086990 -2.416012
H -0.735807 -0.999563 -1.773229
5
Structure 1113 | Energy: -10.834608 Hartree
N 3.704606 -0.979949 -0.684047
N 4.454232 -0.311536 -1.126849
O -1.114556 -0.706090 -2.603871
H -1.624362 0.086990 -2.416012
H -0.735807 -0.999563 -1.773229
5
Structure 1114 | Energy: -10.834608 Hartree
N 3.704606 -0.979949 -0.684047
N 4.454232 -0.311536 -1.126849
O -1.112810 -0.702441 -2.609324
H -1.622553 0.090590 -2.421083
H -0.735019 -0.996991 -1.778628
5
Structure 1115 | Energy: -10.834617 Hartree
N 3.689177 -0.966226 -0.690509
N 4.469661 -0.325259 -1.120387
O -1.112810 -0.702441 -2.609324
H -1.622553 0.090590 -2.421083
H -0.735019 -0.996991 -1.778628
5
Structure 1116 | Energy: -10.834596 Hartree
N 3.689177 -0.966226 -0.690509
N 4.469661 -0.325259 -1.120387
O -1.146118 -0.691926 -2.608069
H -1.184491 0.180137 -2.205322
H -0.644415 -1.253436 -2.014316
5
Structure 1117 | Energy: -10.834595 Hartree
N 3.689177 -0.966226 -0.690509
N 4.469661 -0.325259 -1.120387
O -1.509126 -1.705721 -2.363610
H -1.547499 -0.833659 -1.960864
H -1.007423 -2.267231 -1.769858
5
Structure 1118 | Energy: -10.834601 Hartree
N 3.704080 -0.826888 -0.810938
N 4.486048 -0.244040 -1.314528
O -1.509126 -1.705721 -2.363610
H -1.547499 -0.833659 -1.960864
H -1.007423 -2.267231 -1.769858
5
Structure 1119 | Energy: -10.834579 Hartree
N 3.704080 -0.826888 -0.810938
N 4.486048 -0.244040 -1.314528
O -1.865970 -2.321819 -1.495196
H -1.904343 -1.449757 -1.092449
H -1.364266 -2.883330 -0.901444
5
Structure 1120 | Energy: -10.834583 Hartree
N 3.704080 -0.826888 -0.810938
N 4.486048 -0.244040 -1.314528
O -1.897539 -1.621968 -1.390701
H -1.935912 -0.749906 -0.987954
H -1.395836 -2.183478 -0.796948
5
Structure 1121 | Energy: -10.834586 Hartree
N 3.704080 -0.826888 -0.810938
N 4.486048 -0.244040 -1.314528
O -1.898077 -1.618803 -1.391341
H -1.934292 -0.771506 -0.938631
H -1.388918 -2.212115 -0.836111
5
Structure 1122 | Energy: -10.834586 Hartree
N 3.741781 -1.202290 -0.791147
N 4.559346 -0.650508 -1.272722
O -1.898077 -1.618803 -1.391341
H -1.934292 -0.771506 -0.938631
H -1.388918 -2.212115 -0.836111
5
Structure 1123 | Energy: -10.834583 Hartree
N 3.750547 -1.210059 -0.785518
N 4.550579 -0.642738 -1.278351
O -1.898077 -1.618803 -1.391341
H -1.934292 -0.771506 -0.938631
H -1.388918 -2.212115 -0.836111
5
Structure 1124 | Energy: -10.834601 Hartree
N 3.750547 -1.210059 -0.785518
N 4.550579 -0.642738 -1.278351
O -1.904100 -1.573243 -1.380164
H -1.780920 -2.524661 -1.318513
H -1.446690 -1.182079 -0.633633
5
Structure 1125 | Energy: -10.834542 Hartree
N 4.333266 -2.112969 -0.645394
N 5.133298 -1.545648 -1.138227
O -1.904100 -1.573243 -1.380164
H -1.780920 -2.524661 -1.318513
H -1.446690 -1.182079 -0.633633
5
Structure 1126 | Energy: -10.834546 Hartree
N 4.294802 -2.004548 -0.644779
N 5.094833 -1.437227 -1.137613
O -1.904100 -1.573243 -1.380164
H -1.780920 -2.524661 -1.318513
H -1.446690 -1.182079 -0.633633
5
Structure 1127 | Energy: -10.834546 Hartree
N 4.294802 -2.004548 -0.644779
N 5.094833 -1.437227 -1.137613
O -1.904100 -1.216078 -0.969017
H -1.780920 -1.410162 -0.035567
H -1.446690 -1.900578 -1.460726
5
Structure 1128 | Energy: -10.834544 Hartree
N 4.294802 -2.004548 -0.644779
N 5.094833 -1.437227 -1.137613
O -1.898281 -1.336203 -1.326711
H -1.817317 -1.425342 -0.372946
H -1.410337 -2.062598 -1.718891
5
Structure 1129 | Energy: -10.834649 Hartree
N 3.231200 -2.276775 -1.053759
N 4.031232 -1.709454 -1.546592
O -1.898281 -1.336203 -1.326711
H -1.817317 -1.425342 -0.372946
H -1.410337 -2.062598 -1.718891
5
Structure 1130 | Energy: -10.834668 Hartree
N 3.121232 -2.264548 -1.053661
N 3.921264 -1.697227 -1.546495
O -1.898281 -1.336203 -1.326711
H -1.817317 -1.425342 -0.372946
H -1.410337 -2.062598 -1.718891
5
Structure 1131 | Energy: -10.834663 Hartree
N 3.121232 -2.264548 -1.053661
N 3.921264 -1.697227 -1.546495
O -1.897879 -1.332631 -1.321250
H -1.830004 -1.539342 -0.384857
H -1.404033 -2.005303 -1.793660
5
Structure 1132 | Energy: -10.834425 Hartree
N 3.121232 -2.264548 -1.053661
N 3.921264 -1.697227 -1.546495
O -1.831173 -1.434587 -1.287815
H -2.056075 -1.008757 -2.119835
H -2.236709 -0.917636 -0.589357
5
Structure 1133 | Energy: -10.834399 Hartree
N 3.599610 -2.117338 -1.519410
N 4.399642 -1.550018 -2.012243
O -1.831173 -1.434587 -1.287815
H -2.056075 -1.008757 -2.119835
H -2.236709 -0.917636 -0.589357
5
Structure 1134 | Energy: -10.834404 Hartree
N 3.594278 -2.123868 -1.511199
N 4.394310 -1.556547 -2.004033
O -1.870535 -1.407934 -1.354374
H -2.095437 -0.982103 -2.186394
H -2.276070 -0.890983 -0.655915
5
Structure 1135 | Energy: -10.834401 Hartree
N 3.926371 -1.497363 -1.315439
N 4.726403 -0.930042 -1.808272
O -1.870535 -1.407934 -1.354374
H -2.095437 -0.982103 -2.186394
H -2.276070 -0.890983 -0.655915
5
Structure 1136 | Energy: -10.834569 Hartree
N -2.305826 -1.638842 -1.115430
N -1.505794 -1.071522 -1.608264
O 4.361663 -1.266455 -1.554382
H 4.136760 -0.840624 -2.386402
H 3.956127 -0.749503 -0.855924
5
Structure 1137 | Energy: -10.834562 Hartree
N -2.305826 -1.638842 -1.115430
N -1.505794 -1.071522 -1.608264
O 4.358713 -1.559816 -1.161779
H 4.206055 -1.148934 -2.017373
H 3.935988 -1.004354 -0.504277
5
Structure 1138 | Energy: -10.834529 Hartree
N -2.305826 -1.638842 -1.115430
N -1.505794 -1.071522 -1.608264
O 4.916006 -1.562439 -1.134768
H 4.763347 -1.151557 -1.990362
H 4.493281 -1.006977 -0.477267
5
Structure 1139 | Energy: -10.834422 Hartree
N 4.483795 -1.792029 -0.899435
N 5.283827 -1.224709 -1.392269
O -1.873615 -1.409252 -1.350763
H -2.026274 -0.998370 -2.206357
H -2.296340 -0.853790 -0.693262
5
Structure 1140 | Energy: -10.834411 Hartree
N 4.160634 -1.855625 -1.239893
N 4.960666 -1.288304 -1.732726
O -1.873615 -1.409252 -1.350763
H -2.026274 -0.998370 -2.206357
H -2.296340 -0.853790 -0.693262
5
Structure 1141 | Energy: -10.834409 Hartree
N 4.160634 -1.855625 -1.239893
N 4.960666 -1.288304 -1.732726
O -1.841675 -1.331711 -1.234139
H -1.994333 -0.920830 -2.089733
H -2.264400 -0.776250 -0.576637
5
Structure 1142 | Energy: -10.834553 Hartree
N -2.273885 -1.561302 -0.998806
N -1.473853 -0.993981 -1.491639
O 4.592845 -1.626035 -1.475226
H 4.440186 -1.215153 -2.330820
H 4.170120 -1.070573 -0.817724
5
Structure 1143 | Energy: -10.834546 Hartree
N -2.273885 -1.561302 -0.998806
N -1.473853 -0.993981 -1.491639
O 4.487100 -1.187773 -0.475269
H 4.334442 -0.776891 -1.330863
H 4.064375 -0.632311 0.182233
5
Structure 1144 | Energy: -10.834566 Hartree
N -1.858530 -1.480629 -1.291687
N -1.058498 -0.913308 -1.784521
O 4.487100 -1.187773 -0.475269
H 4.334442 -0.776891 -1.330863
H 4.064375 -0.632311 0.182233
5
Structure 1145 | Energy: -10.834553 Hartree
N -1.858530 -1.480629 -1.291687
N -1.058498 -0.913308 -1.784521
O 4.426745 -1.188111 -0.504507
H 5.049472 -1.079119 0.219718
H 4.307313 -0.324710 -0.904277
5
Structure 1146 | Energy: -10.834495 Hartree
N 4.054890 -1.417363 -0.239936
N 4.854922 -0.850042 -0.732769
O -1.486675 -1.251377 -1.556258
H -0.863948 -1.142384 -0.832034
H -1.606107 -0.387975 -1.956028
5
Structure 1147 | Energy: -10.834553 Hartree
N -1.858530 -1.480629 -1.291687
N -1.058498 -0.913308 -1.784521
O 4.426745 -1.188111 -0.504507
H 5.049472 -1.079119 0.219718
H 4.307313 -0.324710 -0.904277
5
Structure 1148 | Energy: -10.834536 Hartree
N -1.940080 -1.850360 -1.502634
N -1.140048 -1.283039 -1.995468
O 4.426745 -1.188111 -0.504507
H 5.049472 -1.079119 0.219718
H 4.307313 -0.324710 -0.904277
5
Structure 1149 | Energy: -10.834534 Hartree
N -1.940080 -1.850360 -1.502634
N -1.140048 -1.283039 -1.995468
O 4.458383 -1.185826 -0.497843
H 5.081110 -1.076834 0.226382
H 4.338951 -0.322425 -0.897613
5
Structure 1150 | Energy: -10.834443 Hartree
N -2.053637 -1.730939 -1.851355
N -1.026492 -1.402460 -1.646747
O 4.458383 -1.185826 -0.497843
H 5.081110 -1.076834 0.226382
H 4.338951 -0.322425 -0.897613
5
Structure 1151 | Energy: -10.834444 Hartree
N -2.053637 -1.730939 -1.851355
N -1.026492 -1.402460 -1.646747
O 4.465187 -1.212359 -0.522936
H 5.091300 -1.102872 0.198289
H 4.348999 -0.350506 -0.926981
5
Structure 1152 | Energy: -10.834440 Hartree
N -2.120877 -1.809901 -1.913882
N -1.093733 -1.481422 -1.709275
O 4.465187 -1.212359 -0.522936
H 5.091300 -1.102872 0.198289
H 4.348999 -0.350506 -0.926981
5
Structure 1153 | Energy: -10.834440 Hartree
N -2.149481 -1.812187 -1.920007
N -1.122336 -1.483708 -1.715399
O 4.465187 -1.212359 -0.522936
H 5.091300 -1.102872 0.198289
H 4.348999 -0.350506 -0.926981
5
Structure 1154 | Energy: -10.834555 Hartree
N 3.980147 -1.322249 -0.607493
N 5.007292 -0.993770 -0.402885
O -1.664441 -1.702297 -1.835451
H -1.038328 -1.592811 -1.114226
H -1.780629 -0.840444 -2.239495
5
Structure 1155 | Energy: -10.834560 Hartree
N 3.971122 -1.229987 -0.607234
N 4.998267 -0.901508 -0.402626
O -1.663467 -1.699135 -1.821570
H -1.037354 -1.589649 -1.100345
H -1.779655 -0.837282 -2.225614
5
Structure 1156 | Energy: -10.834549 Hartree
N 4.093946 -1.240647 -0.612277
N 5.121091 -0.912168 -0.407669
O -1.663467 -1.699135 -1.821570
H -1.037354 -1.589649 -1.100345
H -1.779655 -0.837282 -2.225614
5
Structure 1157 | Energy: -10.834437 Hartree
N -2.148507 -1.809025 -1.906127
N -1.121362 -1.480546 -1.701519
O 4.578986 -1.130758 -0.527720
H 5.205099 -1.021271 0.193505
H 4.462798 -0.268905 -0.931764
5
Structure 1158 | Energy: -10.834532 Hartree
N -1.678053 -1.306824 -1.373567
N -1.591816 -1.982747 -2.234079
O 4.578986 -1.130758 -0.527720
H 5.205099 -1.021271 0.193505
H 4.462798 -0.268905 -0.931764
5
Structure 1159 | Energy: -10.834532 Hartree
N -1.679640 -1.308067 -1.372756
N -1.590230 -1.981505 -2.234890
O 4.578986 -1.130758 -0.527720
H 5.205099 -1.021271 0.193505
H 4.462798 -0.268905 -0.931764
5
Structure 1160 | Energy: -10.834547 Hartree
N -1.679640 -1.308067 -1.372756
N -1.590230 -1.981505 -2.234890
O 4.195805 -1.642682 -0.560566
H 4.821917 -1.533196 0.160659
H 4.079616 -0.780829 -0.964610
5
Structure 1161 | Energy: -10.834552 Hartree
N -1.678016 -1.626964 -1.428830
N -1.548245 -2.330336 -2.261426
O 4.195805 -1.642682 -0.560566
H 4.821917 -1.533196 0.160659
H 4.079616 -0.780829 -0.964610
5
Structure 1162 | Energy: -10.834553 Hartree
N -1.678016 -1.626964 -1.428830
N -1.548245 -2.330336 -2.261426
O 4.196176 -1.642230 -0.562441
H 4.818630 -1.552836 0.164697
H 4.077008 -0.768373 -0.938893
5
Structure 1163 | Energy: -10.834525 Hartree
N -2.156679 -2.212687 -1.971122
N -2.026907 -2.916060 -2.803717
O 4.196176 -1.642230 -0.562441
H 4.818630 -1.552836 0.164697
H 4.077008 -0.768373 -0.938893
5
Structure 1164 | Energy: -10.834524 Hartree
N -2.208327 -2.111082 -1.765441
N -2.115021 -2.795994 -2.618071
O 4.196176 -1.642230 -0.562441
H 4.818630 -1.552836 0.164697
H 4.077008 -0.768373 -0.938893
5
Structure 1165 | Energy: -10.834528 Hartree
N -2.144376 -2.220384 -1.707156
N -2.051070 -2.905296 -2.559786
O 4.196176 -1.642230 -0.562441
H 4.818630 -1.552836 0.164697
H 4.077008 -0.768373 -0.938893
5
Structure 1166 | Energy: -10.835159 Hartree
N 0.518414 -0.458034 3.112569
N -0.032734 -0.750411 2.209496
O -1.574679 -2.356167 -1.242859
H -1.130278 -1.775624 -0.618642
H -1.896671 -1.804989 -1.958447
5
Structure 1167 | Energy: -10.835195 Hartree
N 0.904203 -0.383130 2.872138
N 0.274453 -0.689659 2.027009
O -1.574679 -2.356167 -1.242859
H -1.130278 -1.775624 -0.618642
H -1.896671 -1.804989 -1.958447
5
Structure 1168 | Energy: -10.835190 Hartree
N 0.582418 -0.276942 3.000067
N 0.021482 -0.602476 2.114534
O -1.574679 -2.356167 -1.242859
H -1.130278 -1.775624 -0.618642
H -1.896671 -1.804989 -1.958447
5
Structure 1169 | Energy: -10.835157 Hartree
N 0.541525 -0.265527 3.052013
N -0.019411 -0.591061 2.166480
O -1.574679 -2.356167 -1.242859
H -1.130278 -1.775624 -0.618642
H -1.896671 -1.804989 -1.958447
5
Structure 1170 | Energy: -10.835159 Hartree
N 0.529287 -0.253686 3.055074
N -0.007172 -0.602902 2.163419
O -1.574679 -2.356167 -1.242859
H -1.130278 -1.775624 -0.618642
H -1.896671 -1.804989 -1.958447
5
Structure 1171 | Energy: -10.835220 Hartree
N 0.529287 -0.253686 3.055074
N -0.007172 -0.602902 2.163419
O -1.542097 -2.322950 -1.174142
H -1.097696 -1.742407 -0.549925
H -1.864089 -1.771771 -1.889730
5
Structure 1172 | Energy: -10.835665 Hartree
N 0.301148 -1.102357 2.437242
N -0.235311 -1.451573 1.545587
O -1.542097 -2.322950 -1.174142
H -1.097696 -1.742407 -0.549925
H -1.864089 -1.771771 -1.889730
5
Structure 1173 | Energy: -10.834127 Hartree
N 0.301148 -1.102357 2.437242
N -0.235311 -1.451573 1.545587
O -1.516983 -2.302484 -1.135522
H -1.356996 -1.354872 -1.110924
H -2.003403 -2.484141 -1.941710
5
Structure 1174 | Energy: -10.834259 Hartree
N 1.187110 -1.252816 2.496107
N 0.650651 -1.602032 1.604451
O -1.516983 -2.302484 -1.135522
H -1.356996 -1.354872 -1.110924
H -2.003403 -2.484141 -1.941710
5
Structure 1175 | Energy: -10.834262 Hartree
N 1.187110 -1.252816 2.496107
N 0.650651 -1.602032 1.604451
O -1.549440 -2.289492 -1.177721
H -1.389453 -1.341880 -1.153122
H -2.035860 -2.471149 -1.983908
5
Structure 1176 | Energy: -10.835677 Hartree
N -1.299476 -2.072026 -0.775625
N -1.835934 -2.421242 -1.667281
O 0.937146 -1.470281 2.094011
H 1.097133 -0.522669 2.118610
H 0.450726 -1.651939 1.287824
5
Structure 1177 | Energy: -10.835655 Hartree
N -0.535038 -2.559531 -1.100405
N -1.098943 -3.010810 -1.926932
O 0.937146 -1.470281 2.094011
H 1.097133 -0.522669 2.118610
H 0.450726 -1.651939 1.287824
5
Structure 1178 | Energy: -10.835648 Hartree
N -0.535038 -2.559531 -1.100405
N -1.098943 -3.010810 -1.926932
O 0.938510 -1.470043 2.093652
H 1.085816 -0.520322 2.116018
H 0.440393 -1.658076 1.296115
5
Structure 1179 | Energy: -10.835667 Hartree
N -0.535038 -2.559531 -1.100405
N -1.098943 -3.010810 -1.926932
O 1.033569 -1.548287 2.073762
H 1.176311 -0.598519 2.115400
H 0.513926 -1.719727 1.286283
5
Structure 1180 | Energy: -10.835684 Hartree
N -0.601816 -2.576920 -1.060545
N -1.168073 -3.045386 -1.875825
O 1.033569 -1.548287 2.073762
H 1.176311 -0.598519 2.115400
H 0.513926 -1.719727 1.286283
5
Structure 1181 | Energy: -10.835684 Hartree
N -0.601816 -2.576920 -1.060545
N -1.168073 -3.045386 -1.875825
O 0.694647 -1.114130 2.059691
H 1.648824 -1.203806 2.135016
H 0.426811 -1.608132 1.282667
5
Structure 1182 | Energy: -10.835655 Hartree
N -0.601816 -2.576920 -1.060545
N -1.168073 -3.045386 -1.875825
O 0.704123 -1.104381 2.080124
H 1.658301 -1.194058 2.155449
H 0.436287 -1.598384 1.303099
5
Structure 1183 | Energy: -10.835668 Hartree
N -0.631672 -2.551716 -1.062475
N -1.197929 -3.020182 -1.877755
O 0.788461 -1.114007 2.009211
H 1.742638 -1.203683 2.084536
H 0.520624 -1.608009 1.232186
5
Structure 1184 | Energy: -10.835351 Hartree
N -0.631672 -2.551716 -1.062475
N -1.197929 -3.020182 -1.877755
O 0.805467 -1.183471 2.017599
H 1.608185 -0.654497 2.018228
H 0.385152 -1.054659 1.165375
5
Structure 1185 | Energy: -10.834511 Hartree
N 1.109992 -0.912432 2.377589
N 0.543735 -1.380898 1.562309
O -0.936197 -2.822754 -1.422465
H -0.133479 -2.293780 -1.421836
H -1.356512 -2.693942 -2.274689
5
Structure 1186 | Energy: -10.834522 Hartree
N 0.984103 -0.674254 2.317970
N 0.450573 -1.203720 1.518094
O -0.936197 -2.822754 -1.422465
H -0.133479 -2.293780 -1.421836
H -1.356512 -2.693942 -2.274689
5
Structure 1187 | Energy: -10.835292 Hartree
N -0.648036 -2.521216 -1.070177
N -1.181565 -3.050682 -1.870052
O 0.695941 -0.975792 1.965682
H 1.498659 -0.446819 1.966311
H 0.275626 -0.846980 1.113458
5
Structure 1188 | Energy: -10.835746 Hartree
N -0.487935 -2.218924 -0.776746
N -1.021464 -2.748390 -1.576622
O 0.695941 -0.975792 1.965682
H 1.498659 -0.446819 1.966311
H 0.275626 -0.846980 1.113458
5
Structure 1189 | Energy: -10.834380 Hartree
N 0.984103 -0.674254 2.317970
N 0.450573 -1.203720 1.518094
O -0.776096 -2.520462 -1.129035
H 0.026622 -1.991488 -1.128405
H -1.196411 -2.391650 -1.981258
5
Structure 1190 | Energy: -10.834249 Hartree
N 0.573932 -0.704180 2.508174
N 0.140468 -1.232719 1.649370
O -0.776096 -2.520462 -1.129035
H 0.026622 -1.991488 -1.128405
H -1.196411 -2.391650 -1.981258
5
Structure 1191 | Energy: -10.834197 Hartree
N 0.573932 -0.704180 2.508174
N 0.140468 -1.232719 1.649370
O -0.731859 -2.564801 -0.972570
H 0.070859 -2.035827 -0.971941
H -1.152174 -2.435989 -1.824794
5
Structure 1192 | Energy: -10.833996 Hartree
N 0.573932 -0.704180 2.508174
N 0.140468 -1.232719 1.649370
O -0.731397 -2.564954 -0.972484
H -1.025874 -1.673273 -1.178293
H -0.062774 -2.796120 -1.619823
5
Structure 1193 | Energy: -10.834493 Hartree
N 0.817045 -0.188558 2.270672
N 0.383581 -0.717097 1.411867
O -0.731397 -2.564954 -0.972484
H -1.025874 -1.673273 -1.178293
H -0.062774 -2.796120 -1.619823
5
Structure 1194 | Energy: -10.834540 Hartree
N 0.817045 -0.188558 2.270672
N 0.383581 -0.717097 1.411867
O -1.720545 -3.053151 -1.455912
H -2.015022 -2.161470 -1.661721
H -1.051922 -3.284317 -2.103251
5
Structure 1195 | Energy: -10.834454 Hartree
N -1.482878 -2.751924 -1.074246
N -1.916342 -3.280462 -1.933051
O 0.579378 -0.489786 1.889006
H 0.284901 0.401896 1.683197
H 1.248001 -0.720952 1.241667
5
Structure 1196 | Energy: -10.834491 Hartree
N -1.482878 -2.751924 -1.074246
N -1.916342 -3.280462 -1.933051
O 0.336914 -0.596452 2.113540
H 0.100444 0.307233 1.886373
H 1.055769 -0.852836 1.532974
5
Structure 1197 | Energy: -10.834475 Hartree
N -1.624899 -2.755973 -1.117857
N -2.058363 -3.284512 -1.976661
O 0.336914 -0.596452 2.113540
H 0.100444 0.307233 1.886373
H 1.055769 -0.852836 1.532974
5
Structure 1198 | Energy: -10.834484 Hartree
N -1.582774 -2.759570 -1.161870
N -2.016238 -3.288109 -2.020674
O 0.336914 -0.596452 2.113540
H 0.100444 0.307233 1.886373
H 1.055769 -0.852836 1.532974
5
Structure 1199 | Energy: -10.834449 Hartree
N -1.934254 -2.754655 -0.925633
N -2.458459 -3.286823 -1.729869
O 0.336914 -0.596452 2.113540
H 0.100444 0.307233 1.886373
H 1.055769 -0.852836 1.532974
5
Structure 1200 | Energy: -10.834451 Hartree
N -1.888767 -2.710941 -0.865296
N -2.412972 -3.243108 -1.669533
O 0.336914 -0.596452 2.113540
H 0.100444 0.307233 1.886373
H 1.055769 -0.852836 1.532974
5
Structure 1201 | Energy: -10.834481 Hartree
N -2.456192 -2.199735 -1.200859
N -2.980396 -2.731902 -2.005095
O 0.336914 -0.596452 2.113540
H 0.100444 0.307233 1.886373
H 1.055769 -0.852836 1.532974
5
Structure 1202 | Energy: -10.834477 Hartree
N -2.456192 -2.199735 -1.200859
N -2.980396 -2.731902 -2.005095
O 0.330847 -0.617839 2.012368
H 0.094378 0.285846 1.785201
H 1.049702 -0.874223 1.431802
5
Structure 1203 | Energy: -10.834417 Hartree
N -2.456192 -2.199735 -1.200859
N -2.980396 -2.731902 -2.005095
O 0.953864 -0.129980 1.999264
H 0.717394 0.773706 1.772097
H 1.672719 -0.386364 1.418698
5
Structure 1204 | Energy: -10.834387 Hartree
N -2.456192 -2.199735 -1.200859
N -2.980396 -2.731902 -2.005095
O 1.028326 -0.567394 1.171183
H 0.791856 0.336291 0.944015
H 1.747181 -0.823778 0.590617
5
Structure 1205 | Energy: -10.834324 Hartree
N -2.456192 -2.199735 -1.200859
N -2.980396 -2.731902 -2.005095
O 1.008066 -0.521814 1.167971
H 1.334410 0.111005 0.522054
H 1.526189 -1.321930 1.063547
5
Structure 1206 | Energy: -10.834620 Hartree
N -3.077968 -2.347623 -1.205659
N -2.358620 -2.584014 -2.000296
O 1.008066 -0.521814 1.167971
H 1.334410 0.111005 0.522054
H 1.526189 -1.321930 1.063547
5
Structure 1207 | Energy: -10.834552 Hartree
N -2.389186 -2.678042 -1.218470
N -3.047402 -2.253595 -1.987485
O 1.008066 -0.521814 1.167971
H 1.334410 0.111005 0.522054
H 1.526189 -1.321930 1.063547
5
Structure 1208 | Energy: -10.834540 Hartree
N -2.387527 -2.659372 -1.210132
N -3.049061 -2.272265 -1.995823
O 1.008066 -0.521814 1.167971
H 1.334410 0.111005 0.522054
H 1.526189 -1.321930 1.063547
5
Structure 1209 | Energy: -10.834522 Hartree
N -2.387527 -2.659372 -1.210132
N -3.049061 -2.272265 -1.995823
O 1.278693 -0.696213 0.894153
H 1.583363 -0.073530 0.228112
H 1.753723 -1.516569 0.749565
5
Structure 1210 | Energy: -10.834513 Hartree
N -2.400595 -2.594787 -1.325084
N -3.062128 -2.207680 -2.110775
O 1.278693 -0.696213 0.894153
H 1.583363 -0.073530 0.228112
H 1.753723 -1.516569 0.749565
5
Structure 1211 | Energy: -10.834601 Hartree
N 1.653087 -0.900827 1.241641
N 0.991553 -0.513720 0.455950
O -2.774988 -2.390173 -1.672572
H -2.470318 -1.767489 -2.338614
H -2.299958 -3.210528 -1.817161
5
Structure 1212 | Energy: -10.834600 Hartree
N 1.635823 -0.752383 1.187695
N 1.126478 -1.673891 0.877566
O -2.774988 -2.390173 -1.672572
H -2.470318 -1.767489 -2.338614
H -2.299958 -3.210528 -1.817161
5
Structure 1213 | Energy: -10.834595 Hartree
N 1.635823 -0.752383 1.187695
N 1.126478 -1.673891 0.877566
O -2.650476 -2.391547 -1.854300
H -2.312276 -1.775078 -2.509858
H -2.173135 -3.215016 -1.970863
5
Structure 1214 | Energy: -10.834600 Hartree
N 1.635823 -0.752383 1.187695
N 1.126478 -1.673891 0.877566
O -2.824895 -1.730482 -1.799076
H -2.450093 -1.084267 -2.404136
H -2.429757 -2.577586 -2.013138
5
Structure 1215 | Energy: -10.834590 Hartree
N 1.635823 -0.752383 1.187695
N 1.126478 -1.673891 0.877566
O -2.824509 -1.733321 -1.798116
H -2.468134 -1.053939 -2.377432
H -2.417846 -2.562863 -2.055072
5
Structure 1216 | Energy: -10.834592 Hartree
N 1.647654 -1.126300 1.268299
N 1.087649 -0.446734 0.613033
O -2.824509 -1.733321 -1.798116
H -2.468134 -1.053939 -2.377432
H -2.417846 -2.562863 -2.055072
5
Structure 1217 | Energy: -10.834592 Hartree
N 1.647654 -1.126300 1.268299
N 1.087649 -0.446734 0.613033
O -2.825241 -1.735105 -1.795536
H -2.468865 -1.055723 -2.374852
H -2.418578 -2.564647 -2.052492
5
Structure 1218 | Energy: -10.834587 Hartree
N 1.647654 -1.126300 1.268299
N 1.087649 -0.446734 0.613033
O -2.827548 -1.734259 -1.797918
H -2.446244 -1.066634 -2.375027
H -2.404584 -2.567164 -2.014511
5
Structure 1219 | Energy: -10.834595 Hartree
N 1.647654 -1.126300 1.268299
N 1.087649 -0.446734 0.613033
O -2.885681 -1.751119 -1.700632
H -2.529189 -1.069220 -2.276910
H -2.457180 -2.574440 -1.941613
5
Structure 1220 | Energy: -10.834565 Hartree
N 1.647654 -1.126300 1.268299
N 1.087649 -0.446734 0.613033
O -3.594012 -1.236976 -1.336432
H -3.237520 -0.555077 -1.912710
H -3.165511 -2.060297 -1.577413
5
Structure 1221 | Energy: -10.834563 Hartree
N 1.651855 -1.129023 1.261782
N 1.083449 -0.444011 0.619550
O -3.594012 -1.236976 -1.336432
H -3.237520 -0.555077 -1.912710
H -3.165511 -2.060297 -1.577413
5
Structure 1222 | Energy: -10.834482 Hartree
N -3.265886 -1.587395 -1.061044
N -3.834292 -0.902383 -1.703276
O 1.323729 -0.778604 0.986394
H 1.680220 -0.096705 0.410116
H 1.752230 -1.601924 0.745413
5
Structure 1223 | Energy: -10.834488 Hartree
N -3.256263 -1.596139 -1.079692
N -3.843915 -0.893639 -1.684628
O 1.323729 -0.778604 0.986394
H 1.680220 -0.096705 0.410116
H 1.752230 -1.601924 0.745413
5
Structure 1224 | Energy: -10.834482 Hartree
N -3.333381 -1.573434 -1.143359
N -3.921033 -0.870934 -1.748295
O 1.323729 -0.778604 0.986394
H 1.680220 -0.096705 0.410116
H 1.752230 -1.601924 0.745413
5
Structure 1225 | Energy: -10.834459 Hartree
N -3.333381 -1.573434 -1.143359
N -3.921033 -0.870934 -1.748295
O 1.918605 -1.003724 0.622846
H 2.275097 -0.321825 0.046568
H 2.347107 -1.827045 0.381865
5
Structure 1226 | Energy: -10.834479 Hartree
N -3.333381 -1.573434 -1.143359
N -3.921033 -0.870934 -1.748295
O 1.726433 -0.675064 0.627601
H 2.082924 0.006835 0.051323
H 2.154934 -1.498385 0.386620
5
Structure 1227 | Energy: -10.834477 Hartree
N -3.333381 -1.573434 -1.143359
N -3.921033 -0.870934 -1.748295
O 1.737999 -0.770559 0.620692
H 2.108143 -0.100506 0.039149
H 2.149206 -1.604350 0.385652
5
Structure 1228 | Energy: -10.834461 Hartree
N -3.028398 -1.155866 -1.289146
N -3.616050 -0.453366 -1.894082
O 1.737999 -0.770559 0.620692
H 2.108143 -0.100506 0.039149
H 2.149206 -1.604350 0.385652
5
Structure 1229 | Energy: -10.834459 Hartree
N -2.863388 -1.140311 -1.671487
N -3.398389 -0.435542 -2.320998
O 1.737999 -0.770559 0.620692
H 2.108143 -0.100506 0.039149
H 2.149206 -1.604350 0.385652
5
Structure 1230 | Energy: -10.834550 Hartree
N 2.049219 -1.132105 0.899757
N 1.514218 -0.427336 0.250246
O -3.174607 -0.778765 -1.950552
H -2.804464 -0.108712 -2.532095
H -2.763401 -1.612556 -2.185592
5
Structure 1231 | Energy: -10.834552 Hartree
N 2.049219 -1.132105 0.899757
N 1.514218 -0.427336 0.250246
O -3.174925 -0.779679 -1.950683
H -2.808649 -0.099946 -2.523374
H -2.754169 -1.606820 -2.192226
5
Structure 1232 | Energy: -10.834578 Hartree
N 2.326904 -1.371657 0.129937
N 1.791903 -0.666889 -0.519574
O -3.174925 -0.779679 -1.950683
H -2.808649 -0.099946 -2.523374
H -2.754169 -1.606820 -2.192226
5
Structure 1233 | Energy: -10.834583 Hartree
N 2.326904 -1.371657 0.129937
N 1.791903 -0.666889 -0.519574
O -3.126425 -0.847789 -2.018140
H -3.297087 -0.580887 -1.110502
H -3.035537 -0.044831 -2.534417
5
Structure 1234 | Energy: -10.834582 Hartree
N 2.326904 -1.371657 0.129937
N 1.791903 -0.666889 -0.519574
O -2.945681 -0.798048 -2.463499
H -3.199474 -0.577434 -1.562895
H -2.818955 0.030007 -2.930198
5
Structure 1235 | Energy: -10.834582 Hartree
N 2.326904 -1.371657 0.129937
N 1.791903 -0.666889 -0.519574
O -2.945681 1.259889 -0.230481
H -3.199474 0.380252 -0.523733
H -2.818955 1.792498 -1.017762
5
Structure 1236 | Energy: -10.834582 Hartree
N 2.326904 -1.371657 0.129937
N 1.791903 -0.666889 -0.519574
O -2.907616 1.312039 -0.569558
H -3.142566 0.445584 -0.913395
H -2.711241 1.869749 -1.324501
5
Structure 1237 | Energy: -10.834586 Hartree
N 2.331872 -1.359309 0.138848
N 1.786935 -0.679237 -0.528485
O -2.907616 1.312039 -0.569558
H -3.142566 0.445584 -0.913395
H -2.711241 1.869749 -1.324501
5
Structure 1238 | Energy: -10.834658 Hartree
N 2.042504 -0.915872 0.019938
N 1.497567 -0.235800 -0.647395
O -2.907616 1.312039 -0.569558
H -3.142566 0.445584 -0.913395
H -2.711241 1.869749 -1.324501
5
Structure 1239 | Energy: -10.834414 Hartree
N -2.637305 0.954727 -0.297372
N -3.182243 1.634799 -0.964706
O 1.772194 -0.558560 -0.252248
H 1.537244 -1.425015 -0.596085
H 1.968569 -0.000850 -1.007191
5
Structure 1240 | Energy: -10.834413 Hartree
N -2.637305 0.954727 -0.297372
N -3.182243 1.634799 -0.964706
O 1.773089 -0.539824 -0.179159
H 1.547438 -1.406557 -0.528481
H 1.979465 0.020214 -0.929698
5
Structure 1241 | Energy: -10.834401 Hartree
N -2.637305 0.954727 -0.297372
N -3.182243 1.634799 -0.964706
O 1.646896 -0.699831 0.239289
H 1.420596 -1.562096 -0.120512
H 1.937266 -0.156509 -0.495577
5
Structure 1242 | Energy: -10.834347 Hartree
N -1.777860 1.006749 -0.371359
N -2.322797 1.686821 -1.038693
O 1.646896 -0.699831 0.239289
H 1.420596 -1.562096 -0.120512
H 1.937266 -0.156509 -0.495577
5
Structure 1243 | Energy: -10.834371 Hartree
N -1.777860 1.006749 -0.371359
N -2.322797 1.686821 -1.038693
O 1.693625 -0.603354 0.259135
H 1.468145 -1.487518 -0.043491
H 1.958563 -0.101264 -0.513688
5
Structure 1244 | Energy: -10.834723 Hartree
N -2.276799 1.843134 -0.764567
N -1.823857 0.850435 -0.645486
O 1.693625 -0.603354 0.259135
H 1.468145 -1.487518 -0.043491
H 1.958563 -0.101264 -0.513688
5
Structure 1245 | Energy: -10.835097 Hartree
N -1.754135 1.172619 -0.645683
N -1.301194 0.179919 -0.526602
O 1.693625 -0.603354 0.259135
H 1.468145 -1.487518 -0.043491
H 1.958563 -0.101264 -0.513688
5
Structure 1246 | Energy: -10.834765 Hartree
N -1.754135 1.172619 -0.645683
N -1.301194 0.179919 -0.526602
O 2.871642 -0.124033 0.278109
H 2.646162 -1.008198 -0.024517
H 3.136581 0.378057 -0.494714
5
Structure 1247 | Energy: -10.834795 Hartree
N -1.374526 0.292483 -0.947327
N -1.680803 1.060055 -0.224959
O 2.871642 -0.124033 0.278109
H 2.646162 -1.008198 -0.024517
H 3.136581 0.378057 -0.494714
5
Structure 1248 | Energy: -10.834584 Hartree
N 3.026989 -0.529198 -0.143250
N 2.720711 0.238374 0.579118
O -1.529872 0.697647 -0.525968
H -1.755352 -0.186517 -0.828593
H -1.264934 1.199738 -1.298791
5
Structure 1249 | Energy: -10.834551 Hartree
N 3.432883 -0.326905 -0.012231
N 3.126605 0.440667 0.710137
O -1.529872 0.697647 -0.525968
H -1.755352 -0.186517 -0.828593
H -1.264934 1.199738 -1.298791
5
Structure 1250 | Energy: -10.834629 Hartree
N 2.962611 -0.390791 0.363553
N 3.596877 0.504554 0.334353
O -1.529872 0.697647 -0.525968
H -1.755352 -0.186517 -0.828593
H -1.264934 1.199738 -1.298791
5
Structure 1251 | Energy: -10.834549 Hartree
N -1.844797 0.228596 -0.571542
N -1.210532 1.123942 -0.600743
O 3.277536 0.078260 0.409128
H 3.052057 -0.805904 0.106502
H 3.542475 0.580350 -0.363695
5
Structure 1252 | Energy: -10.834503 Hartree
N -1.844797 0.228596 -0.571542
N -1.210532 1.123942 -0.600743
O 3.328616 0.053779 0.390001
H 2.648222 -0.612357 0.257726
H 3.135578 0.775365 -0.211325
5
Structure 1253 | Energy: -10.834669 Hartree
N 2.962611 -0.390791 0.363553
N 3.596877 0.504554 0.334353
O -1.478793 0.673166 -0.545095
H -2.159187 0.007031 -0.677370
H -1.671831 1.394752 -1.146421
5
Structure 1254 | Energy: -10.834659 Hartree
N 2.961414 -0.399423 0.369932
N 3.595680 0.495922 0.340731
O -1.522154 0.642732 -0.477328
H -2.202548 -0.023404 -0.609603
H -1.715192 1.364318 -1.078653
5
Structure 1255 | Energy: -10.834677 Hartree
N 2.961414 -0.399423 0.369932
N 3.595680 0.495922 0.340731
O -1.438736 0.632453 -0.462299
H -2.119130 -0.033683 -0.594574
H -1.631774 1.354039 -1.063625
5
Structure 1256 | Energy: -10.834679 Hartree
N 2.963896 -0.401166 0.370070
N 3.593198 0.497666 0.340594
O -1.438736 0.632453 -0.462299
H -2.119130 -0.033683 -0.594574
H -1.631774 1.354039 -1.063625
5
Structure 1257 | Energy: -10.834650 Hartree
N 2.963896 -0.401166 0.370070
N 3.593198 0.497666 0.340594
O -1.478161 0.339146 -0.387423
H -2.114743 -0.366955 -0.530093
H -1.727051 1.062463 -0.965702
5
Structure 1258 | Energy: -10.834499 Hartree
N 2.963896 -0.401166 0.370070
N 3.593198 0.497666 0.340594
O -1.274186 -0.723807 -0.428865
H -1.910768 -1.429907 -0.571535
H -1.523076 -0.000489 -1.007144
5
Structure 1259 | Energy: -10.834501 Hartree
N 2.963896 -0.401166 0.370070
N 3.593198 0.497666 0.340594
O -1.274192 -0.723803 -0.428857
H -1.896280 -1.438895 -0.589541
H -1.537467 0.008439 -0.989259
5
Structure 1260 | Energy: -10.834500 Hartree
N 2.964465 -0.392846 0.363909
N 3.591873 0.507297 0.334040
O -1.274192 -0.723803 -0.428857
H -1.896280 -1.438895 -0.589541
H -1.537467 0.008439 -0.989259
5
Structure 1261 | Energy: -10.834496 Hartree
N 2.964465 -0.392846 0.363909
N 3.591873 0.507297 0.334040
O -1.317167 -0.731845 -0.414065
H -1.939255 -1.446937 -0.574749
H -1.580442 0.000397 -0.974467
5
Structure 1262 | Energy: -10.834491 Hartree
N 2.960128 -0.388626 0.384519
N 3.596210 0.503077 0.313430
O -1.317167 -0.731845 -0.414065
H -1.939255 -1.446937 -0.574749
H -1.580442 0.000397 -0.974467
5
Structure 1263 | Energy: -10.834461 Hartree
N 2.938854 -0.372760 0.383255
N 3.617484 0.487211 0.314695
O -1.317167 -0.731845 -0.414065
H -1.939255 -1.446937 -0.574749
H -1.580442 0.000397 -0.974467
5
Structure 1264 | Energy: -10.834698 Hartree
N -1.706021 -1.160871 -0.420133
N -1.027391 -0.300900 -0.488692
O 3.327708 0.056266 0.389322
H 2.705620 -0.658826 0.228638
H 3.064433 0.788508 -0.171080
5
Structure 1265 | Energy: -10.834461 Hartree
N 2.938854 -0.372760 0.383255
N 3.617484 0.487211 0.314695
O -1.317167 -0.731845 -0.414065
H -1.939255 -1.446937 -0.574749
H -1.580442 0.000397 -0.974467
5
Structure 1266 | Energy: -10.834534 Hartree
N 2.938854 -0.372760 0.383255
N 3.617484 0.487211 0.314695
O -0.868638 -0.627682 -0.907593
H -1.490727 -1.342774 -1.068277
H -1.131914 0.104560 -1.467995
5
Structure 1267 | Energy: -10.834885 Hartree
N 3.075530 -0.181162 0.799869
N 3.480808 0.295613 -0.101920
O -0.868638 -0.627682 -0.907593
H -1.490727 -1.342774 -1.068277
H -1.131914 0.104560 -1.467995
5
Structure 1268 | Energy: -10.835110 Hartree
N 3.075530 -0.181162 0.799869
N 3.480808 0.295613 -0.101920
O -0.403325 -0.537617 -1.201329
H -1.025413 -1.252709 -1.362013
H -0.666601 0.194625 -1.761731
5
Structure 1269 | Energy: -10.834408 Hartree
N -0.655503 -0.775045 -0.790782
N -0.250225 -0.298270 -1.692571
O 3.327708 0.056266 0.389322
H 2.705620 -0.658826 0.228638
H 3.064433 0.788508 -0.171080
5
Structure 1270 | Energy: -10.834407 Hartree
N -0.520980 -0.753632 -0.733430
N -0.115702 -0.276857 -1.635220
O 3.327708 0.056266 0.389322
H 2.705620 -0.658826 0.228638
H 3.064433 0.788508 -0.171080
5
Structure 1271 | Energy: -10.834428 Hartree
N -0.441989 -0.407442 -1.136669
N 0.063325 0.149098 -1.936488
O 3.327708 0.056266 0.389322
H 2.705620 -0.658826 0.228638
H 3.064433 0.788508 -0.171080
5
Structure 1272 | Energy: -10.834445 Hartree
N -0.441989 -0.407442 -1.136669
N 0.063325 0.149098 -1.936488
O 3.327114 0.061904 0.389784
H 2.755976 -0.701258 0.265070
H 3.023505 0.741448 -0.214851
5
Structure 1273 | Energy: -10.834434 Hartree
N -0.441989 -0.407442 -1.136669
N 0.063325 0.149098 -1.936488
O 3.328174 0.060276 0.388638
H 2.751852 -0.696616 0.250298
H 3.010810 0.762650 -0.181882
5
Structure 1274 | Energy: -10.834423 Hartree
N -0.441989 -0.407442 -1.136669
N 0.063325 0.149098 -1.936488
O 3.193574 -0.111974 0.624636
H 2.588545 -0.838314 0.449876
H 2.953780 0.602013 0.031118
5
Structure 1275 | Energy: -10.834424 Hartree
N -0.603331 -0.273888 -1.133795
N -0.098017 0.282652 -1.933614
O 3.193574 -0.111974 0.624636
H 2.588545 -0.838314 0.449876
H 2.953780 0.602013 0.031118
5
Structure 1276 | Energy: -10.834415 Hartree
N -0.610581 -0.246052 -1.120270
N -0.090767 0.254816 -1.947140
O 3.193574 -0.111974 0.624636
H 2.588545 -0.838314 0.449876
H 2.953780 0.602013 0.031118
5
Structure 1277 | Energy: -10.835151 Hartree
N 2.886396 -0.363099 0.995083
N 3.406210 0.137768 0.168213
O -0.303403 0.005073 -1.490717
H -0.908432 -0.721266 -1.665476
H -0.543197 0.719061 -2.084234
5
Structure 1278 | Energy: -10.834811 Hartree
N 2.886396 -0.363099 0.995083
N 3.406210 0.137768 0.168213
O -0.327092 0.044444 -1.577544
H -0.540456 0.255489 -0.664250
H -0.535176 -0.882592 -1.707342
5
Structure 1279 | Energy: -10.834771 Hartree
N 2.886396 -0.363099 0.995083
N 3.406210 0.137768 0.168213
O -0.232254 0.286405 -1.693733
H -0.477768 0.436518 -0.776477
H -0.455439 -0.623384 -1.898710
5
Structure 1280 | Energy: -10.834776 Hartree
N 2.886396 -0.363099 0.995083
N 3.406210 0.137768 0.168213
O -0.263427 0.353357 -1.633715
H -0.492676 0.493658 -0.710714
H -0.499771 -0.551129 -1.847230
5
Structure 1281 | Energy: -10.834868 Hartree
N -0.549385 0.060165 -1.180582
N -0.029571 0.561032 -2.007452
O 3.172355 -0.069907 0.541950
H 2.943106 0.070394 1.464950
H 2.936011 -0.974393 0.328435
5
Structure 1282 | Energy: -10.834776 Hartree
N 2.886396 -0.363099 0.995083
N 3.406210 0.137768 0.168213
O -0.263427 0.353357 -1.633715
H -0.492676 0.493658 -0.710714
H -0.499771 -0.551129 -1.847230
5
Structure 1283 | Energy: -10.834696 Hartree
N 2.886396 -0.363099 0.995083
N 3.406210 0.137768 0.168213
O 0.023904 0.405365 -2.013258
H -0.302507 0.574942 -1.125074
H -0.217236 -0.496239 -2.233495
5
Structure 1284 | Energy: -10.834641 Hartree
N 2.886396 -0.363099 0.995083
N 3.406210 0.137768 0.168213
O 0.167162 0.863620 -2.049483
H -0.172958 0.995855 -1.160100
H -0.142330 0.004959 -2.343520
5
Structure 1285 | Energy: -10.834638 Hartree
N 2.855950 -0.277437 1.054722
N 3.382363 0.211801 0.225069
O 0.167162 0.863620 -2.049483
H -0.172958 0.995855 -1.160100
H -0.142330 0.004959 -2.343520
5
Structure 1286 | Energy: -10.834605 Hartree
N 2.855950 -0.277437 1.054722
N 3.382363 0.211801 0.225069
O 0.160621 0.744318 -2.211035
H -0.179498 0.876553 -1.321652
H -0.148871 -0.114343 -2.505072
5
Structure 1287 | Energy: -10.834559 Hartree
N 2.419459 -0.198529 1.398796
N 3.061940 0.207749 0.606997
O 0.160621 0.744318 -2.211035
H -0.179498 0.876553 -1.321652
H -0.148871 -0.114343 -2.505072
5
Structure 1288 | Energy: -10.834554 Hartree
N 2.419459 -0.198529 1.398796
N 3.061940 0.207749 0.606997
O 0.160502 0.743145 -2.212541
H -0.170465 0.902880 -1.324220
H -0.156009 -0.122058 -2.478598
5
Structure 1289 | Energy: -10.834940 Hartree
N -0.196967 0.500533 -1.781824
N 0.445514 0.906811 -2.573623
O 2.776928 0.044083 0.968079
H 2.445961 0.203818 1.856400
H 2.460418 -0.821120 0.702022
5
Structure 1290 | Energy: -10.834798 Hartree
N -0.196967 0.500533 -1.781824
N 0.445514 0.906811 -2.573623
O 2.795265 0.280184 1.484761
H 2.464298 0.439918 2.373083
H 2.478755 -0.585020 1.218704
5
Structure 1291 | Energy: -10.834824 Hartree
N -0.196967 0.500533 -1.781824
N 0.445514 0.906811 -2.573623
O 2.756903 0.288320 1.477015
H 2.767594 0.375591 2.434323
H 2.784351 -0.649835 1.280409
5
Structure 1292 | Energy: -10.834795 Hartree
N -0.196967 0.500533 -1.781824
N 0.445514 0.906811 -2.573623
O 2.759189 0.211161 1.462924
H 2.730754 1.160097 1.614194
H 2.784895 -0.209674 2.324190
5
Structure 1293 | Energy: -10.834391 Hartree
N 2.437796 0.037571 1.915478
N 3.080277 0.443849 1.123680
O 0.124426 0.674123 -2.234378
H 0.095991 1.623058 -2.083108
H 0.150131 0.253288 -1.373112
5
Structure 1294 | Energy: -10.834384 Hartree
N 2.262833 -0.056865 1.970175
N 2.905314 0.349413 1.178376
O 0.124426 0.674123 -2.234378
H 0.095991 1.623058 -2.083108
H 0.150131 0.253288 -1.373112
5
Structure 1295 | Energy: -10.834376 Hartree
N 2.262833 -0.056865 1.970175
N 2.905314 0.349413 1.178376
O 1.071779 -0.092496 -2.036457
H 1.043344 0.856440 -1.885187
H 1.097485 -0.513331 -1.175191
5
Structure 1296 | Energy: -10.835078 Hartree
N 0.750386 -0.266086 -1.583903
N 1.392867 0.140192 -2.375701
O 2.584227 0.116725 1.517621
H 2.555791 1.065660 1.668891
H 2.609932 -0.304110 2.378887
5
Structure 1297 | Energy: -10.835082 Hartree
N 0.750386 -0.266086 -1.583903
N 1.392867 0.140192 -2.375701
O 2.585176 0.117641 1.517163
H 2.522156 1.062397 1.683396
H 2.628494 -0.315388 2.371652
5
Structure 1298 | Energy: -10.835097 Hartree
N 0.750961 -0.294922 -1.599594
N 1.392292 0.169028 -2.360010
O 2.585176 0.117641 1.517163
H 2.522156 1.062397 1.683396
H 2.628494 -0.315388 2.371652
5
Structure 1299 | Energy: -10.835120 Hartree
N 0.676201 -0.396265 -1.569705
N 1.317532 0.067685 -2.330122
O 2.585176 0.117641 1.517163
H 2.522156 1.062397 1.683396
H 2.628494 -0.315388 2.371652
5
Structure 1300 | Energy: -10.835119 Hartree
N 0.676201 -0.396265 -1.569705
N 1.317532 0.067685 -2.330122
O 2.585884 0.117982 1.517011
H 2.487789 1.058803 1.688479
H 2.651630 -0.317198 2.368973
5
Structure 1301 | Energy: -10.835249 Hartree
N 1.220527 0.331562 -1.877086
N 0.773206 -0.660143 -2.022740
O 2.585884 0.117982 1.517011
H 2.487789 1.058803 1.688479
H 2.651630 -0.317198 2.368973
5
Structure 1302 | Energy: -10.835270 Hartree
N 1.220527 0.331562 -1.877086
N 0.773206 -0.660143 -2.022740
O 2.892204 -0.272054 1.369771
H 2.836935 0.647888 1.643305
H 3.019969 -0.793835 2.164103
5
Structure 1303 | Energy: -10.834991 Hartree
N 0.536986 0.132042 -1.906390
N 1.456747 -0.460622 -1.993436
O 2.892204 -0.272054 1.369771
H 2.836935 0.647888 1.643305
H 3.019969 -0.793835 2.164103
5
Structure 1304 | Energy: -10.834768 Hartree
N 0.536986 0.132042 -1.906390
N 1.456747 -0.460622 -1.993436
O 3.729887 0.522676 1.348576
H 3.674619 1.442618 1.622110
H 3.857653 0.000895 2.142908
5
Structure 1305 | Energy: -10.834528 Hartree
N -0.128960 0.587792 -2.785988
N 0.790801 -0.004873 -2.873034
O 3.729887 0.522676 1.348576
H 3.674619 1.442618 1.622110
H 3.857653 0.000895 2.142908
5
Structure 1306 | Energy: -10.834516 Hartree
N -0.128960 0.587792 -2.785988
N 0.790801 -0.004873 -2.873034
O 3.598954 -0.005523 1.447708
H 3.556187 0.881852 1.815003
H 3.689187 -0.610789 2.185986
5
Structure 1307 | Energy: -10.834402 Hartree
N -0.128960 0.587792 -2.785988
N 0.790801 -0.004873 -2.873034
O 3.637446 -0.029297 1.474443
H 3.954975 0.636970 2.090425
H 2.679456 0.011438 1.486225
5
Structure 1308 | Energy: -10.834641 Hartree
N -1.022629 -2.031998 -1.164024
N -1.073258 -1.226244 -0.420393
O 3.637446 -0.029297 1.474443
H 3.954975 0.636970 2.090425
H 2.679456 0.011438 1.486225
5
Structure 1309 | Energy: -10.834386 Hartree
N 3.626924 -0.392615 1.137754
N 3.576295 0.413139 1.881384
O -1.012107 -1.668680 -0.827334
H -0.694578 -1.002413 -0.211352
H -1.970097 -1.627945 -0.815552
5
Structure 1310 | Energy: -10.834641 Hartree
N -1.022629 -2.031998 -1.164024
N -1.073258 -1.226244 -0.420393
O 3.637446 -0.029297 1.474443
H 3.954975 0.636970 2.090425
H 2.679456 0.011438 1.486225
5
Structure 1311 | Energy: -10.834641 Hartree
N -1.022629 -2.031998 -1.164024
N -1.073258 -1.226244 -0.420393
O 3.637275 -0.029872 1.474925
H 3.957741 0.644792 2.080152
H 2.679396 0.012728 1.488861
5
Structure 1312 | Energy: -10.834648 Hartree
N -1.022629 -2.031998 -1.164024
N -1.073258 -1.226244 -0.420393
O 3.600439 -0.042859 1.456689
H 3.920905 0.631804 2.061916
H 2.642560 -0.000260 1.470625
5
Structure 1313 | Energy: -10.834665 Hartree
N -1.022629 -2.031998 -1.164024
N -1.073258 -1.226244 -0.420393
O 3.518921 -0.071602 1.416333
H 3.839387 0.603062 2.021560
H 2.561042 -0.029002 1.430270
5
Structure 1314 | Energy: -10.834659 Hartree
N -1.022629 -2.031998 -1.164024
N -1.073258 -1.226244 -0.420393
O 3.542767 -0.075912 1.452117
H 3.863232 0.598752 2.057344
H 2.584887 -0.033312 1.466053
5
Structure 1315 | Energy: -10.834658 Hartree
N -1.022629 -2.031998 -1.164024
N -1.073258 -1.226244 -0.420393
O 3.542770 -0.075948 1.452161
H 3.855886 0.683598 1.951379
H 2.592185 -0.117591 1.571310
5
Structure 1316 | Energy: -10.834411 Hartree
N -0.501174 -1.676409 -0.794185
N -1.594713 -1.581833 -0.790231
O 3.542770 -0.075948 1.452161
H 3.855886 0.683598 1.951379
H 2.592185 -0.117591 1.571310
5
Structure 1317 | Energy: -10.834403 Hartree
N -0.501174 -1.676409 -0.794185
N -1.594713 -1.581833 -0.790231
O 3.541232 -0.077665 1.452651
H 3.879711 0.689823 1.922292
H 2.592764 -0.096554 1.592631
5
Structure 1318 | Energy: -10.834432 Hartree
N -1.030354 -2.160857 -0.302181
N -2.123894 -2.066282 -0.298227
O 3.541232 -0.077665 1.452651
H 3.879711 0.689823 1.922292
H 2.592764 -0.096554 1.592631
5
Structure 1319 | Energy: -10.834432 Hartree
N -1.030354 -2.160857 -0.302181
N -2.123894 -2.066282 -0.298227
O 3.473862 -0.085612 1.417551
H 3.812340 0.681877 1.887192
H 2.525394 -0.104501 1.557531
5
Structure 1320 | Energy: -10.834685 Hartree
N 3.986501 -0.091013 1.449684
N 2.892961 0.003563 1.453638
O -1.542993 -2.155456 -0.334314
H -1.204514 -1.387968 0.135327
H -2.491461 -2.174345 -0.194334
5
Structure 1321 | Energy: -10.834612 Hartree
N 3.986501 -0.091013 1.449684
N 2.892961 0.003563 1.453638
O -1.981777 -2.084191 -0.588081
H -1.643298 -1.316703 -0.118440
H -2.930244 -2.103080 -0.448101
5
Structure 1322 | Energy: -10.834612 Hartree
N 3.986501 -0.091013 1.449684
N 2.892961 0.003563 1.453638
O -2.012520 -2.308560 -0.239574
H -1.676464 -1.526393 0.207025
H -2.948722 -2.365243 -0.039934
5
Structure 1323 | Energy: -10.834643 Hartree
N 1.049719 3.422796 1.173269
N 0.192132 2.744378 1.268563
O -2.012520 -2.308560 -0.239574
H -1.676464 -1.526393 0.207025
H -2.948722 -2.365243 -0.039934
5
Structure 1324 | Energy: -10.834630 Hartree
N 1.049719 3.422796 1.173269
N 0.192132 2.744378 1.268563
O -2.060245 -2.402910 -0.249591
H -1.724189 -1.620743 0.197008
H -2.996446 -2.459593 -0.049951
5
Structure 1325 | Energy: -10.834627 Hartree
N 1.034459 3.424663 1.242451
N 0.176871 2.746245 1.337745
O -2.060245 -2.402910 -0.249591
H -1.724189 -1.620743 0.197008
H -2.996446 -2.459593 -0.049951
5
Structure 1326 | Energy: -10.834379 Hartree
N -1.665031 -2.023107 -0.261079
N -2.522619 -2.701526 -0.165785
O 0.639245 3.044861 1.253939
H 0.975301 3.827028 1.700539
H -0.296956 2.988178 1.453580
5
Structure 1327 | Energy: -10.834373 Hartree
N -1.665031 -2.023107 -0.261079
N -2.522619 -2.701526 -0.165785
O 1.002882 2.298487 0.971518
H 1.338939 3.080653 1.418117
H 0.066681 2.241804 1.171158
5
Structure 1328 | Energy: -10.834399 Hartree
N -1.699170 -1.668136 0.524243
N -2.556757 -2.346554 0.619537
O 1.002882 2.298487 0.971518
H 1.338939 3.080653 1.418117
H 0.066681 2.241804 1.171158
5
Structure 1329 | Energy: -10.834395 Hartree
N -1.643555 -1.684320 0.576803
N -2.501143 -2.362738 0.672097
O 1.002882 2.298487 0.971518
H 1.338939 3.080653 1.418117
H 0.066681 2.241804 1.171158
5
Structure 1330 | Energy: -10.834822 Hartree
N 1.398096 2.678289 0.960030
N 0.540508 1.999871 1.055324
O -2.038769 -2.064122 0.588290
H -1.702712 -1.281955 1.034890
H -2.974970 -2.120805 0.787931
5
Structure 1331 | Energy: -10.834395 Hartree
N -1.643555 -1.684320 0.576803
N -2.501143 -2.362738 0.672097
O 1.002882 2.298487 0.971518
H 1.338939 3.080653 1.418117
H 0.066681 2.241804 1.171158
5
Structure 1332 | Energy: -10.834390 Hartree
N -1.549036 -1.748887 0.624379
N -2.390389 -2.446115 0.728247
O 1.002882 2.298487 0.971518
H 1.338939 3.080653 1.418117
H 0.066681 2.241804 1.171158
5
Structure 1333 | Energy: -10.834400 Hartree
N -1.549036 -1.748887 0.624379
N -2.390389 -2.446115 0.728247
O 1.030713 2.288792 0.598501
H 1.376299 3.100855 0.979675
H 0.096582 2.253737 0.812309
5
Structure 1334 | Energy: -10.834408 Hartree
N -1.788170 -1.369824 -0.129762
N -2.629523 -2.067052 -0.025894
O 1.030713 2.288792 0.598501
H 1.376299 3.100855 0.979675
H 0.096582 2.253737 0.812309
5
Structure 1335 | Energy: -10.834741 Hartree
N -2.139662 -1.187050 0.040651
N -2.278031 -2.249826 -0.196307
O 1.030713 2.288792 0.598501
H 1.376299 3.100855 0.979675
H 0.096582 2.253737 0.812309
5
Structure 1336 | Energy: -10.834580 Hartree
N -2.139662 -1.187050 0.040651
N -2.278031 -2.249826 -0.196307
O 1.355356 3.183681 0.443843
H 1.700942 3.995743 0.825017
H 0.421225 3.148625 0.657650
5
Structure 1337 | Energy: -10.834576 Hartree
N -2.139662 -1.187050 0.040651
N -2.278031 -2.249826 -0.196307
O 1.354132 3.182869 0.443725
H 1.722072 3.984305 0.826464
H 0.419519 3.172953 0.658065
5
Structure 1338 | Energy: -10.834578 Hartree
N -2.139662 -1.187050 0.040651
N -2.278031 -2.249826 -0.196307
O 1.354406 3.183818 0.442755
H 1.714669 3.985390 0.832451
H 0.422573 3.156796 0.667476
5
Structure 1339 | Energy: -10.834580 Hartree
N -1.576271 -1.288230 0.353321
N -1.714640 -2.351007 0.116363
O 1.354406 3.183818 0.442755
H 1.714669 3.985390 0.832451
H 0.422573 3.156796 0.667476
5
Structure 1340 | Energy: -10.834632 Hartree
N -1.576271 -1.288230 0.353321
N -1.714640 -2.351007 0.116363
O 1.041158 2.942403 -0.063608
H 1.401422 3.743974 0.326088
H 0.109325 2.915381 0.161113
5
Structure 1341 | Energy: -10.834690 Hartree
N -1.576271 -1.288230 0.353321
N -1.714640 -2.351007 0.116363
O 1.056846 3.026499 -0.017005
H 0.143208 3.110637 0.269973
H 1.118547 2.213937 -0.522454
5
Structure 1342 | Energy: -10.834477 Hartree
N -1.576271 -1.288230 0.353321
N -1.714640 -2.351007 0.116363
O 1.005113 2.940542 -0.074212
H 1.790963 3.185982 0.422143
H 0.291889 3.502901 0.233370
5
Structure 1343 | Energy: -10.834540 Hartree
N -1.576271 -1.288230 0.353321
N -1.714640 -2.351007 0.116363
O 1.915874 2.718418 -0.599635
H 2.701724 2.963857 -0.103280
H 1.202650 3.280777 -0.292053
5
Structure 1344 | Energy: -10.834546 Hartree
N -1.591208 -1.287962 0.359727
N -1.699703 -2.351275 0.109958
O 1.915874 2.718418 -0.599635
H 2.701724 2.963857 -0.103280
H 1.202650 3.280777 -0.292053
5
Structure 1345 | Energy: -10.834550 Hartree
N -1.581144 -1.266479 0.406418
N -1.689639 -2.329791 0.156649
O 1.924856 2.719327 -0.639265
H 2.710706 2.964766 -0.142909
H 1.211632 3.281685 -0.331683
5
Structure 1346 | Energy: -10.834551 Hartree
N 3.205561 -2.269621 1.017704
N 2.941542 -3.300340 0.748075
O 1.924856 2.719327 -0.639265
H 2.710706 2.964766 -0.142909
H 1.211632 3.281685 -0.331683
5
Structure 1347 | Energy: -10.834545 Hartree
N 3.190139 -2.351491 0.749831
N 2.898061 -3.365899 0.449072
O 1.924856 2.719327 -0.639265
H 2.710706 2.964766 -0.142909
H 1.211632 3.281685 -0.331683
5
Structure 1348 | Energy: -10.834510 Hartree
N 3.190139 -2.351491 0.749831
N 2.898061 -3.365899 0.449072
O 1.904699 3.315504 -0.824253
H 2.690548 3.560944 -0.327897
H 1.191474 3.877863 -0.516671
5
Structure 1349 | Energy: -10.834511 Hartree
N 3.222425 -2.362261 0.760319
N 2.930346 -3.376668 0.459561
O 1.898249 3.307634 -0.834171
H 2.684099 3.553074 -0.337815
H 1.185025 3.869993 -0.526589
5
Structure 1350 | Energy: -10.834515 Hartree
N 3.222425 -2.362261 0.760319
N 2.930346 -3.376668 0.459561
O 1.915167 3.217974 -0.814010
H 2.701017 3.463414 -0.317654
H 1.201943 3.780333 -0.506428
5
Structure 1351 | Energy: -10.834491 Hartree
N 3.336553 -2.691824 0.244542
N 3.044475 -3.706232 -0.056217
O 1.915167 3.217974 -0.814010
H 2.701017 3.463414 -0.317654
H 1.201943 3.780333 -0.506428
5
Structure 1352 | Energy: -10.834491 Hartree
N 3.336553 -2.691824 0.244542
N 3.044475 -3.706232 -0.056217
O 2.268673 3.244847 -1.026505
H 3.105172 3.457101 -0.602965
H 1.619761 3.867663 -0.694007
5
Structure 1353 | Energy: -10.834491 Hartree
N -1.808778 -1.279975 -0.079466
N -2.040314 -2.310995 -0.376413
O 2.268673 3.244847 -1.026505
H 3.105172 3.457101 -0.602965
H 1.619761 3.867663 -0.694007
5
Structure 1354 | Energy: -10.834510 Hartree
N -1.808778 -1.279975 -0.079466
N -2.040314 -2.310995 -0.376413
O 2.432988 2.850280 -1.125353
H 3.269488 3.062534 -0.701813
H 1.784076 3.473096 -0.792855
5
Structure 1355 | Energy: -10.836341 Hartree
N -0.496614 0.561764 -1.942242
N -0.323935 -0.459064 -1.577706
O 0.300371 -2.983327 0.133870
H 0.130792 -2.256532 -0.472084
H 0.551070 -3.740232 -0.398816
5
Structure 1356 | Energy: -10.836335 Hartree
N -0.444797 0.463464 -2.124783
N -0.303835 -0.539695 -1.702176
O 0.300371 -2.983327 0.133870
H 0.130792 -2.256532 -0.472084
H 0.551070 -3.740232 -0.398816
5
Structure 1357 | Energy: -10.836356 Hartree
N -0.479384 0.465011 -2.105893
N -0.269248 -0.541243 -1.721066
O 0.300371 -2.983327 0.133870
H 0.130792 -2.256532 -0.472084
H 0.551070 -3.740232 -0.398816
5
Structure 1358 | Energy: -10.836114 Hartree
N -0.479384 0.465011 -2.105893
N -0.269248 -0.541243 -1.721066
O -0.218767 -3.211637 -0.177180
H -0.388347 -2.484843 -0.783135
H 0.031932 -3.968542 -0.709866
5
Structure 1359 | Energy: -10.836157 Hartree
N -0.479946 0.474553 -2.078441
N -0.268686 -0.550784 -1.748518
O -0.218767 -3.211637 -0.177180
H -0.388347 -2.484843 -0.783135
H 0.031932 -3.968542 -0.709866
5
Structure 1360 | Energy: -10.835920 Hartree
N -0.143174 0.239243 -2.509634
N 0.068087 -0.786094 -2.179711
O -0.218767 -3.211637 -0.177180
H -0.388347 -2.484843 -0.783135
H 0.031932 -3.968542 -0.709866
5
Structure 1361 | Energy: -10.835724 Hartree
N -0.380845 -0.177493 -3.077076
N -0.169584 -1.202829 -2.747153
O -0.218767 -3.211637 -0.177180
H -0.388347 -2.484843 -0.783135
H 0.031932 -3.968542 -0.709866
5
Structure 1362 | Energy: -10.833911 Hartree
N -0.319859 -2.700654 -0.405853
N -0.108598 -3.725990 -0.075930
O -0.279754 -0.688476 -2.848403
H -0.449333 0.038318 -3.454358
H -0.029054 -1.445381 -3.381089
5
Structure 1363 | Energy: -10.833940 Hartree
N -0.319232 -2.726575 -0.378410
N -0.107972 -3.751912 -0.048487
O -0.279754 -0.688476 -2.848403
H -0.449333 0.038318 -3.454358
H -0.029054 -1.445381 -3.381089
5
Structure 1364 | Energy: -10.835706 Hartree
N -0.380845 -0.177493 -3.077076
N -0.169584 -1.202829 -2.747153
O -0.218141 -3.237559 -0.149737
H -0.387720 -2.510764 -0.755692
H 0.032558 -3.994464 -0.682423
5
Structure 1365 | Energy: -10.833940 Hartree
N -0.319232 -2.726575 -0.378410
N -0.107972 -3.751912 -0.048487
O -0.279754 -0.688476 -2.848403
H -0.449333 0.038318 -3.454358
H -0.029054 -1.445381 -3.381089
5
Structure 1366 | Energy: -10.833940 Hartree
N 0.538794 -2.480830 -0.323780
N 0.863117 -3.473785 0.013342
O -0.279754 -0.688476 -2.848403
H -0.449333 0.038318 -3.454358
H -0.029054 -1.445381 -3.381089
5
Structure 1367 | Energy: -10.834082 Hartree
N 0.117389 -3.143871 -0.315858
N 0.441713 -4.136826 0.021263
O -0.279754 -0.688476 -2.848403
H -0.449333 0.038318 -3.454358
H -0.029054 -1.445381 -3.381089
5
Structure 1368 | Energy: -10.834082 Hartree
N 0.117389 -3.143871 -0.315858
N 0.441713 -4.136826 0.021263
O -1.327117 -0.995214 -2.744262
H -1.685671 -0.323764 -3.331426
H -1.226088 -1.795952 -3.262066
5
Structure 1369 | Energy: -10.835619 Hartree
N -1.503688 -0.505971 -2.974649
N -1.179365 -1.498925 -2.637528
O 0.293960 -3.633114 -0.085471
H -0.064594 -2.961664 -0.672635
H 0.394990 -4.433852 -0.603275
5
Structure 1370 | Energy: -10.835608 Hartree
N -1.503688 -0.505971 -2.974649
N -1.179365 -1.498925 -2.637528
O 0.284287 -3.603209 -0.051137
H -0.069463 -2.938137 -0.648388
H 0.352858 -4.419748 -0.549203
5
Structure 1371 | Energy: -10.834914 Hartree
N -1.503688 -0.505971 -2.974649
N -1.179365 -1.498925 -2.637528
O 1.264656 -3.237946 0.387638
H 0.910907 -2.572874 -0.209614
H 1.333228 -4.054486 -0.110429
5
Structure 1372 | Energy: -10.834841 Hartree
N -1.503688 -0.505971 -2.974649
N -1.179365 -1.498925 -2.637528
O 1.108690 -2.858531 0.735228
H 0.772454 -2.258633 0.063487
H 1.252142 -3.705373 0.308861
5
Structure 1373 | Energy: -10.834354 Hartree
N 0.935741 -2.375871 0.505224
N 1.260065 -3.368826 0.842346
O -1.330740 -0.988630 -2.744646
H -1.666976 -0.388733 -3.416387
H -1.187288 -1.835473 -3.171013
5
Structure 1374 | Energy: -10.834351 Hartree
N 0.885842 -2.337622 0.434043
N 1.210166 -3.330577 0.771165
O -1.330740 -0.988630 -2.744646
H -1.666976 -0.388733 -3.416387
H -1.187288 -1.835473 -3.171013
5
Structure 1375 | Energy: -10.834320 Hartree
N 0.885842 -2.337622 0.434043
N 1.210166 -3.330577 0.771165
O -1.042658 -1.138384 -2.453074
H -1.378894 -0.538486 -3.124815
H -0.899206 -1.985226 -2.879442
5
Structure 1376 | Energy: -10.834312 Hartree
N 0.860359 -2.341769 0.448986
N 1.235650 -3.326430 0.756222
O -1.042658 -1.138384 -2.453074
H -1.378894 -0.538486 -3.124815
H -0.899206 -1.985226 -2.879442
5
Structure 1377 | Energy: -10.834312 Hartree
N 0.866836 -2.343977 0.443905
N 1.242824 -3.328861 0.749570
O -1.042658 -1.138384 -2.453074
H -1.378894 -0.538486 -3.124815
H -0.899206 -1.985226 -2.879442
5
Structure 1378 | Energy: -10.835080 Hartree
N -1.241439 -0.659759 -2.667350
N -0.865451 -1.644644 -2.361685
O 1.065617 -2.822602 0.658180
H 0.729381 -2.222704 -0.013561
H 1.209069 -3.669444 0.231812
5
Structure 1379 | Energy: -10.834987 Hartree
N 0.460781 -1.281864 -3.633562
N 0.832880 -2.135785 -3.052909
O 1.065617 -2.822602 0.658180
H 0.729381 -2.222704 -0.013561
H 1.209069 -3.669444 0.231812
5
Structure 1380 | Energy: -10.834862 Hartree
N 0.460781 -1.281864 -3.633562
N 0.832880 -2.135785 -3.052909
O 0.670615 -2.513334 0.753032
H 0.390214 -1.976598 0.006401
H 0.883295 -3.382941 0.409434
5
Structure 1381 | Energy: -10.834862 Hartree
N -1.058908 -1.746939 -3.397166
N -0.723393 -2.612056 -2.810822
O 0.670615 -2.513334 0.753032
H 0.390214 -1.976598 0.006401
H 0.883295 -3.382941 0.409434
5
Structure 1382 | Energy: -10.834877 Hartree
N -0.587958 -1.975983 -3.601260
N -0.265336 -2.799008 -2.950614
O 0.670615 -2.513334 0.753032
H 0.390214 -1.976598 0.006401
H 0.883295 -3.382941 0.409434
5
Structure 1383 | Energy: -10.834636 Hartree
N -0.878997 -2.111729 -3.419227
N 0.025703 -2.663261 -3.132647
O 0.670615 -2.513334 0.753032
H 0.390214 -1.976598 0.006401
H 0.883295 -3.382941 0.409434
5
Structure 1384 | Energy: -10.834689 Hartree
N -0.878997 -2.111729 -3.419227
N 0.025703 -2.663261 -3.132647
O 0.767011 -2.726535 0.700895
H 0.486610 -2.189799 -0.045736
H 0.979691 -3.596143 0.357297
5
Structure 1385 | Energy: -10.834741 Hartree
N -0.443410 0.125642 3.782679
N 0.442602 -0.521873 3.760293
O 0.767011 -2.726535 0.700895
H 0.486610 -2.189799 -0.045736
H 0.979691 -3.596143 0.357297
5
Structure 1386 | Energy: -10.834690 Hartree
N 0.320216 -2.421403 0.651086
N 1.206228 -3.068918 0.628700
O 0.003385 -0.179490 3.832488
H -0.277016 0.357246 3.085857
H 0.216065 -1.049097 3.488890
5
Structure 1387 | Energy: -10.834589 Hartree
N 0.320216 -2.421403 0.651086
N 1.206228 -3.068918 0.628700
O 0.608286 0.071237 3.705277
H 0.344903 0.600263 2.947037
H 0.674444 -0.836898 3.404571
5
Structure 1388 | Energy: -10.834592 Hartree
N 0.320216 -2.421403 0.651086
N 1.206228 -3.068918 0.628700
O 0.609515 0.050544 3.683023
H 0.346132 0.579570 2.924782
H 0.675673 -0.857591 3.382317
5
Structure 1389 | Energy: -10.834589 Hartree
N 0.320216 -2.421403 0.651086
N 1.206228 -3.068918 0.628700
O 0.609525 0.050545 3.683020
H 0.321799 0.575455 2.930789
H 0.699842 -0.853504 3.376350
5
Structure 1390 | Energy: -10.834589 Hartree
N 0.286554 -2.427654 0.659599
N -0.232018 -3.335995 0.992458
O 0.609525 0.050545 3.683020
H 0.321799 0.575455 2.930789
H 0.699842 -0.853504 3.376350
5
Structure 1391 | Energy: -10.834575 Hartree
N 0.286554 -2.427654 0.659599
N -0.232018 -3.335995 0.992458
O 0.954067 -0.369338 3.893412
H 0.666340 0.155572 3.141181
H 1.044383 -1.273387 3.586742
5
Structure 1392 | Energy: -10.834570 Hartree
N 0.276557 -2.454849 0.626762
N -0.242014 -3.363191 0.959620
O 0.954067 -0.369338 3.893412
H 0.666340 0.155572 3.141181
H 1.044383 -1.273387 3.586742
5
Structure 1393 | Energy: -10.834943 Hartree
N 1.202307 0.063619 3.667734
N 0.683735 -0.844723 4.000592
O 0.028317 -2.887806 0.852440
H -0.259409 -2.362896 0.100209
H 0.118633 -3.791855 0.545770
5
Structure 1394 | Energy: -10.834533 Hartree
N 0.642275 -0.846629 3.781777
N 1.243766 0.065526 3.886549
O 0.028317 -2.887806 0.852440
H -0.259409 -2.362896 0.100209
H 0.118633 -3.791855 0.545770
5
Structure 1395 | Energy: -10.834982 Hartree
N -0.283474 -3.365097 0.740805
N 0.318017 -2.452942 0.845577
O 0.954067 -0.369338 3.893412
H 0.666340 0.155572 3.141181
H 1.044383 -1.273387 3.586742
5
Structure 1396 | Energy: -10.834959 Hartree
N -0.145435 -3.278993 0.610307
N 0.437329 -2.361355 0.762365
O 0.954067 -0.369338 3.893412
H 0.666340 0.155572 3.141181
H 1.044383 -1.273387 3.586742
5
Structure 1397 | Energy: -10.834542 Hartree
N 0.339204 -3.135709 1.091661
N -0.047310 -2.504639 0.281011
O 0.954067 -0.369338 3.893412
H 0.666340 0.155572 3.141181
H 1.044383 -1.273387 3.586742
5
Structure 1398 | Energy: -10.834549 Hartree
N 0.339204 -3.135709 1.091661
N -0.047310 -2.504639 0.281011
O 1.108950 -0.403529 3.876547
H 0.770772 0.127828 3.150280
H 1.192862 -1.301858 3.551781
5
Structure 1399 | Energy: -10.834582 Hartree
N 0.339204 -3.135709 1.091661
N -0.047310 -2.504639 0.281011
O 2.284070 -0.590668 3.315017
H 1.945892 -0.059312 2.588750
H 2.367982 -1.488998 2.990252
5
Structure 1400 | Energy: -10.834504 Hartree
N 0.372598 -3.588760 2.034765
N -0.013916 -2.957691 1.224115
O 2.284070 -0.590668 3.315017
H 1.945892 -0.059312 2.588750
H 2.367982 -1.488998 2.990252
5
Structure 1401 | Energy: -10.834450 Hartree
N 0.108313 -3.011375 1.152378
N 0.250370 -3.535076 2.106502
O 2.284070 -0.590668 3.315017
H 1.945892 -0.059312 2.588750
H 2.367982 -1.488998 2.990252
5
Structure 1402 | Energy: -10.834456 Hartree
N 0.108313 -3.011375 1.152378
N 0.250370 -3.535076 2.106502
O 2.318341 -0.533263 3.292284
H 1.980162 -0.001906 2.566017
H 2.402252 -1.431592 2.967518
5
Structure 1403 | Energy: -10.834453 Hartree
N 0.108313 -3.011375 1.152378
N 0.250370 -3.535076 2.106502
O 2.318639 -0.533287 3.292219
H 1.981278 -0.000713 2.566463
H 2.396412 -1.432399 2.968093
5
Structure 1404 | Energy: -10.834385 Hartree
N 0.108313 -3.011375 1.152378
N 0.250370 -3.535076 2.106502
O 1.607721 0.548959 4.082115
H 1.270360 1.081533 3.356359
H 1.685494 -0.350153 3.757989
5
Structure 1405 | Energy: -10.834389 Hartree
N -0.017471 -3.009988 1.317763
N 0.124587 -3.533689 2.271887
O 1.607721 0.548959 4.082115
H 1.270360 1.081533 3.356359
H 1.685494 -0.350153 3.757989
5
Structure 1406 | Energy: -10.834389 Hartree
N -0.028469 -3.102722 1.279199
N 0.135585 -3.440954 2.310451
O 1.607721 0.548959 4.082115
H 1.270360 1.081533 3.356359
H 1.685494 -0.350153 3.757989
5
Structure 1407 | Energy: -10.834389 Hartree
N -0.021015 -3.101802 1.273592
N 0.137792 -3.439738 2.305762
O 1.607721 0.548959 4.082115
H 1.270360 1.081533 3.356359
H 1.685494 -0.350153 3.757989
5
Structure 1408 | Energy: -10.834548 Hartree
N -0.021015 -3.101802 1.273592
N 0.137792 -3.439738 2.305762
O 1.654108 0.547153 4.028110
H 0.903632 1.095814 3.783313
H 1.315966 -0.335763 4.188201
5
Structure 1409 | Energy: -10.834552 Hartree
N -0.021015 -3.101802 1.273592
N 0.137792 -3.439738 2.305762
O 1.369585 0.611540 4.100926
H 0.572628 1.101885 3.880494
H 1.107961 -0.299912 4.243467
5
Structure 1410 | Energy: -10.834522 Hartree
N -0.021015 -3.101802 1.273592
N 0.137792 -3.439738 2.305762
O 1.053790 0.806922 3.914539
H 0.267623 1.254186 3.588861
H 0.804055 -0.100058 4.100359
5
Structure 1411 | Energy: -10.834532 Hartree
N -1.216043 -2.697056 0.867512
N -1.057236 -3.034992 1.899682
O 1.053790 0.806922 3.914539
H 0.267623 1.254186 3.588861
H 0.804055 -0.100058 4.100359
5
Structure 1412 | Energy: -10.834738 Hartree
N -1.216043 -2.697056 0.867512
N -1.057236 -3.034992 1.899682
O 1.319892 -0.290263 3.997720
H 0.533726 0.157001 3.672042
H 1.070158 -1.197243 4.183540
5
Structure 1413 | Energy: -10.834496 Hartree
N -2.139301 -3.544683 0.425657
N -1.980494 -3.882619 1.457827
O 1.319892 -0.290263 3.997720
H 0.533726 0.157001 3.672042
H 1.070158 -1.197243 4.183540
5
Structure 1414 | Energy: -10.834451 Hartree
N -2.139301 -3.544683 0.425657
N -1.980494 -3.882619 1.457827
O 1.769707 0.528113 3.904333
H 0.983541 0.975377 3.578655
H 1.519973 -0.378867 4.090152
5
Structure 1415 | Energy: -10.834453 Hartree
N -2.139301 -3.544683 0.425657
N -1.980494 -3.882619 1.457827
O 1.824677 0.499683 4.011141
H 1.038511 0.946947 3.685463
H 1.574943 -0.407297 4.196961
5
Structure 1416 | Energy: -10.834454 Hartree
N -2.139301 -3.544683 0.425657
N -1.980494 -3.882619 1.457827
O 1.765726 0.435171 3.963976
H 0.979560 0.882435 3.638298
H 1.515992 -0.471809 4.149795
5
Structure 1417 | Energy: -10.834455 Hartree
N -2.159527 -3.513285 0.404838
N -2.000719 -3.851221 1.437008
O 1.767602 0.428349 3.950780
H 0.981436 0.875613 3.625102
H 1.517868 -0.478631 4.136600
5
Structure 1418 | Energy: -10.834455 Hartree
N -2.145822 -3.498513 0.415766
N -1.987015 -3.836449 1.447936
O 1.767602 0.428349 3.950780
H 0.981436 0.875613 3.625102
H 1.517868 -0.478631 4.136600
5
Structure 1419 | Energy: -10.834455 Hartree
N -2.199604 -3.518704 0.361872
N -2.040797 -3.856640 1.394042
O 1.767602 0.428349 3.950780
H 0.981436 0.875613 3.625102
H 1.517868 -0.478631 4.136600
5
Structure 1420 | Energy: -10.834455 Hartree
N -2.199604 -3.518704 0.361872
N -2.040797 -3.856640 1.394042
O 1.766844 0.430527 3.948821
H 0.980570 0.877481 3.622976
H 1.517309 -0.476424 4.135050
5
Structure 1421 | Energy: -10.834456 Hartree
N -2.199604 -3.518704 0.361872
N -2.040797 -3.856640 1.394042
O 1.920571 0.281221 3.946986
H 1.183182 0.767224 3.567212
H 1.598471 -0.596599 4.159571
5
Structure 1422 | Energy: -10.834462 Hartree
N -1.624010 -3.608215 -0.117642
N -1.478215 -4.009108 0.893706
O 1.920571 0.281221 3.946986
H 1.183182 0.767224 3.567212
H 1.598471 -0.596599 4.159571
5
Structure 1423 | Energy: -10.834527 Hartree
N 1.788392 0.459744 3.431957
N 1.934186 0.058851 4.443305
O -1.491831 -3.786738 0.397387
H -2.229219 -3.300736 0.017613
H -1.813931 -4.664558 0.609973
5
Structure 1424 | Energy: -10.834527 Hartree
N 1.788392 0.459744 3.431957
N 1.934186 0.058851 4.443305
O -1.491833 -3.786735 0.397396
H -2.222892 -3.308614 -0.004004
H -1.820216 -4.656732 0.631445
5
Structure 1425 | Energy: -10.834553 Hartree
N 1.331636 0.348320 4.050510
N 2.390942 0.170276 3.824752
O -1.491833 -3.786735 0.397396
H -2.222892 -3.308614 -0.004004
H -1.820216 -4.656732 0.631445
5
Structure 1426 | Energy: -10.834555 Hartree
N 1.331636 0.348320 4.050510
N 2.390942 0.170276 3.824752
O -1.478976 -3.771408 0.410770
H -2.210035 -3.293287 0.009370
H -1.807358 -4.641405 0.644819
5
Structure 1427 | Energy: -10.834485 Hartree
N 1.759530 0.303528 4.475114
N 1.963048 0.215068 3.400148
O -1.478976 -3.771408 0.410770
H -2.210035 -3.293287 0.009370
H -1.807358 -4.641405 0.644819
5
Structure 1428 | Energy: -10.834485 Hartree
N 1.759530 0.303528 4.475114
N 1.963048 0.215068 3.400148
O -0.987203 4.138037 -0.146996
H -1.775082 3.702289 -0.483952
H -1.203797 5.065987 -0.039737
5
Structure 1429 | Energy: -10.834491 Hartree
N 1.759530 0.303528 4.475114
N 1.963048 0.215068 3.400148
O -0.989599 4.136972 -0.140641
H -1.756141 3.710712 -0.534195
H -1.184712 5.074475 -0.090364
5
Structure 1430 | Energy: -10.834491 Hartree
N 1.764667 0.312552 4.479513
N 1.967027 0.222029 3.404501
O -0.989599 4.136972 -0.140641
H -1.756141 3.710712 -0.534195
H -1.184712 5.074475 -0.090364
5
Structure 1431 | Energy: -10.834487 Hartree
N 1.768597 0.299637 4.481168
N 1.963097 0.234944 3.402845
O -0.989599 4.136972 -0.140641
H -1.756141 3.710712 -0.534195
H -1.184712 5.074475 -0.090364
5
Structure 1432 | Energy: -10.834486 Hartree
N 2.443728 0.410768 4.538861
N 2.638228 0.346076 3.460538
O -0.989599 4.136972 -0.140641
H -1.756141 3.710712 -0.534195
H -1.184712 5.074475 -0.090364
5
Structure 1433 | Energy: -10.834530 Hartree
N 3.083330 0.439885 3.942468
N 1.998626 0.316958 4.056931
O -0.989599 4.136972 -0.140641
H -1.756141 3.710712 -0.534195
H -1.184712 5.074475 -0.090364
5
Structure 1434 | Energy: -10.834529 Hartree
N 3.083993 0.434965 3.943689
N 1.997964 0.321879 4.055711
O -0.989599 4.136972 -0.140641
H -1.756141 3.710712 -0.534195
H -1.184712 5.074475 -0.090364
5
Structure 1435 | Energy: -10.834538 Hartree
N 3.057436 0.433445 3.822378
N 2.024521 0.323398 4.177022
O -0.989599 4.136972 -0.140641
H -1.756141 3.710712 -0.534195
H -1.184712 5.074475 -0.090364
5
Structure 1436 | Energy: -10.834521 Hartree
N 2.554227 0.903821 4.157746
N 2.527729 -0.146978 3.841654
O -0.989599 4.136972 -0.140641
H -1.756141 3.710712 -0.534195
H -1.184712 5.074475 -0.090364
5
Structure 1437 | Energy: -10.834438 Hartree
N -1.030158 4.690977 -0.001803
N -1.056656 3.640178 -0.317895
O 2.594786 0.349816 4.018907
H 1.828244 -0.076443 3.625353
H 2.399674 1.287319 4.069184
5
Structure 1438 | Energy: -10.834440 Hartree
N -1.044982 4.803573 -0.001498
N -1.071480 3.752774 -0.317590
O 2.594786 0.349816 4.018907
H 1.828244 -0.076443 3.625353
H 2.399674 1.287319 4.069184
5
Structure 1439 | Energy: -10.834439 Hartree
N -1.044982 4.803573 -0.001498
N -1.071480 3.752774 -0.317590
O 2.593178 0.348610 4.021356
H 1.832263 -0.061353 3.600515
H 2.421180 1.291363 4.055158
5
Structure 1440 | Energy: -10.834453 Hartree
N 2.062603 1.403085 -2.868479
N 2.710623 2.106314 -2.329653
O 2.593178 0.348610 4.021356
H 1.832263 -0.061353 3.600515
H 2.421180 1.291363 4.055158
5
Structure 1441 | Energy: -10.834506 Hartree
N 2.216968 0.026807 3.730287
N 2.864988 0.730036 4.269113
O 2.438813 1.724888 -2.577410
H 1.677898 1.314925 -2.998251
H 2.266815 2.667641 -2.543608
5
Structure 1442 | Energy: -10.834509 Hartree
N 2.214695 0.047068 3.633141
N 2.862716 0.750298 4.171967
O 2.438813 1.724888 -2.577410
H 1.677898 1.314925 -2.998251
H 2.266815 2.667641 -2.543608
5
Structure 1443 | Energy: -10.834511 Hartree
N 2.266652 -0.138348 3.580573
N 2.917392 0.549987 4.135125
O 2.438813 1.724888 -2.577410
H 1.677898 1.314925 -2.998251
H 2.266815 2.667641 -2.543608
5
Structure 1444 | Energy: -10.834509 Hartree
N 2.266652 -0.138348 3.580573
N 2.917392 0.549987 4.135125
O 2.364312 1.693206 -2.609180
H 1.603397 1.283242 -3.030021
H 2.192314 2.635959 -2.575378
5
Structure 1445 | Energy: -10.834511 Hartree
N 2.041037 0.345645 3.504738
N 2.691778 1.033980 4.059289
O 2.364312 1.693206 -2.609180
H 1.603397 1.283242 -3.030021
H 2.192314 2.635959 -2.575378
5
Structure 1446 | Energy: -10.834511 Hartree
N 1.950937 0.429822 3.506139
N 2.601678 1.118157 4.060691
O 2.364312 1.693206 -2.609180
H 1.603397 1.283242 -3.030021
H 2.192314 2.635959 -2.575378
5
Structure 1447 | Energy: -10.834512 Hartree
N 1.958648 0.523963 3.463793
N 2.609388 1.212298 4.018345
O 2.364312 1.693206 -2.609180
H 1.603397 1.283242 -3.030021
H 2.192314 2.635959 -2.575378
5
Structure 1448 | Energy: -10.834514 Hartree
N 1.944881 0.531207 3.471499
N 2.623155 1.205054 4.010639
O 2.364312 1.693206 -2.609180
H 1.603397 1.283242 -3.030021
H 2.192314 2.635959 -2.575378
5
Structure 1449 | Energy: -10.834512 Hartree
N 2.106817 0.552952 3.483292
N 2.765011 1.258570 4.006437
O 2.364312 1.693206 -2.609180
H 1.603397 1.283242 -3.030021
H 2.192314 2.635959 -2.575378
5
Structure 1450 | Energy: -10.834454 Hartree
N 1.983015 1.370208 -2.892408
N 2.641209 2.075826 -2.369264
O 2.488114 0.875949 3.766521
H 1.727199 0.465986 3.345680
H 2.316116 1.818703 3.800323
5
Structure 1451 | Energy: -10.834512 Hartree
N 2.106817 0.552952 3.483292
N 2.765011 1.258570 4.006437
O 2.364312 1.693206 -2.609180
H 1.603397 1.283242 -3.030021
H 2.192314 2.635959 -2.575378
5
Structure 1452 | Energy: -10.834454 Hartree
N 1.983015 1.370208 -2.892408
N 2.641209 2.075826 -2.369264
O 2.488114 0.875949 3.766521
H 1.727199 0.465986 3.345680
H 2.316116 1.818703 3.800323
5
Structure 1453 | Energy: -10.834458 Hartree
N 2.658234 1.227212 -2.885798
N 3.316428 1.932830 -2.362654
O 2.488114 0.875949 3.766521
H 1.727199 0.465986 3.345680
H 2.316116 1.818703 3.800323
5
Structure 1454 | Energy: -10.834464 Hartree
N 2.658234 1.227212 -2.885798
N 3.316428 1.932830 -2.362654
O 2.404330 -0.082477 3.362070
H 1.643415 -0.492440 2.941229
H 2.232332 0.860277 3.395872
5
Structure 1455 | Energy: -10.834462 Hartree
N 2.658234 1.227212 -2.885798
N 3.316428 1.932830 -2.362654
O 2.403777 -0.082198 3.363715
H 1.643673 -0.499357 2.948519
H 2.240847 0.862769 3.362477
5
Structure 1456 | Energy: -10.834493 Hartree
N 2.973282 0.500071 -2.240141
N 3.631476 1.205689 -1.716997
O 2.403777 -0.082198 3.363715
H 1.643673 -0.499357 2.948519
H 2.240847 0.862769 3.362477
5
Structure 1457 | Energy: -10.834494 Hartree
N 2.778378 1.141248 -2.063769
N 3.436572 1.846866 -1.540624
O 2.403777 -0.082198 3.363715
H 1.643673 -0.499357 2.948519
H 2.240847 0.862769 3.362477
5
Structure 1458 | Energy: -10.834500 Hartree
N 3.181832 2.024463 -1.682449
N 3.033118 0.963651 -1.921944
O 2.403777 -0.082198 3.363715
H 1.643673 -0.499357 2.948519
H 2.240847 0.862769 3.362477
5
Structure 1459 | Energy: -10.834495 Hartree
N 3.181832 2.024463 -1.682449
N 3.033118 0.963651 -1.921944
O 2.295879 -0.024797 3.352315
H 3.008648 -0.168397 3.981209
H 2.588435 -0.379264 2.510725
5
Structure 1460 | Energy: -10.834494 Hartree
N 3.299866 1.937456 -1.587001
N 3.151152 0.876644 -1.826495
O 2.295879 -0.024797 3.352315
H 3.008648 -0.168397 3.981209
H 2.588435 -0.379264 2.510725
5
Structure 1461 | Energy: -10.834537 Hartree
N 2.426487 0.477741 3.460161
N 2.277773 -0.583071 3.220667
O 3.169258 1.434918 -1.694847
H 3.882027 1.291318 -1.065953
H 3.461813 1.080451 -2.536437
5
Structure 1462 | Energy: -10.834494 Hartree
N 3.299866 1.937456 -1.587001
N 3.151152 0.876644 -1.826495
O 2.295879 -0.024797 3.352315
H 3.008648 -0.168397 3.981209
H 2.588435 -0.379264 2.510725
5
Structure 1463 | Energy: -10.834490 Hartree
N 3.311982 1.987383 -1.684458
N 3.163267 0.926571 -1.923952
O 2.279405 -0.050371 3.377375
H 2.992174 -0.193972 4.006269
H 2.571961 -0.404839 2.535786
5
Structure 1464 | Energy: -10.834526 Hartree
N 2.410014 0.452166 3.485222
N 2.261300 -0.608646 3.245727
O 3.181373 1.484845 -1.792304
H 3.894142 1.341245 -1.163410
H 3.473929 1.130378 -2.633894
5
Structure 1465 | Energy: -10.834530 Hartree
N 2.410014 0.452166 3.485222
N 2.261300 -0.608646 3.245727
O 3.025592 1.001889 -1.937210
H 3.747792 1.002770 -1.302706
H 3.356395 0.591891 -2.738447
5
Structure 1466 | Energy: -10.834530 Hartree
N 2.405374 0.454990 3.475039
N 2.265939 -0.611469 3.255909
O 3.025592 1.001889 -1.937210
H 3.747792 1.002770 -1.302706
H 3.356395 0.591891 -2.738447
5
Structure 1467 | Energy: -10.834528 Hartree
N 2.405374 0.454990 3.475039
N 2.265939 -0.611469 3.255909
O 3.024549 0.999591 -1.938601
H 3.731323 1.028739 -1.287610
H 3.389412 0.602396 -2.731457
5
Structure 1468 | Energy: -10.834477 Hartree
N 2.405374 0.454990 3.475039
N 2.265939 -0.611469 3.255909
O 2.504240 1.059208 -3.033909
H 3.211014 1.088356 -2.382918
H 2.869103 0.662013 -3.826765
5
Structure 1469 | Energy: -10.834478 Hartree
N 2.405374 0.454990 3.475039
N 2.265939 -0.611469 3.255909
O 2.563184 0.996660 -2.996391
H 3.269958 1.025808 -2.345400
H 2.928047 0.599465 -3.789247
5
Structure 1470 | Energy: -10.834490 Hartree
N 2.109532 0.489679 3.145314
N 1.970096 -0.576780 2.926185
O 2.563184 0.996660 -2.996391
H 3.269958 1.025808 -2.345400
H 2.928047 0.599465 -3.789247
5
Structure 1471 | Energy: -10.834494 Hartree
N 1.912729 0.833206 3.143303
N 1.751132 -0.239579 2.976523
O 2.563184 0.996660 -2.996391
H 3.269958 1.025808 -2.345400
H 2.928047 0.599465 -3.789247
5
Structure 1472 | Energy: -10.834491 Hartree
N 2.043332 1.153548 3.156093
N 1.993312 0.061281 3.059933
O 2.563184 0.996660 -2.996391
H 3.269958 1.025808 -2.345400
H 2.928047 0.599465 -3.789247
5
Structure 1473 | Energy: -10.834491 Hartree
N 2.043332 1.153548 3.156093
N 1.993312 0.061281 3.059933
O 2.720223 1.122704 -2.970963
H 3.410082 1.137064 -2.301593
H 3.104845 0.741466 -3.762311
5
Structure 1474 | Energy: -10.834505 Hartree
N 2.320243 1.007626 2.618742
N 2.270223 -0.084641 2.522582
O 2.720223 1.122704 -2.970963
H 3.410082 1.137064 -2.301593
H 3.104845 0.741466 -3.762311
5
Structure 1475 | Energy: -10.834506 Hartree
N 2.314827 0.996145 2.618088
N 2.264289 -0.095889 2.519589
O 2.720223 1.122704 -2.970963
H 3.410082 1.137064 -2.301593
H 3.104845 0.741466 -3.762311
5
Structure 1476 | Energy: -10.834521 Hartree
N 2.314827 0.996145 2.618088
N 2.264289 -0.095889 2.519589
O 3.118577 1.198010 -2.842020
H 3.808436 1.212370 -2.172650
H 3.503199 0.816772 -3.633368
5
Structure 1477 | Energy: -10.834540 Hartree
N 1.926259 0.860166 2.601730
N 2.652856 0.040090 2.535947
O 3.118577 1.198010 -2.842020
H 3.808436 1.212370 -2.172650
H 3.503199 0.816772 -3.633368
5
Structure 1478 | Energy: -10.834721 Hartree
N 1.926259 0.860166 2.601730
N 2.652856 0.040090 2.535947
O 3.305112 1.415880 -1.676894
H 3.994972 1.430240 -1.007523
H 3.689735 1.034642 -2.468242
5
Structure 1479 | Energy: -10.834723 Hartree
N 0.474194 -0.993834 -4.263606
N 1.251343 -1.749366 -4.090379
O 3.305112 1.415880 -1.676894
H 3.994972 1.430240 -1.007523
H 3.689735 1.034642 -2.468242
5
Structure 1480 | Energy: -10.834726 Hartree
N 0.476928 -1.078029 -4.186160
N 1.286564 -1.805833 -4.046206
O 3.305112 1.415880 -1.676894
H 3.994972 1.430240 -1.007523
H 3.689735 1.034642 -2.468242
5
Structure 1481 | Energy: -10.834685 Hartree
N 0.476928 -1.078029 -4.186160
N 1.286564 -1.805833 -4.046206
O 3.182867 1.519112 -1.579935
H 3.872726 1.533472 -0.910565
H 3.567490 1.137873 -2.371283
5
Structure 1482 | Energy: -10.834702 Hartree
N 0.476928 -1.078029 -4.186160
N 1.286564 -1.805833 -4.046206
O 3.396551 1.551011 -1.832865
H 4.064576 1.574443 -1.141952
H 3.763366 1.046214 -2.560970
5
Structure 1483 | Energy: -10.834705 Hartree
N 0.476928 -1.078029 -4.186160
N 1.286564 -1.805833 -4.046206
O 3.871306 1.191601 -1.420881
H 4.539332 1.215033 -0.729968
H 4.238121 0.686804 -2.148986
5
Structure 1484 | Energy: -10.834690 Hartree
N 0.476928 -1.078029 -4.186160
N 1.286564 -1.805833 -4.046206
O 3.953063 1.443394 -1.796802
H 4.674800 1.528189 -1.167458
H 4.281954 0.924089 -2.532779
5
Structure 1485 | Energy: -10.834705 Hartree
N 0.476928 -1.078029 -4.186160
N 1.286564 -1.805833 -4.046206
O 3.958682 1.393156 -1.832889
H 4.680419 1.477950 -1.203545
H 4.287573 0.873851 -2.568866
5
Structure 1486 | Energy: -10.834713 Hartree
N 0.476928 -1.078029 -4.186160
N 1.286564 -1.805833 -4.046206
O 4.045230 1.331082 -1.875323
H 4.770561 1.402809 -1.248491
H 4.357165 0.793036 -2.605195
5
Structure 1487 | Energy: -10.834708 Hartree
N 0.557245 -1.066604 -4.319068
N 1.366250 -1.792195 -4.164716
O 4.045230 1.331082 -1.875323
H 4.770561 1.402809 -1.248491
H 4.357165 0.793036 -2.605195
5
Structure 1488 | Energy: -10.834582 Hartree
N -0.231235 -1.570476 -4.371668
N 0.577770 -2.296066 -4.217317
O 4.045230 1.331082 -1.875323
H 4.770561 1.402809 -1.248491
H 4.357165 0.793036 -2.605195
5
Structure 1489 | Energy: -10.834582 Hartree
N -0.231235 -1.570476 -4.371668
N 0.577770 -2.296066 -4.217317
O 4.045519 1.331868 -1.876082
H 4.761479 1.389001 -1.237094
H 4.361665 0.794379 -2.604551
5
Structure 1490 | Energy: -10.834612 Hartree
N -0.340524 -2.121966 -4.254352
N 0.687059 -1.744576 -4.334633
O 4.045519 1.331868 -1.876082
H 4.761479 1.389001 -1.237094
H 4.361665 0.794379 -2.604551
5
Structure 1491 | Energy: -10.834610 Hartree
N -0.340524 -2.121966 -4.254352
N 0.687059 -1.744576 -4.334633
O 4.080948 1.295923 -1.884821
H 4.799596 1.346135 -1.248275
H 4.390063 0.756952 -2.615210
5
Structure 1492 | Energy: -10.834614 Hartree
N -0.340524 -2.121966 -4.254352
N 0.687059 -1.744576 -4.334633
O 4.080469 1.293993 -1.881462
H 4.821021 1.335847 -1.269907
H 4.376235 0.797877 -2.646904
5
Structure 1493 | Energy: -10.834615 Hartree
N -0.339933 -2.122653 -4.250237
N 0.686468 -1.743889 -4.338748
O 4.080469 1.293993 -1.881462
H 4.821021 1.335847 -1.269907
H 4.376235 0.797877 -2.646904
5
Structure 1494 | Energy: -10.834581 Hartree
N 1.682005 3.909084 3.021173
N 2.496507 3.308028 2.596776
O 4.080469 1.293993 -1.881462
H 4.821021 1.335847 -1.269907
H 4.376235 0.797877 -2.646904
5
Structure 1495 | Energy: -10.834507 Hartree
N 1.057488 4.165438 2.924202
N 1.871991 3.564381 2.499805
O 4.080469 1.293993 -1.881462
H 4.821021 1.335847 -1.269907
H 4.376235 0.797877 -2.646904
5
Structure 1496 | Energy: -10.834512 Hartree
N 1.057488 4.165438 2.924202
N 1.871991 3.564381 2.499805
O 4.038459 1.334787 -1.809153
H 4.779011 1.376641 -1.197599
H 4.334225 0.838671 -2.574595
5
Structure 1497 | Energy: -10.834517 Hartree
N 1.057488 4.165438 2.924202
N 1.871991 3.564381 2.499805
O 3.998150 1.373930 -1.739771
H 4.738702 1.415784 -1.128217
H 4.293915 0.877814 -2.505214
5
Structure 1498 | Energy: -10.834527 Hartree
N 1.057488 4.165438 2.924202
N 1.871991 3.564381 2.499805
O 3.998141 1.374708 -1.742635
H 4.706626 1.403166 -1.093476
H 4.326122 0.878082 -2.494500
5
Structure 1499 | Energy: -10.834534 Hartree
N 1.057488 4.165438 2.924202
N 1.871991 3.564381 2.499805
O 3.856773 1.299865 -1.778181
H 4.578453 1.316769 -1.143311
H 4.159346 0.792708 -2.533662
5
Structure 1500 | Energy: -10.834586 Hartree
N 1.081212 4.254395 2.761061
N 1.848267 3.475425 2.662945
O 3.856773 1.299865 -1.778181
H 4.578453 1.316769 -1.143311
H 4.159346 0.792708 -2.533662
5
Structure 1501 | Energy: -10.834588 Hartree
N 1.081212 4.254395 2.761061
N 1.848267 3.475425 2.662945
O 3.856917 1.300515 -1.779836
H 4.577068 1.347591 -1.144750
H 4.158443 0.751565 -2.505953
5
Structure 1502 | Energy: -10.834649 Hartree
N 1.081212 4.254395 2.761061
N 1.848267 3.475425 2.662945
O 3.349769 1.328839 -1.653605
H 4.069920 1.375915 -1.018519
H 3.651295 0.779889 -2.379721
5
Structure 1503 | Energy: -10.834650 Hartree
N 1.081212 4.254395 2.761061
N 1.848267 3.475425 2.662945
O 3.349648 1.328640 -1.653875
H 4.065089 1.374718 -1.013414
H 3.658043 0.784245 -2.380536
5
Structure 1504 | Energy: -10.834648 Hartree
N 1.081212 4.254395 2.761061
N 1.848267 3.475425 2.662945
O 3.410533 1.374786 -1.652534
H 4.125974 1.420864 -1.012073
H 3.718928 0.830391 -2.379195
5
Structure 1505 | Energy: -10.834903 Hartree
N 1.081212 4.254395 2.761061
N 1.848267 3.475425 2.662945
O 3.146244 2.238636 -1.140375
H 3.861684 2.284713 -0.499915
H 3.454639 1.694241 -1.867036
5
Structure 1506 | Energy: -10.834888 Hartree
N 1.081212 4.254395 2.761061
N 1.848267 3.475425 2.662945
O 2.857155 1.868780 -1.188866
H 3.572595 1.914858 -0.548405
H 3.165549 1.324385 -1.915527
5
Structure 1507 | Energy: -10.834895 Hartree
N 1.442814 3.778295 3.154477
N 2.175747 3.000543 2.904065
O 2.857155 1.868780 -1.188866
H 3.572595 1.914858 -0.548405
H 3.165549 1.324385 -1.915527
5
Structure 1508 | Energy: -10.834893 Hartree
N 1.442814 3.778295 3.154477
N 2.175747 3.000543 2.904065
O 2.857124 1.868760 -1.189118
H 3.575620 1.928483 -0.553221
H 3.163012 1.311091 -1.906716
5
Structure 1509 | Energy: -10.834901 Hartree
N 1.417992 3.760018 3.132946
N 2.200569 3.018820 2.925596
O 2.857124 1.868760 -1.189118
H 3.575620 1.928483 -0.553221
H 3.163012 1.311091 -1.906716
5
Structure 1510 | Energy: -10.834904 Hartree
N 1.347235 3.635127 3.133201
N 2.129812 2.893929 2.925851
O 2.857124 1.868760 -1.189118
H 3.575620 1.928483 -0.553221
H 3.163012 1.311091 -1.906716
5
Structure 1511 | Energy: -10.834905 Hartree
N 1.347235 3.635127 3.133201
N 2.129812 2.893929 2.925851
O 2.856075 1.866887 -1.193073
H 3.534734 1.966328 -0.519500
H 3.220551 1.302970 -1.877664
5
Structure 1512 | Energy: -10.834898 Hartree
N 1.347235 3.635127 3.133201
N 2.129812 2.893929 2.925851
O 2.855194 1.864795 -1.192613
H 3.537803 1.995201 -0.528378
H 3.231462 1.307304 -1.876087
5
Structure 1513 | Energy: -10.834883 Hartree
N 1.368746 3.657437 3.129955
N 2.108301 2.871618 2.929097
O 2.855194 1.864795 -1.192613
H 3.537803 1.995201 -0.528378
H 3.231462 1.307304 -1.876087
5
Structure 1514 | Energy: -10.834847 Hartree
N 1.303065 3.743806 3.190675
N 2.042619 2.957987 2.989818
O 2.855194 1.864795 -1.192613
H 3.537803 1.995201 -0.528378
H 3.231462 1.307304 -1.876087
5
Structure 1515 | Energy: -10.835244 Hartree
N 1.882537 4.098236 2.487809
N 2.622091 3.312417 2.286951
O 2.855194 1.864795 -1.192613
H 3.537803 1.995201 -0.528378
H 3.231462 1.307304 -1.876087
5
Structure 1516 | Energy: -10.835162 Hartree
N 1.882537 4.098236 2.487809
N 2.622091 3.312417 2.286951
O 2.855166 1.864723 -1.192553
H 3.603369 2.164548 -0.668658
H 3.166337 1.139098 -1.736751
5
Structure 1517 | Energy: -10.835188 Hartree
N 1.818971 4.259910 2.371668
N 2.558526 3.474091 2.170811
O 2.855166 1.864723 -1.192553
H 3.603369 2.164548 -0.668658
H 3.166337 1.139098 -1.736751
5
Structure 1518 | Energy: -10.835164 Hartree
N 1.818971 4.259910 2.371668
N 2.558526 3.474091 2.170811
O 2.861379 1.847378 -1.222216
H 3.609581 2.147203 -0.698321
H 3.172549 1.121753 -1.766414
5
Structure 1519 | Energy: -10.835167 Hartree
N 1.747944 4.227229 2.371200
N 2.508712 3.461725 2.171122
O 2.861379 1.847378 -1.222216
H 3.609581 2.147203 -0.698321
H 3.172549 1.121753 -1.766414
5
Structure 1520 | Energy: -10.835152 Hartree
N 1.747944 4.227229 2.371200
N 2.508712 3.461725 2.171122
O 2.860519 1.844841 -1.219732
H 3.613144 2.165145 -0.714628
H 3.182627 1.144073 -1.789539
5
Structure 1521 | Energy: -10.835902 Hartree
N 2.082462 4.569521 1.362831
N 2.843230 3.804017 1.162753
O 2.860519 1.844841 -1.219732
H 3.613144 2.165145 -0.714628
H 3.182627 1.144073 -1.789539
5
Structure 1522 | Energy: -10.835899 Hartree
N 2.064506 4.559499 1.322764
N 2.861186 3.814040 1.202819
O 2.860519 1.844841 -1.219732
H 3.613144 2.165145 -0.714628
H 3.182627 1.144073 -1.789539
5
Structure 1523 | Energy: -10.835899 Hartree
N 2.064506 4.559499 1.322764
N 2.861186 3.814040 1.202819
O 2.860519 1.184320 2.885397
H 3.613144 1.646899 2.506259
H 3.182627 0.340182 3.206626
5
Structure 1524 | Energy: -10.836359 Hartree
N 2.511263 0.676449 -0.820327
N 2.774041 -0.382170 -0.942993
O 1.903727 3.447728 0.483410
H 1.712387 4.118873 -0.174213
H 2.082529 2.631309 0.008392
5
Structure 1525 | Energy: -10.836350 Hartree
N 2.410928 0.701467 -0.917170
N 2.633509 -0.361390 -1.077065
O 1.903727 3.447728 0.483410
H 1.712387 4.118873 -0.174213
H 2.082529 2.631309 0.008392
5
Structure 1526 | Energy: -10.836286 Hartree
N 2.410928 0.701467 -0.917170
N 2.633509 -0.361390 -1.077065
O 1.959689 3.344803 0.509533
H 1.768349 4.015948 -0.148091
H 2.138491 2.528384 0.034515
5
Structure 1527 | Energy: -10.836285 Hartree
N 2.442436 0.711273 -0.925256
N 2.688189 -0.345778 -1.089641
O 1.959689 3.344803 0.509533
H 1.768349 4.015948 -0.148091
H 2.138491 2.528384 0.034515
5
Structure 1528 | Energy: -10.833669 Hartree
N 2.483353 1.121200 2.401648
N 2.736171 0.134924 2.811670
O 1.959689 3.344803 0.509533
H 1.768349 4.015948 -0.148091
H 2.138491 2.528384 0.034515
5
Structure 1529 | Energy: -10.833393 Hartree
N 2.462075 1.209763 2.331006
N 2.714892 0.223487 2.741029
O 1.959689 3.344803 0.509533
H 1.768349 4.015948 -0.148091
H 2.138491 2.528384 0.034515
5
Structure 1530 | Energy: -10.835139 Hartree
N 2.462075 1.209763 2.331006
N 2.714892 0.223487 2.741029
O 2.012658 3.346361 0.412862
H 1.346396 4.003533 0.621994
H 1.719720 2.516063 0.798793
5
Structure 1531 | Energy: -10.835105 Hartree
N 2.468824 1.211508 2.331161
N 2.708143 0.221742 2.740874
O 2.012658 3.346361 0.412862
H 1.346396 4.003533 0.621994
H 1.719720 2.516063 0.798793
5
Structure 1532 | Energy: -10.835039 Hartree
N 2.548306 1.240497 2.340425
N 2.807714 0.257731 2.754736
O 2.012658 3.346361 0.412862
H 1.346396 4.003533 0.621994
H 1.719720 2.516063 0.798793
5
Structure 1533 | Energy: -10.835194 Hartree
N 2.518814 1.230485 2.337505
N 2.837206 0.267742 2.757656
O 2.012658 3.346361 0.412862
H 1.346396 4.003533 0.621994
H 1.719720 2.516063 0.798793
5
Structure 1534 | Energy: -10.835139 Hartree
N 2.518814 1.230485 2.337505
N 2.837206 0.267742 2.757656
O 1.466784 2.963512 0.229223
H 1.720872 3.888021 0.244654
H 2.216882 2.460079 0.557946
5
Structure 1535 | Energy: -10.833698 Hartree
N 1.363775 3.468444 0.038404
N 1.682168 2.505701 0.458555
O 2.621822 0.725553 2.528324
H 2.875910 1.650062 2.543755
H 3.371921 0.222121 2.857047
5
Structure 1536 | Energy: -10.835139 Hartree
N 2.518814 1.230485 2.337505
N 2.837206 0.267742 2.757656
O 1.466784 2.963512 0.229223
H 1.720872 3.888021 0.244654
H 2.216882 2.460079 0.557946
5
Structure 1537 | Energy: -10.835067 Hartree
N 2.518814 1.230485 2.337505
N 2.837206 0.267742 2.757656
O 1.463200 2.918461 0.223206
H 1.717288 3.842970 0.238637
H 2.213298 2.415028 0.551930
5
Structure 1538 | Energy: -10.833614 Hartree
N 0.996551 0.582767 1.816620
N 1.234035 -0.414402 2.209086
O 1.463200 2.918461 0.223206
H 1.717288 3.842970 0.238637
H 2.213298 2.415028 0.551930
5
Structure 1539 | Energy: -10.833614 Hartree
N 0.996551 0.582767 1.816620
N 1.234035 -0.414402 2.209086
O 0.084028 2.435057 -0.170468
H -0.629287 3.020488 -0.431175
H -0.274333 1.543106 -0.158146
5
Structure 1540 | Energy: -10.833667 Hartree
N 0.996551 0.582767 1.816620
N 1.234035 -0.414402 2.209086
O 0.299727 2.413769 -0.281682
H -0.388459 2.987973 -0.622569
H -0.045020 1.516697 -0.305407
5
Structure 1541 | Energy: -10.833342 Hartree
N 0.883791 0.660761 1.790895
N 1.121275 -0.336408 2.183361
O 0.299727 2.413769 -0.281682
H -0.388459 2.987973 -0.622569
H -0.045020 1.516697 -0.305407
5
Structure 1542 | Energy: -10.834566 Hartree
N 0.883791 0.660761 1.790895
N 1.121275 -0.336408 2.183361
O 0.665464 2.935936 -0.276364
H -0.022723 3.510140 -0.617252
H 0.320717 2.038864 -0.300090
5
Structure 1543 | Energy: -10.834720 Hartree
N 0.883791 0.660761 1.790895
N 1.121275 -0.336408 2.183361
O 0.847607 2.951493 -0.277042
H 0.206635 3.591964 -0.590838
H 0.412987 2.094026 -0.279718
5
Structure 1544 | Energy: -10.834735 Hartree
N 0.758061 0.580837 1.702178
N 0.911010 -0.450371 2.045677
O 0.847607 2.951493 -0.277042
H 0.206635 3.591964 -0.590838
H 0.412987 2.094026 -0.279718
5
Structure 1545 | Energy: -10.834803 Hartree
N 0.742383 0.576361 1.696587
N 0.926689 -0.445895 2.051269
O 0.847607 2.951493 -0.277042
H 0.206635 3.591964 -0.590838
H 0.412987 2.094026 -0.279718
5
Structure 1546 | Energy: -10.834819 Hartree
N 0.742383 0.576361 1.696587
N 0.926689 -0.445895 2.051269
O 0.892202 2.961797 -0.262408
H 0.258316 3.605215 -0.584458
H 0.455844 2.105333 -0.276997
5
Structure 1547 | Energy: -10.835304 Hartree
N 0.742383 0.576361 1.696587
N 0.926689 -0.445895 2.051269
O 1.172857 3.510630 -0.031672
H 0.538970 4.154049 -0.353722
H 0.736498 2.654167 -0.046261
5
Structure 1548 | Energy: -10.835258 Hartree
N 0.742383 0.576361 1.696587
N 0.926689 -0.445895 2.051269
O 1.375333 3.354295 -0.248840
H 0.780508 4.011989 -0.613721
H 0.888936 2.526029 -0.209540
5
Structure 1549 | Energy: -10.835196 Hartree
N 0.742383 0.576361 1.696587
N 0.926689 -0.445895 2.051269
O 1.496529 3.231804 -0.395682
H 0.924574 3.879313 -0.811754
H 0.994703 2.414539 -0.329347
5
Structure 1550 | Energy: -10.835069 Hartree
N 0.742383 0.576361 1.696587
N 0.926689 -0.445895 2.051269
O 1.424157 3.092298 -0.597056
H 0.837022 3.685594 -1.069060
H 0.953553 2.261666 -0.484214
5
Structure 1551 | Energy: -10.835080 Hartree
N 0.742383 0.576361 1.696587
N 0.926689 -0.445895 2.051269
O 1.317657 3.120858 -0.626829
H 2.234355 3.228471 -0.886829
H 1.246586 2.265482 -0.193895
5
Structure 1552 | Energy: -10.835021 Hartree
N 0.748389 0.585201 1.720938
N 0.920682 -0.454735 2.026917
O 1.317657 3.120858 -0.626829
H 2.234355 3.228471 -0.886829
H 1.246586 2.265482 -0.193895
5
Structure 1553 | Energy: -10.835002 Hartree
N 1.278827 3.598986 -0.770142
N 1.451120 2.559050 -0.464163
O 0.787220 0.107073 1.864252
H 1.703918 0.214687 1.604251
H 0.716149 -0.748303 2.297185
5
Structure 1554 | Energy: -10.835021 Hartree
N 0.748389 0.585201 1.720938
N 0.920682 -0.454735 2.026917
O 1.317657 3.120858 -0.626829
H 2.234355 3.228471 -0.886829
H 1.246586 2.265482 -0.193895
5
Structure 1555 | Energy: -10.835065 Hartree
N 0.748389 0.585201 1.720938
N 0.920682 -0.454735 2.026917
O 1.229870 3.166260 -0.641278
H 2.146567 3.273873 -0.901278
H 1.158798 2.310884 -0.208344
5
Structure 1556 | Energy: -10.834983 Hartree
N 0.748389 0.585201 1.720938
N 0.920682 -0.454735 2.026917
O 0.794628 3.323663 -0.946905
H 1.711326 3.431277 -1.206905
H 0.723557 2.468287 -0.513971
5
Structure 1557 | Energy: -10.834543 Hartree
N 0.748389 0.585201 1.720938
N 0.920682 -0.454735 2.026917
O -0.200445 1.923421 -1.874673
H -1.113937 1.673878 -2.025592
H 0.139709 1.343635 -1.187436
5
Structure 1558 | Energy: -10.834538 Hartree
N 0.750820 0.586192 1.722974
N 0.918252 -0.455726 2.024881
O -0.200445 1.923421 -1.874673
H -1.113937 1.673878 -2.025592
H 0.139709 1.343635 -1.187436
5
Structure 1559 | Energy: -10.834823 Hartree
N -0.316241 2.397976 -1.995618
N -0.148809 1.356058 -1.693710
O 0.866616 0.111637 1.843919
H -0.046876 -0.137906 1.692999
H 1.206770 -0.468149 2.531156
5
Structure 1560 | Energy: -10.834809 Hartree
N -0.332330 2.396215 -1.991859
N -0.132720 1.357820 -1.697469
O 0.866616 0.111637 1.843919
H -0.046876 -0.137906 1.692999
H 1.206770 -0.468149 2.531156
5
Structure 1561 | Energy: -10.834575 Hartree
N -0.332330 2.396215 -1.991859
N -0.132720 1.357820 -1.697469
O 0.807011 0.075915 1.817260
H 0.815386 -0.753505 2.298412
H 1.290568 0.714436 2.348875
5
Structure 1562 | Energy: -10.834803 Hartree
N 0.734731 0.584431 1.726733
N 0.934341 -0.453964 2.021123
O -0.260050 1.887699 -1.901332
H -0.251675 1.058279 -1.420180
H 0.223507 2.526220 -1.369717
5
Structure 1563 | Energy: -10.834575 Hartree
N -0.332330 2.396215 -1.991859
N -0.132720 1.357820 -1.697469
O 0.807011 0.075915 1.817260
H 0.815386 -0.753505 2.298412
H 1.290568 0.714436 2.348875
5
Structure 1564 | Energy: -10.834629 Hartree
N -0.329091 2.404051 -1.963426
N -0.135959 1.349984 -1.725902
O 0.807011 0.075915 1.817260
H 0.815386 -0.753505 2.298412
H 1.290568 0.714436 2.348875
5
Structure 1565 | Energy: -10.834751 Hartree
N 0.737969 0.592267 1.755166
N 0.931102 -0.461800 1.992690
O -0.260050 1.887699 -1.901332
H -0.251675 1.058279 -1.420180
H 0.223507 2.526220 -1.369717
5
Structure 1566 | Energy: -10.834857 Hartree
N 0.737969 0.592267 1.755166
N 0.931102 -0.461800 1.992690
O -0.259668 1.887939 -1.901470
H 0.648908 1.623406 -1.746461
H -0.683150 1.957281 -1.041235
5
Structure 1567 | Energy: -10.834836 Hartree
N 0.862872 0.730287 1.765922
N 1.090431 -0.310474 2.030133
O -0.259668 1.887939 -1.901470
H 0.648908 1.623406 -1.746461
H -0.683150 1.957281 -1.041235
5
Structure 1568 | Energy: -10.834830 Hartree
N 0.832526 0.762251 1.778100
N 1.060084 -0.278511 2.042310
O -0.259668 1.887939 -1.901470
H 0.648908 1.623406 -1.746461
H -0.683150 1.957281 -1.041235
5
Structure 1569 | Energy: -10.834868 Hartree
N 0.832526 0.762251 1.778100
N 1.060084 -0.278511 2.042310
O -0.350239 1.397585 -1.451996
H 0.558337 1.133051 -1.296987
H -0.773721 1.466927 -0.591760
5
Structure 1570 | Energy: -10.834891 Hartree
N 0.832526 0.762251 1.778100
N 1.060084 -0.278511 2.042310
O -0.172826 1.423828 -1.506170
H 0.702236 1.075218 -1.326578
H -0.601548 1.559244 -0.656458
5
Structure 1571 | Energy: -10.834970 Hartree
N -0.261631 1.932280 -1.580682
N -0.034072 0.891519 -1.316472
O 0.921331 0.253799 1.852612
H 1.796392 -0.094811 2.032204
H 0.492608 0.389215 2.702324
5
Structure 1572 | Energy: -10.834964 Hartree
N -0.261631 1.932280 -1.580682
N -0.034072 0.891519 -1.316472
O 0.920107 0.252555 1.852912
H 1.809421 -0.063842 2.021821
H 0.498999 0.377998 2.707946
5
Structure 1573 | Energy: -10.835029 Hartree
N -0.222332 1.890257 -1.460046
N 0.005226 0.849495 -1.195836
O 0.920107 0.252555 1.852912
H 1.809421 -0.063842 2.021821
H 0.498999 0.377998 2.707946
5
Structure 1574 | Energy: -10.834740 Hartree
N -0.488055 1.706176 -1.537880
N 0.270950 1.033576 -1.118003
O 0.920107 0.252555 1.852912
H 1.809421 -0.063842 2.021821
H 0.498999 0.377998 2.707946
5
Structure 1575 | Energy: -10.834725 Hartree
N -0.488055 1.706176 -1.537880
N 0.270950 1.033576 -1.118003
O 0.917809 0.245409 1.853122
H 1.827726 -0.006919 2.020146
H 0.517166 0.434492 2.706283
5
Structure 1576 | Energy: -10.834734 Hartree
N -0.467885 1.684607 -1.475962
N 0.291120 1.012007 -1.056085
O 0.917809 0.245409 1.853122
H 1.827726 -0.006919 2.020146
H 0.517166 0.434492 2.706283
5
Structure 1577 | Energy: -10.834876 Hartree
N -0.371860 1.563285 -1.553934
N 0.387145 0.890685 -1.134057
O 0.917809 0.245409 1.853122
H 1.827726 -0.006919 2.020146
H 0.517166 0.434492 2.706283
5
Structure 1578 | Energy: -10.835116 Hartree
N -0.371860 1.563285 -1.553934
N 0.387145 0.890685 -1.134057
O 0.956457 0.301773 1.890416
H 1.519856 -0.455914 1.723062
H 0.211618 -0.011118 2.411439
5
Structure 1579 | Energy: -10.835454 Hartree
N -0.411845 0.908252 -1.190264
N 0.427130 1.545718 -1.497726
O 0.956457 0.301773 1.890416
H 1.519856 -0.455914 1.723062
H 0.211618 -0.011118 2.411439
5
Structure 1580 | Energy: -10.835308 Hartree
N -0.033213 0.254239 -1.474871
N 0.805763 0.891704 -1.782332
O 0.956457 0.301773 1.890416
H 1.519856 -0.455914 1.723062
H 0.211618 -0.011118 2.411439
5
Structure 1581 | Energy: -10.835117 Hartree
N -0.033213 0.254239 -1.474871
N 0.805763 0.891704 -1.782332
O 0.537408 0.557601 2.181619
H 1.100808 -0.200086 2.014265
H -0.207431 0.244710 2.702642
5
Structure 1582 | Energy: -10.835128 Hartree
N -0.050848 0.262531 -1.458622
N 0.788128 0.899997 -1.766083
O 0.537408 0.557601 2.181619
H 1.100808 -0.200086 2.014265
H -0.207431 0.244710 2.702642
5
Structure 1583 | Energy: -10.835129 Hartree
N -0.050848 0.262531 -1.458622
N 0.788128 0.899997 -1.766083
O 0.637671 0.327776 2.167413
H 1.182319 -0.427938 1.939882
H -0.098723 -0.003117 2.689318
5
Structure 1584 | Energy: -10.835464 Hartree
N 0.434612 0.984318 -0.783174
N 1.273588 1.621784 -1.090636
O 0.637671 0.327776 2.167413
H 1.182319 -0.427938 1.939882
H -0.098723 -0.003117 2.689318
5
Structure 1585 | Energy: -10.834060 Hartree
N 0.207454 -0.051756 2.337615
N 1.046430 0.585709 2.030153
O 0.864829 1.363850 -0.953377
H 1.409477 0.608136 -1.180908
H 0.128435 1.032957 -0.431471
5
Structure 1586 | Energy: -10.833961 Hartree
N 0.212143 -0.030373 2.273207
N 1.051118 0.607092 1.965745
O 0.864829 1.363850 -0.953377
H 1.409477 0.608136 -1.180908
H 0.128435 1.032957 -0.431471
5
Structure 1587 | Energy: -10.835513 Hartree
N 0.434612 0.984318 -0.783174
N 1.273588 1.621784 -1.090636
O 0.642359 0.349159 2.103005
H 1.187007 -0.406555 1.875474
H -0.094035 0.018266 2.624910
5
Structure 1588 | Energy: -10.835515 Hartree
N 0.434612 0.984318 -0.783174
N 1.273588 1.621784 -1.090636
O 0.611930 0.375006 2.108728
H 1.152069 -0.386876 1.891242
H -0.131010 0.054236 2.627668
5
Structure 1589 | Energy: -10.835080 Hartree
N 0.434612 0.984318 -0.783174
N 1.273588 1.621784 -1.090636
O 0.107352 0.249189 1.783320
H 0.647491 -0.512694 1.565833
H -0.635588 -0.071581 2.302259
5
Structure 1590 | Energy: -10.834854 Hartree
N 0.434612 0.984318 -0.783174
N 1.273588 1.621784 -1.090636
O 0.096874 0.251607 1.789523
H 0.744715 -0.386107 1.484336
H -0.566507 -0.236547 2.285288
5
Structure 1591 | Energy: -10.832800 Hartree
N -0.323483 -0.130122 1.953918
N 0.515492 0.507343 1.646456
O 0.854970 1.366047 -0.947569
H 1.502810 0.728333 -1.252756
H 0.191588 0.877894 -0.451805
5
Structure 1592 | Energy: -10.832780 Hartree
N -0.318737 -0.135642 1.955248
N 0.510746 0.512863 1.645126
O 0.854970 1.366047 -0.947569
H 1.502810 0.728333 -1.252756
H 0.191588 0.877894 -0.451805
5
Structure 1593 | Energy: -10.831428 Hartree
N -0.284670 -0.085562 1.832252
N 0.544812 0.562942 1.522129
O 0.854970 1.366047 -0.947569
H 1.502810 0.728333 -1.252756
H 0.191588 0.877894 -0.451805
5
Structure 1594 | Energy: -10.833035 Hartree
N 1.983626 -0.960221 -3.057058
N 1.688441 -0.901670 -2.001495
O 0.854970 1.366047 -0.947569
H 1.502810 0.728333 -1.252756
H 0.191588 0.877894 -0.451805
5
Structure 1595 | Energy: -10.832733 Hartree
N 2.192465 -0.965183 -2.926168
N 1.804474 -0.900753 -1.901431
O 0.854970 1.366047 -0.947569
H 1.502810 0.728333 -1.252756
H 0.191588 0.877894 -0.451805
5
Structure 1596 | Energy: -10.833767 Hartree
N -1.048870 3.797513 0.087613
N -0.647941 3.407264 -0.856705
O 0.854970 1.366047 -0.947569
H 1.502810 0.728333 -1.252756
H 0.191588 0.877894 -0.451805
5
Structure 1597 | Energy: -10.833486 Hartree
N -1.048870 3.797513 0.087613
N -0.647941 3.407264 -0.856705
O 0.876427 1.288090 -0.878934
H 0.049558 1.733351 -1.072700
H 1.304271 1.110214 -1.721229
5
Structure 1598 | Energy: -10.833514 Hartree
N -1.048870 3.797513 0.087613
N -0.647941 3.407264 -0.856705
O 0.896298 1.300158 -0.865366
H 0.067234 1.738929 -1.064485
H 1.330130 1.124053 -1.704966
5
Structure 1599 | Energy: -10.833607 Hartree
N -1.150965 3.601871 0.322460
N -0.796791 3.274380 -0.663484
O 0.896298 1.300158 -0.865366
H 0.067234 1.738929 -1.064485
H 1.330130 1.124053 -1.704966
5
Structure 1600 | Energy: -10.833607 Hartree
N -1.150965 3.601871 0.322460
N -0.796791 3.274380 -0.663484
O -0.224277 0.765410 -1.090281
H -0.012904 1.700686 -1.080569
H -0.076364 0.452862 -1.987268
5
Structure 1601 | Energy: -10.833580 Hartree
N -1.150965 3.601871 0.322460
N -0.796791 3.274380 -0.663484
O -0.461026 0.753382 -1.209947
H -0.176839 1.668437 -1.172162
H -0.362260 0.465556 -2.121842
5
Structure 1602 | Energy: -10.833580 Hartree
N -1.150965 3.601871 0.322460
N -0.796791 3.274380 -0.663484
O -1.687307 1.887276 2.203761
H -1.264203 2.673880 1.854830
H -2.193140 2.158499 2.974943
5
Structure 1603 | Energy: -10.831408 Hartree
N -1.869023 2.110210 2.720359
N -1.514849 1.782720 1.734415
O -0.969249 3.378937 -0.194138
H -0.546145 4.165540 -0.543069
H -1.475082 3.650159 0.577044
5
Structure 1604 | Energy: -10.831674 Hartree
N -1.869023 2.110210 2.720359
N -1.514849 1.782720 1.734415
O -0.973856 3.377892 -0.191840
H -0.502885 4.118451 -0.578199
H -1.445223 3.713828 0.575696
5
Structure 1605 | Energy: -10.833385 Hartree
N -1.150965 3.601871 0.322460
N -0.796791 3.274380 -0.663484
O -1.691914 1.886231 2.206059
H -1.220943 2.626791 1.819700
H -2.163281 2.222167 2.973595
5
Structure 1606 | Energy: -10.833385 Hartree
N -1.150965 3.601871 0.322460
N -0.796791 3.274380 -0.663484
O -1.147692 0.827727 -1.484913
H -0.621233 1.590761 -1.239686
H -0.978157 0.656294 -2.415515
5
Structure 1607 | Energy: -10.831674 Hartree
N -1.285835 1.024574 -1.030290
N -0.931662 0.697084 -2.016234
O -1.012821 3.405023 -0.132163
H -0.486363 4.168057 0.113064
H -0.843286 3.233591 -1.062765
5
Structure 1608 | Energy: -10.833385 Hartree
N -1.150965 3.601871 0.322460
N -0.796791 3.274380 -0.663484
O -1.147692 0.827727 -1.484913
H -0.621233 1.590761 -1.239686
H -0.978157 0.656294 -2.415515
5
Structure 1609 | Energy: -10.833622 Hartree
N -1.150965 3.601871 0.322460
N -0.796791 3.274380 -0.663484
O -1.062350 0.773492 -1.380447
H -0.588526 1.594281 -1.234462
H -1.012062 0.583154 -2.321400
5
Structure 1610 | Energy: -10.833381 Hartree
N -1.143707 3.622700 0.317632
N -0.804049 3.253551 -0.658656
O -1.062350 0.773492 -1.380447
H -0.588526 1.594281 -1.234462
H -1.012062 0.583154 -2.321400
5
Structure 1611 | Energy: -10.833398 Hartree
N -1.143707 3.622700 0.317632
N -0.804049 3.253551 -0.658656
O -1.062254 0.773831 -1.380117
H -0.588104 1.595691 -1.241394
H -1.014018 0.576361 -2.319707
5
Structure 1612 | Energy: -10.835627 Hartree
N -1.780081 3.983096 0.216214
N -1.440423 3.613948 -0.760073
O -1.062254 0.773831 -1.380117
H -0.588104 1.595691 -1.241394
H -1.014018 0.576361 -2.319707
5
Structure 1613 | Energy: -10.835673 Hartree
N -1.780081 3.983096 0.216214
N -1.440423 3.613948 -0.760073
O -1.168630 0.793647 -1.477265
H -0.669090 1.597812 -1.324642
H -1.144184 0.622479 -2.422915
5
Structure 1614 | Energy: -10.835650 Hartree
N -1.780081 3.983096 0.216214
N -1.440423 3.613948 -0.760073
O -1.232240 0.733413 -1.339333
H -0.714621 1.531489 -1.218247
H -1.204960 0.519852 -2.276242
5
Structure 1615 | Energy: -10.835759 Hartree
N -1.844082 4.054361 0.037028
N -1.378893 3.639695 -0.866535
O -1.232240 0.733413 -1.339333
H -0.714621 1.531489 -1.218247
H -1.204960 0.519852 -2.276242
5
Structure 1616 | Energy: -10.835721 Hartree
N -1.844082 4.054361 0.037028
N -1.378893 3.639695 -0.866535
O -1.235426 0.734390 -1.340910
H -0.697669 1.514487 -1.193323
H -1.171341 0.521341 -2.276139
5
Structure 1617 | Energy: -10.835593 Hartree
N -1.844082 4.054361 0.037028
N -1.378893 3.639695 -0.866535
O -1.628381 0.641182 -1.055037
H -0.997367 1.358673 -0.974154
H -1.594921 0.338565 -1.966879
5
Structure 1618 | Energy: -10.835400 Hartree
N -1.844082 4.054361 0.037028
N -1.378893 3.639695 -0.866535
O -1.119304 0.671852 -0.499816
H -0.488290 1.389344 -0.418933
H -1.085844 0.369235 -1.411658
5
Structure 1619 | Energy: -10.833774 Hartree
N -1.844082 4.054361 0.037028
N -1.378893 3.639695 -0.866535
O -1.113228 0.642398 -0.564796
H -1.500791 1.417438 -0.154159
H -0.169790 0.808633 -0.645066
5
Structure 1620 | Energy: -10.833773 Hartree
N 1.887166 2.358920 -1.334114
N 0.882895 2.611962 -1.697686
O -1.113228 0.642398 -0.564796
H -1.500791 1.417438 -0.154159
H -0.169790 0.808633 -0.645066
5
Structure 1621 | Energy: -10.835306 Hartree
N -3.885230 -1.138262 0.447288
N -2.838522 -1.370739 0.682092
O -1.113228 0.642398 -0.564796
H -1.500791 1.417438 -0.154159
H -0.169790 0.808633 -0.645066
5
Structure 1622 | Energy: -10.835345 Hartree
N -3.885230 -1.138262 0.447288
N -2.838522 -1.370739 0.682092
O -1.204381 0.564447 -0.520374
H -1.591944 1.339487 -0.109737
H -0.260944 0.730682 -0.600644
5
Structure 1623 | Energy: -10.835386 Hartree
N -3.885230 -1.138262 0.447288
N -2.838522 -1.370739 0.682092
O -1.295884 0.652904 -0.546257
H -1.781697 1.422356 -0.243860
H -0.367543 0.900634 -0.577279
5
Structure 1624 | Energy: -10.835392 Hartree
N -3.892109 -1.164027 0.443374
N -2.845402 -1.396504 0.678177
O -1.296957 0.654333 -0.546028
H -1.782770 1.423785 -0.243631
H -0.368616 0.902063 -0.577050
5
Structure 1625 | Energy: -10.835401 Hartree
N -2.846065 -1.415982 0.658599
N -3.891446 -1.144550 0.462953
O -1.296957 0.654333 -0.546028
H -1.782770 1.423785 -0.243631
H -0.368616 0.902063 -0.577050
5
Structure 1626 | Energy: -10.835350 Hartree
N -2.846065 -1.415982 0.658599
N -3.891446 -1.144550 0.462953
O -1.266483 0.586279 -0.583453
H -1.752296 1.355731 -0.281055
H -0.338142 0.834009 -0.614475
5
Structure 1627 | Energy: -10.835348 Hartree
N -2.845961 -1.418840 0.653924
N -3.891550 -1.141691 0.467627
O -1.266483 0.586279 -0.583453
H -1.752296 1.355731 -0.281055
H -0.338142 0.834009 -0.614475
5
Structure 1628 | Energy: -10.835440 Hartree
N -2.614613 -1.545379 0.714167
N -3.686948 -1.346359 0.590623
O -1.266483 0.586279 -0.583453
H -1.752296 1.355731 -0.281055
H -0.338142 0.834009 -0.614475
5
Structure 1629 | Energy: -10.835439 Hartree
N -2.614613 -1.545379 0.714167
N -3.686948 -1.346359 0.590623
O -1.266483 0.586279 -0.583452
H -1.751980 1.354891 -0.278422
H -0.338460 0.834855 -0.617126
5
Structure 1630 | Energy: -10.835335 Hartree
N -2.614613 -1.545379 0.714167
N -3.686948 -1.346359 0.590623
O -1.225642 0.421095 -0.649017
H -1.711138 1.189708 -0.343987
H -0.297619 0.669672 -0.682691
5
Structure 1631 | Energy: -10.835267 Hartree
N -2.594233 -1.358639 0.977110
N -3.665798 -1.137286 0.890355
O -1.225642 0.421095 -0.649017
H -1.711138 1.189708 -0.343987
H -0.297619 0.669672 -0.682691
5
Structure 1632 | Energy: -10.833547 Hartree
N -0.665098 0.367334 -0.590456
N -1.736663 0.588687 -0.677211
O -3.154776 -1.304877 0.918549
H -3.640273 -0.536265 1.223579
H -2.226753 -1.056301 0.884875
5
Structure 1633 | Energy: -10.833575 Hartree
N -0.695438 0.363271 -0.642627
N -1.770711 0.564260 -0.732998
O -3.154776 -1.304877 0.918549
H -3.640273 -0.536265 1.223579
H -2.226753 -1.056301 0.884875
5
Structure 1634 | Energy: -10.833574 Hartree
N -0.693163 0.373990 -0.647446
N -1.772986 0.553542 -0.728179
O -3.154776 -1.304877 0.918549
H -3.640273 -0.536265 1.223579
H -2.226753 -1.056301 0.884875
5
Structure 1635 | Energy: -10.835241 Hartree
N -2.590104 -1.337738 0.974098
N -3.669927 -1.158186 0.893366
O -1.257835 0.406851 -0.702996
H -1.743332 1.175463 -0.397966
H -0.329812 0.655427 -0.736670
5
Structure 1636 | Energy: -10.834992 Hartree
N -2.998200 -1.692834 1.201854
N -4.078023 -1.513282 1.121121
O -1.257835 0.406851 -0.702996
H -1.743332 1.175463 -0.397966
H -0.329812 0.655427 -0.736670
5
Structure 1637 | Energy: -10.834775 Hartree
N -2.998200 -1.692834 1.201854
N -4.078023 -1.513282 1.121121
O -1.219882 0.513980 -0.725061
H -2.060234 0.056189 -0.663808
H -0.615309 0.074335 -0.120615
5
Structure 1638 | Energy: -10.834777 Hartree
N -3.000535 -1.712434 1.177038
N -4.075688 -1.493682 1.145937
O -1.219882 0.513980 -0.725061
H -2.060234 0.056189 -0.663808
H -0.615309 0.074335 -0.120615
5
Structure 1639 | Energy: -10.834810 Hartree
N -3.000535 -1.712434 1.177038
N -4.075688 -1.493682 1.145937
O -1.158280 0.476458 -0.689761
H -2.000486 0.019982 -0.646931
H -0.573999 0.048750 -0.057438
5
Structure 1640 | Energy: -10.834825 Hartree
N -3.000789 -1.714690 1.165646
N -4.075433 -1.491427 1.157329
O -1.158280 0.476458 -0.689761
H -2.000486 0.019982 -0.646931
H -0.573999 0.048750 -0.057438
5
Structure 1641 | Energy: -10.834808 Hartree
N -2.876405 -1.631306 1.126795
N -3.951049 -1.408043 1.118477
O -1.153242 0.474787 -0.680116
H -1.995448 0.018311 -0.637286
H -0.568961 0.047079 -0.047793
5
Structure 1642 | Energy: -10.834832 Hartree
N -2.874192 -1.619894 1.129850
N -3.953262 -1.419455 1.115422
O -1.153242 0.474787 -0.680116
H -1.995448 0.018311 -0.637286
H -0.568961 0.047079 -0.047793
5
Structure 1643 | Energy: -10.835268 Hartree
N -3.790570 -1.421478 1.509341
N -3.036883 -1.617870 0.735932
O -1.153242 0.474787 -0.680116
H -1.995448 0.018311 -0.637286
H -0.568961 0.047079 -0.047793
5
Structure 1644 | Energy: -10.835280 Hartree
N -3.790570 -1.421478 1.509341
N -3.036883 -1.617870 0.735932
O -1.107014 0.434851 -0.624665
H -1.594044 0.936561 -1.280870
H -1.704104 -0.237310 -0.284321
5
Structure 1645 | Energy: -10.835222 Hartree
N -3.831606 -1.436820 1.403176
N -3.077919 -1.633213 0.629767
O -1.107014 0.434851 -0.624665
H -1.594044 0.936561 -1.280870
H -1.704104 -0.237310 -0.284321
5
Structure 1646 | Energy: -10.835222 Hartree
N -3.831606 -1.436820 1.403176
N -3.077919 -1.633213 0.629767
O -1.107012 0.434846 -0.624668
H -1.594041 0.936633 -1.280814
H -1.704134 -0.237292 -0.284333
5
Structure 1647 | Energy: -10.834814 Hartree
N -3.831606 -1.436820 1.403176
N -3.077919 -1.633213 0.629767
O -0.732435 1.022354 -0.623899
H -1.219463 1.524141 -1.280045
H -1.329557 0.350216 -0.283565
5
Structure 1648 | Energy: -10.834839 Hartree
N -3.778406 -1.385895 1.370036
N -3.024719 -1.582288 0.596627
O -0.732435 1.022354 -0.623899
H -1.219463 1.524141 -1.280045
H -1.329557 0.350216 -0.283565
5
Structure 1649 | Energy: -10.834840 Hartree
N -3.778383 -1.385962 1.370075
N -3.024742 -1.582221 0.596587
O -0.732435 1.022354 -0.623899
H -1.219463 1.524141 -1.280045
H -1.329557 0.350216 -0.283565
5
Structure 1650 | Energy: -10.834799 Hartree
N -3.989207 -1.332975 1.089018
N -3.127674 -1.558453 0.447381
O -0.732435 1.022354 -0.623899
H -1.219463 1.524141 -1.280045
H -1.329557 0.350216 -0.283565
5
Structure 1651 | Energy: -10.834465 Hartree
N -3.991811 -1.713007 0.440336
N -3.130278 -1.938485 -0.201300
O -0.732435 1.022354 -0.623899
H -1.219463 1.524141 -1.280045
H -1.329557 0.350216 -0.283565
5
Structure 1652 | Energy: -10.835182 Hartree
N -3.991811 -1.713007 0.440336
N -3.130278 -1.938485 -0.201300
O -0.530831 0.027359 -0.860484
H -1.017859 0.529146 -1.516630
H -1.127953 -0.644779 -0.520150
5
Structure 1653 | Energy: -10.835167 Hartree
N -4.022227 -1.706910 0.367523
N -3.161545 -1.922795 -0.278538
O -0.530831 0.027359 -0.860484
H -1.017859 0.529146 -1.516630
H -1.127953 -0.644779 -0.520150
5
Structure 1654 | Energy: -10.834160 Hartree
N -3.852028 -1.334953 0.101209
N -3.331744 -2.294752 -0.012224
O -0.530831 0.027359 -0.860484
H -1.017859 0.529146 -1.516630
H -1.127953 -0.644779 -0.520150
5
Structure 1655 | Energy: -10.834162 Hartree
N -3.861831 -1.325079 0.081921
N -3.344071 -2.286482 -0.029444
O -0.530831 0.027359 -0.860484
H -1.017859 0.529146 -1.516630
H -1.127953 -0.644779 -0.520150
5
Structure 1656 | Energy: -10.834170 Hartree
N -3.861831 -1.325079 0.081921
N -3.344071 -2.286482 -0.029444
O -0.530315 0.029116 -0.863566
H -1.054559 0.494848 -1.517614
H -1.099438 -0.638380 -0.470248
5
Structure 1657 | Energy: -10.834170 Hartree
N -3.863384 -1.325928 0.082006
N -3.342518 -2.285633 -0.029529
O -0.530315 0.029116 -0.863566
H -1.054559 0.494848 -1.517614
H -1.099438 -0.638380 -0.470248
5
Structure 1658 | Energy: -10.834173 Hartree
N -3.863384 -1.325928 0.082006
N -3.342518 -2.285633 -0.029529
O -0.610871 0.207073 -0.745492
H -1.144945 0.664405 -1.397511
H -1.152925 -0.499432 -0.383304
5
Structure 1659 | Energy: -10.834166 Hartree
N -3.863384 -1.325928 0.082006
N -3.342518 -2.285633 -0.029529
O -0.610247 0.204283 -0.745663
H -1.130959 0.698979 -1.380998
H -1.176816 -0.489726 -0.397092
5
Structure 1660 | Energy: -10.834103 Hartree
N -3.863384 -1.325928 0.082006
N -3.342518 -2.285633 -0.029529
O -0.671491 0.192284 -0.602431
H -1.192203 0.686980 -1.237766
H -1.238059 -0.501726 -0.253860
5
Structure 1661 | Energy: -10.834426 Hartree
N -4.351325 -0.625717 0.572072
N -3.830460 -1.585422 0.460537
O -0.671491 0.192284 -0.602431
H -1.192203 0.686980 -1.237766
H -1.238059 -0.501726 -0.253860
5
Structure 1662 | Energy: -10.834403 Hartree
N -1.025964 0.481336 -0.145994
N -0.505098 -0.478370 -0.257530
O -4.095323 -1.469995 0.971072
H -3.530422 -2.034998 1.501330
H -3.556524 -0.730394 0.676393
5
Structure 1663 | Energy: -10.834484 Hartree
N -0.071133 0.164240 -0.751510
N 0.449732 -0.795466 -0.863045
O -4.095323 -1.469995 0.971072
H -3.530422 -2.034998 1.501330
H -3.556524 -0.730394 0.676393
5
Structure 1664 | Energy: -10.834484 Hartree
N -0.071133 0.164240 -0.751510
N 0.449732 -0.795466 -0.863045
O -4.095269 -1.470104 0.970899
H -3.530855 -2.034137 1.502705
H -3.556953 -0.729539 0.677758
5
Structure 1665 | Energy: -10.834715 Hartree
N -0.071133 0.164240 -0.751510
N 0.449732 -0.795466 -0.863045
O -3.936068 -0.419827 0.709027
H -3.371654 -0.983861 1.240834
H -3.397752 0.320737 0.415887
5
Structure 1666 | Energy: -10.834700 Hartree
N -0.071133 0.164240 -0.751510
N 0.449732 -0.795466 -0.863045
O -3.977840 -0.474232 0.618677
H -3.413426 -1.038265 1.150484
H -3.439524 0.266333 0.325537
5
Structure 1667 | Energy: -10.834502 Hartree
N 0.203730 0.875208 -1.473392
N 0.724595 -0.084497 -1.584928
O -3.977840 -0.474232 0.618677
H -3.413426 -1.038265 1.150484
H -3.439524 0.266333 0.325537
5
Structure 1668 | Energy: -10.834495 Hartree
N 0.203730 0.875208 -1.473392
N 0.724595 -0.084497 -1.584928
O -3.978342 -0.472646 0.619995
H -3.422113 -1.040072 1.156793
H -3.422859 0.242971 0.298310
5
Structure 1669 | Energy: -10.834426 Hartree
N 1.185961 1.677335 -1.613100
N 1.706826 0.717630 -1.724635
O -3.978342 -0.472646 0.619995
H -3.422113 -1.040072 1.156793
H -3.422859 0.242971 0.298310
5
Structure 1670 | Energy: -10.834425 Hartree
N 1.185961 1.677335 -1.613100
N 1.706826 0.717630 -1.724635
O -4.026565 -0.530682 0.456256
H -3.484615 -1.140185 0.960549
H -3.456990 0.195300 0.186655
5
Structure 1671 | Energy: -10.834424 Hartree
N 1.185961 1.677335 -1.613100
N 1.706826 0.717630 -1.724635
O -4.026637 -0.530524 0.456523
H -3.486742 -1.135486 0.968430
H -3.453716 0.188081 0.174532
5
Structure 1672 | Energy: -10.834588 Hartree
N 0.910038 1.082001 -1.682289
N 1.982749 1.312965 -1.655447
O -4.026637 -0.530524 0.456523
H -3.486742 -1.135486 0.968430
H -3.453716 0.188081 0.174532
5
Structure 1673 | Energy: -10.834585 Hartree
N 0.947147 1.111445 -1.687021
N 2.019858 1.342410 -1.660179
O -4.026637 -0.530524 0.456523
H -3.486742 -1.135486 0.968430
H -3.453716 0.188081 0.174532
5
Structure 1674 | Energy: -10.834590 Hartree
N 0.931906 1.065026 -1.680400
N 2.004618 1.295990 -1.653558
O -4.052494 -0.539550 0.412295
H -3.512598 -1.144512 0.924201
H -3.479573 0.179055 0.130303
5
Structure 1675 | Energy: -10.834590 Hartree
N 0.931342 1.067606 -1.679760
N 2.005183 1.293410 -1.654198
O -4.052494 -0.539550 0.412295
H -3.512598 -1.144512 0.924201
H -3.479573 0.179055 0.130303
5
Structure 1676 | Energy: -10.834592 Hartree
N 0.931342 1.067606 -1.679760
N 2.005183 1.293410 -1.654198
O -4.052724 -0.539643 0.413511
H -3.502036 -1.143814 0.914745
H -3.486496 0.179842 0.120460
5
Structure 1677 | Energy: -10.834594 Hartree
N 0.931342 1.067606 -1.679760
N 2.005183 1.293410 -1.654198
O -4.035768 -0.534320 0.407012
H -3.485080 -1.138491 0.908247
H -3.469540 0.185165 0.113961
5
Structure 1678 | Energy: -10.834594 Hartree
N 0.109436 3.060800 1.625765
N 1.146545 3.375682 1.799055
O -4.035768 -0.534320 0.407012
H -3.485080 -1.138491 0.908247
H -3.469540 0.185165 0.113961
5
Structure 1679 | Energy: -10.834589 Hartree
N 0.109436 3.060800 1.625765
N 1.146545 3.375682 1.799055
O -3.953781 -0.657584 0.478809
H -3.378882 -1.247099 0.970213
H -3.412014 0.077135 0.177431
5
Structure 1680 | Energy: -10.834672 Hartree
N 0.323388 2.778299 1.590498
N 0.932593 3.658183 1.834323
O -3.953781 -0.657584 0.478809
H -3.378882 -1.247099 0.970213
H -3.412014 0.077135 0.177431
5
Structure 1681 | Energy: -10.834658 Hartree
N 0.823304 2.245349 0.876872
N 1.432508 3.125233 1.120697
O -3.953781 -0.657584 0.478809
H -3.378882 -1.247099 0.970213
H -3.412014 0.077135 0.177431
5
Structure 1682 | Energy: -10.834659 Hartree
N 0.823304 2.245349 0.876872
N 1.432508 3.125233 1.120697
O -3.744318 -0.992581 1.057281
H -3.083851 -1.532574 1.495124
H -3.286815 -0.230742 0.690616
5
Structure 1683 | Energy: -10.834655 Hartree
N 0.828354 2.244167 0.868892
N 1.427458 3.126415 1.128677
O -3.744318 -0.992581 1.057281
H -3.083851 -1.532574 1.495124
H -3.286815 -0.230742 0.690616
5
Structure 1684 | Energy: -10.834659 Hartree
N 0.681840 2.419776 1.478213
N 1.215818 3.306322 1.843836
O -3.744318 -0.992581 1.057281
H -3.083851 -1.532574 1.495124
H -3.286815 -0.230742 0.690616
5
Structure 1685 | Energy: -10.834658 Hartree
N 0.681840 2.419776 1.478213
N 1.215818 3.306322 1.843836
O -3.743800 -0.994297 1.055360
H -3.077964 -1.527611 1.493257
H -3.300927 -0.208461 0.722979
5
Structure 1686 | Energy: -10.834658 Hartree
N 0.681840 2.419776 1.478213
N 1.215818 3.306322 1.843836
O -3.743800 -0.994296 1.055361
H -3.078683 -1.525815 1.496523
H -3.300202 -0.210270 0.719692
5
Structure 1687 | Energy: -10.834657 Hartree
N 0.681840 2.419776 1.478213
N 1.215818 3.306322 1.843836
O -3.751321 -0.984170 1.049302
H -3.087002 -1.517878 1.489020
H -3.306404 -0.200263 0.715102
5
Structure 1688 | Energy: -10.834501 Hartree
N 0.803994 2.446807 1.988071
N 1.093664 3.279291 1.333978
O -3.751321 -0.984170 1.049302
H -3.087002 -1.517878 1.489020
H -3.306404 -0.200263 0.715102
5
Structure 1689 | Energy: -10.834509 Hartree
N 0.803994 2.446807 1.988071
N 1.093664 3.279291 1.333978
O -3.543706 -1.220132 1.019567
H -2.889899 -1.693152 1.537548
H -3.108654 -0.441708 0.660489
5
Structure 1690 | Energy: -10.834459 Hartree
N -3.627616 -1.619286 1.355505
N -3.337946 -0.786802 0.701412
O 0.887904 2.845961 1.652133
H 1.541711 2.372941 2.170114
H 1.322956 3.624384 1.293056
5
Structure 1691 | Energy: -10.834509 Hartree
N 0.803994 2.446807 1.988071
N 1.093664 3.279291 1.333978
O -3.543706 -1.220132 1.019567
H -2.889899 -1.693152 1.537548
H -3.108654 -0.441708 0.660489
5
Structure 1692 | Energy: -10.834504 Hartree
N 0.877962 2.249739 2.324963
N 1.251685 3.070514 1.699315
O -3.543706 -1.220132 1.019567
H -2.889899 -1.693152 1.537548
H -3.108654 -0.441708 0.660489
5
Structure 1693 | Energy: -10.834495 Hartree
N 0.899159 2.249351 2.336196
N 1.230488 3.070901 1.688082
O -3.543706 -1.220132 1.019567
H -2.889899 -1.693152 1.537548
H -3.108654 -0.441708 0.660489
5
Structure 1694 | Energy: -10.834501 Hartree
N 0.775305 2.289480 2.286613
N 1.106635 3.111030 1.638499
O -3.543706 -1.220132 1.019567
H -2.889899 -1.693152 1.537548
H -3.108654 -0.441708 0.660489
5
Structure 1695 | Energy: -10.834508 Hartree
N 0.775305 2.289480 2.286613
N 1.106635 3.111030 1.638499
O -2.990908 -1.314654 0.882564
H -2.337101 -1.787673 1.400545
H -2.555856 -0.536230 0.523486
5
Structure 1696 | Energy: -10.834509 Hartree
N 0.775305 2.289480 2.286613
N 1.106635 3.111030 1.638499
O -2.973203 -1.296368 0.887463
H -2.319396 -1.769388 1.405444
H -2.538151 -0.517945 0.528385
5
Structure 1697 | Energy: -10.834505 Hartree
N 0.775305 2.289480 2.286613
N 1.106635 3.111030 1.638499
O -2.973600 -1.296039 0.889895
H -2.298626 -1.780850 1.368314
H -2.552625 -0.511712 0.526905
5
Structure 1698 | Energy: -10.834526 Hartree
N 0.775305 2.289480 2.286613
N 1.106635 3.111030 1.638499
O -2.881162 -1.458770 1.228630
H -2.177331 -1.897649 1.709798
H -2.495646 -0.683194 0.811483
5
Structure 1699 | Energy: -10.834527 Hartree
N 0.775305 2.289480 2.286613
N 1.106635 3.111030 1.638499
O -2.682446 -1.090310 0.993153
H -1.978615 -1.529190 1.474322
H -2.296931 -0.314735 0.576006
5
Structure 1700 | Energy: -10.834521 Hartree
N 0.775305 2.289480 2.286613
N 1.106635 3.111030 1.638499
O -2.326658 -1.381397 0.913747
H -1.579799 -1.766499 1.375714
H -2.019371 -0.561826 0.516217
5
Structure 1701 | Energy: -10.834694 Hartree
N 0.488217 1.480578 1.775468
N 0.819546 2.302128 1.127355
O -2.326658 -1.381397 0.913747
H -1.579799 -1.766499 1.375714
H -2.019371 -0.561826 0.516217
5
Structure 1702 | Energy: -10.834695 Hartree
N 0.249020 1.723347 1.666230
N 0.478693 2.569059 1.005324
O -2.326658 -1.381397 0.913747
H -1.579799 -1.766499 1.375714
H -2.019371 -0.561826 0.516217
5
Structure 1703 | Energy: -10.834998 Hartree
N -0.319789 1.346992 1.265477
N -0.090116 2.192704 0.604571
O -2.326658 -1.381397 0.913747
H -1.579799 -1.766499 1.375714
H -2.019371 -0.561826 0.516217
5
Structure 1704 | Energy: -10.834431 Hartree
N -2.382511 -1.779943 1.247806
N -2.152839 -0.934231 0.586900
O -0.263936 1.745538 0.931418
H 0.482923 1.360435 1.393385
H 0.043351 2.565108 0.533888
5
Structure 1705 | Energy: -10.834520 Hartree
N -2.382511 -1.779943 1.247806
N -2.152839 -0.934231 0.586900
O -0.152435 1.665317 1.097021
H 0.572385 1.232955 1.552228
H 0.190892 2.489427 0.740479
5
Structure 1706 | Energy: -10.834520 Hartree
N -2.328439 -1.704259 1.252410
N -2.098767 -0.858547 0.591504
O -0.152435 1.665317 1.097021
H 0.572385 1.232955 1.552228
H 0.190892 2.489427 0.740479
5
Structure 1707 | Energy: -10.834697 Hartree
N -2.328439 -1.704259 1.252410
N -2.098767 -0.858547 0.591504
O -0.252378 1.680658 1.506775
H 0.440101 1.227645 1.991303
H 0.099933 2.536429 1.246611
5
Structure 1708 | Energy: -10.834652 Hartree
N -2.230192 -1.846597 1.250225
N -2.000520 -1.000885 0.589319
O -0.252378 1.680658 1.506775
H 0.440101 1.227645 1.991303
H 0.099933 2.536429 1.246611
5
Structure 1709 | Energy: -10.834751 Hartree
N -2.246168 -1.815789 1.280855
N -1.984545 -1.031694 0.558689
O -0.252378 1.680658 1.506775
H 0.440101 1.227645 1.991303
H 0.099933 2.536429 1.246611
5
Structure 1710 | Energy: -10.834674 Hartree
N -0.324730 1.311146 1.880412
N -0.063107 2.095241 1.158245
O -2.173816 -1.446277 0.907218
H -1.481337 -1.899290 1.391746
H -1.821505 -0.590507 0.647054
5
Structure 1711 | Energy: -10.834609 Hartree
N -0.396206 1.291046 2.052572
N -0.020946 2.051242 1.355395
O -2.173816 -1.446277 0.907218
H -1.481337 -1.899290 1.391746
H -1.821505 -0.590507 0.647054
5
Structure 1712 | Energy: -10.834651 Hartree
N 0.114600 0.484164 -0.811117
N -0.007094 1.573064 -0.876397
O -2.173816 -1.446277 0.907218
H -1.481337 -1.899290 1.391746
H -1.821505 -0.590507 0.647054
5
Structure 1713 | Energy: -10.834653 Hartree
N 0.114600 0.484164 -0.811117
N -0.007094 1.573064 -0.876397
O -2.173903 -1.446047 0.907213
H -1.482341 -1.902861 1.389478
H -1.819119 -0.590587 0.649402
5
Structure 1714 | Energy: -10.834613 Hartree
N 0.114600 0.484164 -0.811117
N -0.007094 1.573064 -0.876397
O -2.172025 -1.449301 0.904997
H -1.493041 -1.848470 1.451953
H -1.838221 -0.593326 0.622096
5
Structure 1715 | Energy: -10.834612 Hartree
N 0.127010 0.484644 -0.809912
N 0.005316 1.573544 -0.875192
O -2.172025 -1.449301 0.904997
H -1.493041 -1.848470 1.451953
H -1.838221 -0.593326 0.622096
5
Structure 1716 | Energy: -10.834526 Hartree
N 0.127010 0.484644 -0.809912
N 0.005316 1.573544 -0.875192
O -2.575175 -1.159763 0.718889
H -1.988607 -1.647462 1.299926
H -2.118168 -0.350759 0.472296
5
Structure 1717 | Energy: -10.834815 Hartree
N -2.455936 -1.686235 0.770242
N -2.577630 -0.597335 0.704962
O 0.007772 1.011116 -0.861265
H 0.594339 0.523417 -0.280228
H 0.464779 1.820120 -1.107858
5
Structure 1718 | Energy: -10.834853 Hartree
N -2.485833 -1.598964 0.844553
N -2.607527 -0.510063 0.779273
O 0.007772 1.011116 -0.861265
H 0.594339 0.523417 -0.280228
H 0.464779 1.820120 -1.107858
5
Structure 1719 | Energy: -10.834853 Hartree
N -2.485833 -1.598964 0.844553
N -2.607527 -0.510063 0.779273
O 0.421434 -2.690260 -0.639365
H 0.878634 -2.020404 -0.127724
H 1.048422 -3.402218 -0.794775
5
Structure 1720 | Energy: -10.834853 Hartree
N -1.524855 -0.151592 -1.909115
N -1.943672 0.489798 -1.122994
O 0.421434 -2.690260 -0.639365
H 0.878634 -2.020404 -0.127724
H 1.048422 -3.402218 -0.794775
5
Structure 1721 | Energy: -10.834492 Hartree
N 0.691506 -3.013311 -1.012493
N 0.272689 -2.371920 -0.226373
O -1.794928 0.171459 -1.535987
H -1.337728 0.841315 -1.024346
H -1.167940 -0.540500 -1.691397
5
Structure 1722 | Energy: -10.834491 Hartree
N 0.689662 -3.012765 -1.000310
N 0.268433 -2.370212 -0.216431
O -1.794928 0.171459 -1.535987
H -1.337728 0.841315 -1.024346
H -1.167940 -0.540500 -1.691397
5
Structure 1723 | Energy: -10.836361 Hartree
N -0.496614 0.561764 -1.942242
N -0.323935 -0.459064 -1.577706
O 0.025506 -2.962556 0.247561
H -0.083256 -2.244532 -0.382343
H 0.307534 -3.732197 -0.250055
5
Structure 1724 | Energy: -10.836337 Hartree
N -0.566884 0.617348 -1.968875
N -0.394205 -0.403480 -1.604338
O 0.025506 -2.962556 0.247561
H -0.083256 -2.244532 -0.382343
H 0.307534 -3.732197 -0.250055
5
Structure 1725 | Energy: -10.834003 Hartree
N -0.051139 -2.455030 0.002205
N 0.121540 -3.475859 0.366741
O -0.490240 0.109822 -1.723518
H -0.599002 0.827847 -2.353422
H -0.208211 -0.659819 -2.221134
5
Structure 1726 | Energy: -10.836337 Hartree
N -0.566884 0.617348 -1.968875
N -0.394205 -0.403480 -1.604338
O 0.025506 -2.962556 0.247561
H -0.083256 -2.244532 -0.382343
H 0.307534 -3.732197 -0.250055
5
Structure 1727 | Energy: -10.836336 Hartree
N -0.584932 0.632248 -1.938699
N -0.407058 -0.390717 -1.582751
O 0.025506 -2.962556 0.247561
H -0.083256 -2.244532 -0.382343
H 0.307534 -3.732197 -0.250055
5
Structure 1728 | Energy: -10.836335 Hartree
N -0.641657 0.562673 -2.035902
N -0.444602 -0.446653 -1.652202
O 0.025506 -2.962556 0.247561
H -0.083256 -2.244532 -0.382343
H 0.307534 -3.732197 -0.250055
5
Structure 1729 | Energy: -10.836320 Hartree
N -0.641657 0.562673 -2.035902
N -0.444602 -0.446653 -1.652202
O 0.180811 -2.918696 0.161227
H 0.072049 -2.200671 -0.468678
H 0.462839 -3.688336 -0.336390
5
Structure 1730 | Energy: -10.834931 Hartree
N -0.641657 0.562673 -2.035902
N -0.444602 -0.446653 -1.652202
O 0.720499 -1.611441 0.793313
H 0.611737 -0.893416 0.163409
H 1.002527 -2.381082 0.295697
5
Structure 1731 | Energy: -10.833892 Hartree
N -0.235537 0.263127 -2.249653
N -0.850722 -0.147108 -1.438451
O 0.720499 -1.611441 0.793313
H 0.611737 -0.893416 0.163409
H 1.002527 -2.381082 0.295697
5
Structure 1732 | Energy: -10.833806 Hartree
N -0.235537 0.263127 -2.249653
N -0.850722 -0.147108 -1.438451
O 0.855776 -1.590715 0.726474
H 0.747014 -0.872690 0.096570
H 1.137805 -2.360356 0.228858
5
Structure 1733 | Energy: -10.834230 Hartree
N 2.193530 -1.073664 -2.669989
N 2.557399 -0.650561 -1.724801
O 0.855776 -1.590715 0.726474
H 0.747014 -0.872690 0.096570
H 1.137805 -2.360356 0.228858
5
Structure 1734 | Energy: -10.834226 Hartree
N 2.425630 -1.958447 -2.589037
N 2.906964 -1.983128 -1.602881
O 0.855776 -1.590715 0.726474
H 0.747014 -0.872690 0.096570
H 1.137805 -2.360356 0.228858
5
Structure 1735 | Energy: -10.834201 Hartree
N 2.425630 -1.958447 -2.589037
N 2.906964 -1.983128 -1.602881
O 0.915821 -1.399727 0.732167
H 0.900733 -0.665316 0.112021
H 1.097559 -2.192424 0.224119
5
Structure 1736 | Energy: -10.835542 Hartree
N 0.684479 -1.390648 0.175962
N 1.165813 -1.415329 1.162119
O 2.656973 -1.967526 -2.032833
H 2.641885 -1.233115 -2.652979
H 2.838710 -2.760223 -2.540880
5
Structure 1737 | Energy: -10.835120 Hartree
N 1.052180 -1.397238 1.202921
N 0.798112 -1.408739 0.135160
O 2.656973 -1.967526 -2.032833
H 2.641885 -1.233115 -2.652979
H 2.838710 -2.760223 -2.540880
5
Structure 1738 | Energy: -10.835108 Hartree
N 1.053474 -1.393870 1.219555
N 0.799406 -1.405370 0.151794
O 2.656973 -1.967526 -2.032833
H 2.641885 -1.233115 -2.652979
H 2.838710 -2.760223 -2.540880
5
Structure 1739 | Energy: -10.835100 Hartree
N 1.118174 -1.377882 1.247458
N 0.846763 -1.380158 0.183914
O 2.656973 -1.967526 -2.032833
H 2.641885 -1.233115 -2.652979
H 2.838710 -2.760223 -2.540880
5
Structure 1740 | Energy: -10.835100 Hartree
N 1.118174 -1.377882 1.247458
N 0.846763 -1.380158 0.183914
O -0.758980 -1.244529 3.482260
H -0.604173 -1.991885 4.066778
H -1.082876 -0.524709 4.026742
5
Structure 1741 | Energy: -10.835099 Hartree
N 1.118174 -1.377882 1.247458
N 0.846763 -1.380158 0.183914
O -0.689518 -1.249803 3.369999
H -0.534711 -1.997160 3.954517
H -1.013414 -0.529983 3.914481
5
Structure 1742 | Energy: -10.835050 Hartree
N 1.118174 -1.377882 1.247458
N 0.846763 -1.380158 0.183914
O -0.637501 -1.253753 3.285931
H -0.482694 -2.001109 3.870449
H -0.961397 -0.533933 3.830413
5
Structure 1743 | Energy: -10.834994 Hartree
N 1.088931 -1.375662 1.294720
N 0.817519 -1.377937 0.231176
O -0.637501 -1.253753 3.285931
H -0.482694 -2.001109 3.870449
H -0.961397 -0.533933 3.830413
5
Structure 1744 | Energy: -10.833474 Hartree
N -0.511256 -1.254156 3.880875
N -0.782668 -1.256431 2.817331
O 0.962686 -1.375259 0.699777
H 1.117493 -2.122615 1.284295
H 0.638790 -0.655439 1.244258
5
Structure 1745 | Energy: -10.834388 Hartree
N -0.511256 -1.254156 3.880875
N -0.782668 -1.256431 2.817331
O 0.541277 -1.064628 0.319523
H 0.696083 -1.811985 0.904041
H 0.217381 -0.344808 0.864004
5
Structure 1746 | Energy: -10.834466 Hartree
N -0.549022 -1.282454 3.890583
N -0.820433 -1.284729 2.827039
O 0.541277 -1.064628 0.319523
H 0.696083 -1.811985 0.904041
H 0.217381 -0.344808 0.864004
5
Structure 1747 | Energy: -10.834842 Hartree
N -0.549022 -1.282454 3.890583
N -0.820433 -1.284729 2.827039
O 0.541185 -1.065203 0.319498
H 0.912249 -0.455141 0.963162
H 0.002670 -1.692519 0.805281
5
Structure 1748 | Energy: -10.834759 Hartree
N -0.556661 -1.276346 3.867563
N -0.828072 -1.278622 2.804019
O 0.541185 -1.065203 0.319498
H 0.912249 -0.455141 0.963162
H 0.002670 -1.692519 0.805281
5
Structure 1749 | Energy: -10.834609 Hartree
N -0.556661 -1.276346 3.867563
N -0.828072 -1.278622 2.804019
O 1.141254 -1.076485 0.527419
H 1.512318 -0.466423 1.171083
H 0.602739 -1.703801 1.013202
5
Structure 1750 | Energy: -10.834823 Hartree
N -0.556661 -1.276346 3.867563
N -0.828072 -1.278622 2.804019
O 0.818999 -0.572860 0.418806
H 1.209826 -0.018087 1.099724
H 0.381081 -1.299431 0.865833
5
Structure 1751 | Energy: -10.834819 Hartree
N -0.554317 -1.275329 3.866956
N -0.830416 -1.279639 2.804625
O 0.818999 -0.572860 0.418806
H 1.209826 -0.018087 1.099724
H 0.381081 -1.299431 0.865833
5
Structure 1752 | Energy: -10.835159 Hartree
N 0.954413 -0.580318 1.013084
N 0.678315 -0.584628 -0.049247
O -0.689732 -1.267872 3.272678
H -0.298905 -0.713098 3.953596
H -1.127650 -1.994442 3.719705
5
Structure 1753 | Energy: -10.835179 Hartree
N 0.954413 -0.580318 1.013084
N 0.678315 -0.584628 -0.049247
O -0.692098 -1.266139 3.272912
H -0.280835 -0.726848 3.954232
H -1.108160 -2.008191 3.715359
5
Structure 1754 | Energy: -10.835163 Hartree
N 0.313428 0.633628 0.942840
N 0.037330 0.629318 -0.119490
O -0.692098 -1.266139 3.272912
H -0.280835 -0.726848 3.954232
H -1.108160 -2.008191 3.715359
5
Structure 1755 | Energy: -10.835249 Hartree
N 0.443324 0.791251 1.140176
N 0.264101 0.831730 0.058032
O -0.692098 -1.266139 3.272912
H -0.280835 -0.726848 3.954232
H -1.108160 -2.008191 3.715359
5
Structure 1756 | Energy: -10.835727 Hartree
N 0.443324 0.791251 1.140176
N 0.264101 0.831730 0.058032
O -0.753907 -1.261697 3.329005
H 0.004576 -0.753413 3.028140
H -0.412536 -2.052122 3.751147
5
Structure 1757 | Energy: -10.834709 Hartree
N -0.602755 -1.297724 3.876863
N -0.781978 -1.257244 2.794719
O 0.292172 0.827277 0.592318
H 1.050655 1.335561 0.291454
H 0.633543 0.036853 1.014460
5
Structure 1758 | Energy: -10.834709 Hartree
N -0.602755 -1.297724 3.876863
N -0.781978 -1.257244 2.794719
O 0.198568 -3.236541 0.455806
H 0.933336 -3.757845 0.120356
H 0.575277 -2.492749 0.929486
5
Structure 1759 | Energy: -10.834528 Hartree
N -1.373482 0.437830 0.627550
N -1.418697 -0.548908 1.106192
O 0.198568 -3.236541 0.455806
H 0.933336 -3.757845 0.120356
H 0.575277 -2.492749 0.929486
5
Structure 1760 | Energy: -10.834528 Hartree
N -1.373482 0.437830 0.627550
N -1.418697 -0.548908 1.106192
O 0.198568 -1.701886 3.619559
H 0.933336 -1.761148 4.236627
H 0.575277 -1.613453 2.742189
5
Structure 1761 | Energy: -10.834509 Hartree
N -1.374000 0.451558 0.658272
N -1.419215 -0.535181 1.136914
O 0.227910 -1.692686 3.607391
H 0.962678 -1.751948 4.224459
H 0.604619 -1.604253 2.730020
5
Structure 1762 | Energy: -10.835855 Hartree
N 0.312709 -1.197684 3.353505
N 0.267493 -2.184423 3.832147
O -1.458798 -0.043443 0.912158
H -0.724030 -0.102705 1.529225
H -1.082089 0.044989 0.034787
5
Structure 1763 | Energy: -10.835843 Hartree
N 0.296685 -1.203439 3.378057
N 0.251470 -2.190177 3.856699
O -1.458798 -0.043443 0.912158
H -0.724030 -0.102705 1.529225
H -1.082089 0.044989 0.034787
5
Structure 1764 | Energy: -10.835969 Hartree
N 0.296685 -1.203439 3.378057
N 0.251470 -2.190177 3.856699
O -1.481165 0.068324 1.060561
H -0.746398 0.009062 1.677629
H -1.104456 0.156756 0.183190
5
Structure 1765 | Energy: -10.834556 Hartree
N -2.000369 -2.316283 3.038827
N -1.804552 -3.393282 2.958050
O -1.481165 0.068324 1.060561
H -0.746398 0.009062 1.677629
H -1.104456 0.156756 0.183190
5
Structure 1766 | Energy: -10.834529 Hartree
N -2.000369 -2.316283 3.038827
N -1.804552 -3.393282 2.958050
O -1.494995 -0.015334 1.116408
H -0.760227 -0.074596 1.733475
H -1.118286 0.073098 0.239037
5
Structure 1767 | Energy: -10.834385 Hartree
N -2.000369 -2.316283 3.038827
N -1.804552 -3.393282 2.958050
O -1.441091 0.066601 1.259706
H -0.683312 -0.062071 1.837099
H -1.100008 0.187974 0.371764
5
Structure 1768 | Energy: -10.834258 Hartree
N -2.000369 -2.316283 3.038827
N -1.804552 -3.393282 2.958050
O -1.003994 0.866893 1.802191
H -0.246215 0.738221 2.379585
H -0.662911 0.988266 0.914249
5
Structure 1769 | Energy: -10.834174 Hartree
N -2.000369 -2.316283 3.038827
N -1.804552 -3.393282 2.958050
O -0.982841 0.855645 1.833170
H -1.218677 1.012770 0.914551
H -0.026175 0.892241 1.887576
5
Structure 1770 | Energy: -10.834186 Hartree
N -1.996880 -2.318610 3.036904
N -1.801062 -3.395608 2.956127
O -0.948286 0.898549 1.841842
H -1.184121 1.055673 0.923222
H 0.008380 0.935144 1.896248
5
Structure 1771 | Energy: -10.834327 Hartree
N -0.195737 -2.276027 0.213075
N 0.253765 -2.724155 -0.682427
O -0.948286 0.898549 1.841842
H -1.184121 1.055673 0.923222
H 0.008380 0.935144 1.896248
5
Structure 1772 | Energy: -10.834417 Hartree
N 0.474840 -2.495625 -0.554705
N -0.416812 -2.504557 0.085353
O -0.948286 0.898549 1.841842
H -1.184121 1.055673 0.923222
H 0.008380 0.935144 1.896248
5
Structure 1773 | Energy: -10.834417 Hartree
N 0.474840 -2.495625 -0.554705
N -0.416812 -2.504557 0.085353
O -0.948381 0.898588 1.841771
H -1.182525 1.057473 0.923022
H 0.008296 0.932722 1.897572
5
Structure 1774 | Energy: -10.834426 Hartree
N 0.474840 -2.495625 -0.554705
N -0.416812 -2.504557 0.085353
O -0.894305 0.845677 1.778637
H -1.128449 1.004562 0.859887
H 0.062372 0.879812 1.834438
5
Structure 1775 | Energy: -10.835163 Hartree
N -0.408051 0.860944 1.410323
N -1.299702 0.852011 2.050381
O -0.011414 -2.510891 -0.186391
H -0.245558 -2.352006 -1.105140
H 0.945263 -2.476757 -0.130590
5
Structure 1776 | Energy: -10.835246 Hartree
N -0.408051 0.860944 1.410323
N -1.299702 0.852011 2.050381
O -0.037871 -2.410307 -0.127506
H -0.272015 -2.251422 -1.046256
H 0.918806 -2.376173 -0.071705
5
Structure 1777 | Energy: -10.835247 Hartree
N -1.059770 0.929716 0.874272
N -1.519761 0.875233 1.869378
O -0.037871 -2.410307 -0.127506
H -0.272015 -2.251422 -1.046256
H 0.918806 -2.376173 -0.071705
5
Structure 1778 | Energy: -10.834426 Hartree
N 0.232553 -2.372265 -0.673344
N -0.227439 -2.426748 0.321762
O -1.330194 0.891674 1.420110
H -1.564338 1.050559 0.501361
H -0.373517 0.925808 1.475911
5
Structure 1779 | Energy: -10.834448 Hartree
N 0.232553 -2.372265 -0.673344
N -0.227439 -2.426748 0.321762
O -1.320803 0.939940 1.327118
H -1.554947 1.098825 0.408369
H -0.364126 0.974075 1.382919
5
Structure 1780 | Energy: -10.834446 Hartree
N 0.263128 -2.366096 -0.667934
N -0.196863 -2.420579 0.327172
O -1.320803 0.939940 1.327118
H -1.554947 1.098825 0.408369
H -0.364126 0.974075 1.382919
5
Structure 1781 | Energy: -10.834402 Hartree
N 0.263128 -2.366096 -0.667934
N -0.196863 -2.420579 0.327172
O -1.429329 0.925844 1.565265
H -1.663473 1.084729 0.646516
H -0.472652 0.959978 1.621066
5
Structure 1782 | Energy: -10.834411 Hartree
N 0.263128 -2.366096 -0.667934
N -0.196863 -2.420579 0.327172
O -1.324549 2.242463 1.937053
H -1.558693 2.401348 1.018304
H -0.367872 2.276597 1.992854
5
Structure 1783 | Energy: -10.834413 Hartree
N 0.263128 -2.366096 -0.667934
N -0.196863 -2.420579 0.327172
O -1.273806 2.266489 1.916040
H -1.508711 2.422854 0.997052
H -0.316703 2.291544 1.969287
5
Structure 1784 | Energy: -10.834415 Hartree
N 0.363034 -2.392924 -0.555227
N -0.074675 -2.430883 0.450639
O -1.273806 2.266489 1.916040
H -1.508711 2.422854 0.997052
H -0.316703 2.291544 1.969287
5
Structure 1785 | Energy: -10.834672 Hartree
N -1.014542 2.295619 1.364666
N -1.452251 2.257661 2.370531
O 0.103770 -2.422055 -0.003853
H -0.131135 -2.265689 -0.922840
H 1.060873 -2.396999 0.049394
5
Structure 1786 | Energy: -10.834415 Hartree
N -1.508734 2.742343 1.959840
N -0.958059 1.810936 1.775357
O 0.103770 -2.422055 -0.003853
H -0.131135 -2.265689 -0.922840
H 1.060873 -2.396999 0.049394
5
Structure 1787 | Energy: -10.834615 Hartree
N -1.006703 2.030385 1.432665
N -1.460090 2.522895 2.302532
O 0.103770 -2.422055 -0.003853
H -0.131135 -2.265689 -0.922840
H 1.060873 -2.396999 0.049394
5
Structure 1788 | Energy: -10.834617 Hartree
N -0.987122 2.032139 1.442432
N -1.479672 2.521141 2.292765
O 0.103770 -2.422055 -0.003853
H -0.131135 -2.265689 -0.922840
H 1.060873 -2.396999 0.049394
5
Structure 1789 | Energy: -10.834465 Hartree
N -1.585233 1.859283 1.810822
N -0.881560 2.693996 1.924375
O 0.103770 -2.422055 -0.003853
H -0.131135 -2.265689 -0.922840
H 1.060873 -2.396999 0.049394
5
Structure 1790 | Energy: -10.834654 Hartree
N -0.207657 -2.829260 -0.109071
N 0.496016 -1.994547 0.004483
O -1.273806 2.266489 1.916040
H -1.508711 2.422854 0.997052
H -0.316703 2.291544 1.969287
5
Structure 1791 | Energy: -10.834608 Hartree
N -0.207657 -2.829260 -0.109071
N 0.496016 -1.994547 0.004483
O -2.295235 2.206159 -0.755948
H -2.531321 2.060541 0.164501
H -1.367442 2.447864 -0.772905
5
Structure 1792 | Energy: -10.834529 Hartree
N -2.608368 1.794179 -0.762171
N -1.904695 2.628892 -0.648618
O 0.105476 -2.417280 -0.102847
H -0.130610 -2.562899 0.817602
H 1.033269 -2.175575 -0.119805
5
Structure 1793 | Energy: -10.834487 Hartree
N -2.760573 2.248218 0.035426
N -2.056900 3.082931 0.148980
O 0.105476 -2.417280 -0.102847
H -0.130610 -2.562899 0.817602
H 1.033269 -2.175575 -0.119805
5
Structure 1794 | Energy: -10.834473 Hartree
N -3.750668 2.883548 0.279221
N -3.046996 3.718261 0.392775
O 0.105476 -2.417280 -0.102847
H -0.130610 -2.562899 0.817602
H 1.033269 -2.175575 -0.119805
5
Structure 1795 | Energy: -10.834473 Hartree
N 1.955651 -0.984478 -0.461677
N 2.659323 -0.149765 -0.348124
O -3.950067 1.794525 0.255425
H -3.927931 1.435177 1.146799
H -3.881815 2.747667 0.335251
5
Structure 1796 | Energy: -10.834478 Hartree
N 1.687982 -1.146442 0.086881
N 2.391654 -0.311729 0.200434
O -3.950067 1.794525 0.255425
H -3.927931 1.435177 1.146799
H -3.881815 2.747667 0.335251
5
Structure 1797 | Energy: -10.834480 Hartree
N 1.687982 -1.146442 0.086881
N 2.391654 -0.311729 0.200434
O -3.948158 1.795509 0.254694
H -3.909611 1.418298 1.138093
H -3.930435 2.748934 0.355571
5
Structure 1798 | Energy: -10.834489 Hartree
N 1.705516 -1.161844 0.190150
N 2.374120 -0.296327 0.097165
O -3.948158 1.795509 0.254694
H -3.909611 1.418298 1.138093
H -3.930435 2.748934 0.355571
5
Structure 1799 | Energy: -10.834492 Hartree
N 1.619370 -1.125040 0.192541
N 2.287974 -0.259524 0.099556
O -3.948158 1.795509 0.254694
H -3.909611 1.418298 1.138093
H -3.930435 2.748934 0.355571
5
Structure 1800 | Energy: -10.834501 Hartree
N -4.279312 1.394992 0.356260
N -3.610708 2.260508 0.263274
O 1.950523 -0.724523 0.090975
H 1.989071 -1.101734 0.974374
H 1.968246 0.228902 0.191852
5
Structure 1801 | Energy: -10.834507 Hartree
N -4.279312 1.394992 0.356260
N -3.610708 2.260508 0.263274
O 2.107217 -0.336550 0.384782
H 2.148411 -0.650424 1.292502
H 2.060590 0.620557 0.420573
5
Structure 1802 | Energy: -10.834521 Hartree
N -3.988933 1.339799 -0.541743
N -3.320329 2.205315 -0.634728
O 2.107217 -0.336550 0.384782
H 2.148411 -0.650424 1.292502
H 2.060590 0.620557 0.420573
5
Structure 1803 | Energy: -10.834524 Hartree
N -3.988933 1.339799 -0.541743
N -3.320329 2.205315 -0.634728
O 2.104712 -0.336894 0.385064
H 2.159263 -0.645839 1.293769
H 2.089502 0.621434 0.414838
5
Structure 1804 | Energy: -10.834538 Hartree
N -3.988933 1.339799 -0.541743
N -3.320329 2.205315 -0.634728
O 2.085786 -0.343657 0.395400
H 2.020383 -0.399091 1.352906
H 2.528772 0.482028 0.191642
5
Structure 1805 | Energy: -10.834542 Hartree
N -4.040487 0.855455 -0.859453
N -3.434372 1.766792 -0.942430
O 2.085786 -0.343657 0.395400
H 2.020383 -0.399091 1.352906
H 2.528772 0.482028 0.191642
5
Structure 1806 | Energy: -10.834542 Hartree
N -4.040487 0.855455 -0.859453
N -3.434372 1.766792 -0.942430
O 0.233595 -3.344323 0.040558
H 0.422707 -3.199188 0.971870
H -0.378596 -4.080640 -0.010130
5
Structure 1807 | Energy: -10.834544 Hartree
N -4.040487 0.855455 -0.859453
N -3.434372 1.766792 -0.942430
O 0.219779 -3.313615 0.198119
H 0.408891 -3.168480 1.129430
H -0.392411 -4.049931 0.147431
5
Structure 1808 | Energy: -10.834544 Hartree
N -4.040487 0.855455 -0.859453
N -3.434372 1.766792 -0.942430
O 0.219779 -3.436059 -1.146688
H 0.408891 -3.461509 -2.088897
H -0.392411 -4.151114 -0.963852
5
Structure 1809 | Energy: -10.834611 Hartree
N -3.259340 0.528943 -1.280502
N -2.653225 1.440280 -1.363479
O 0.219779 -3.436059 -1.146688
H 0.408891 -3.461509 -2.088897
H -0.392411 -4.151114 -0.963852
5
Structure 1810 | Energy: -10.834581 Hartree
N -3.037154 1.485102 -1.111829
N -2.875410 0.484121 -1.532153
O 0.219779 -3.436059 -1.146688
H 0.408891 -3.461509 -2.088897
H -0.392411 -4.151114 -0.963852
5
Structure 1811 | Energy: -10.834591 Hartree
N -3.121179 1.366020 -1.053482
N -2.959434 0.365039 -1.473806
O 0.219779 -3.436059 -1.146688
H 0.408891 -3.461509 -2.088897
H -0.392411 -4.151114 -0.963852
5
Structure 1812 | Energy: -10.834587 Hartree
N -3.121179 1.366020 -1.053482
N -2.959434 0.365039 -1.473806
O 0.251896 -3.439772 -1.187238
H 0.441007 -3.465221 -2.129446
H -0.360295 -4.154827 -1.004402
5
Structure 1813 | Energy: -10.834592 Hartree
N -3.118728 1.360608 -1.040157
N -2.961885 0.370451 -1.487132
O 0.251896 -3.439772 -1.187238
H 0.441007 -3.465221 -2.129446
H -0.360295 -4.154827 -1.004402
5
Structure 1814 | Energy: -10.834380 Hartree
N 0.149801 -2.986128 -1.006240
N 0.306645 -3.976284 -1.453214
O -3.016634 0.906963 -1.221155
H -2.827522 0.881514 -2.163364
H -3.628825 0.191909 -1.038319
5
Structure 1815 | Energy: -10.834377 Hartree
N 0.177631 -2.982381 -1.006538
N 0.278815 -3.980030 -1.452916
O -3.016634 0.906963 -1.221155
H -2.827522 0.881514 -2.163364
H -3.628825 0.191909 -1.038319
5
Structure 1816 | Energy: -10.834358 Hartree
N -0.037092 -2.571657 -1.035416
N 0.064091 -3.569307 -1.481794
O -3.016634 0.906963 -1.221155
H -2.827522 0.881514 -2.163364
H -3.628825 0.191909 -1.038319
5
Structure 1817 | Energy: -10.834358 Hartree
N -0.037092 -2.571657 -1.035416
N 0.064091 -3.569307 -1.481794
O -3.010372 0.911850 -1.279073
H -2.815395 0.876892 -2.219781
H -3.624853 0.199571 -1.093113
5
Structure 1818 | Energy: -10.834683 Hartree
N -3.084436 1.368864 -1.098115
N -2.983253 0.371215 -1.544493
O 0.036972 -3.028672 -1.216374
H 0.231949 -3.063629 -2.157082
H -0.577509 -3.740950 -1.030414
5
Structure 1819 | Energy: -10.834683 Hartree
N -3.295427 1.192665 -0.803260
N -3.134986 0.244501 -1.332449
O 0.036972 -3.028672 -1.216374
H 0.231949 -3.063629 -2.157082
H -0.577509 -3.740950 -1.030414
5
Structure 1820 | Energy: -10.834358 Hartree
N -0.066721 -2.596400 -0.994011
N 0.093720 -3.544564 -1.523199
O -3.191734 0.760393 -1.025624
H -2.996757 0.725436 -1.966331
H -3.806216 0.048115 -0.839664
5
Structure 1821 | Energy: -10.834683 Hartree
N -3.295427 1.192665 -0.803260
N -3.134986 0.244501 -1.332449
O 0.036972 -3.028672 -1.216374
H 0.231949 -3.063629 -2.157082
H -0.577509 -3.740950 -1.030414
5
Structure 1822 | Energy: -10.834621 Hartree
N -3.295427 1.192665 -0.803260
N -3.134986 0.244501 -1.332449
O 1.317722 -2.611693 -1.135573
H 1.512699 -2.646650 -2.076280
H 0.703240 -3.323971 -0.949613
5
Structure 1823 | Energy: -10.834556 Hartree
N -4.062454 1.205592 -0.093929
N -3.902013 0.257429 -0.623118
O 1.317722 -2.611693 -1.135573
H 1.512699 -2.646650 -2.076280
H 0.703240 -3.323971 -0.949613
5
Structure 1824 | Energy: -10.834556 Hartree
N -4.062454 1.205592 -0.093929
N -3.902013 0.257429 -0.623118
O 1.194947 -2.749167 -1.334241
H 1.378908 -2.751512 -2.277809
H 0.559008 -3.447939 -1.170507
5
Structure 1825 | Energy: -10.834506 Hartree
N -4.062454 1.205592 -0.093929
N -3.902013 0.257429 -0.623118
O 1.132317 -2.757264 -1.336415
H 2.086635 -2.677085 -1.420178
H 0.845356 -3.393851 -1.993621
5
Structure 1826 | Energy: -10.834498 Hartree
N 1.089437 -2.314315 -1.113281
N 1.249878 -3.262479 -1.642470
O -4.019575 0.762643 -0.317064
H -3.065256 0.842822 -0.400826
H -4.306536 0.126056 -0.974270
5
Structure 1827 | Energy: -10.834420 Hartree
N 1.477439 -2.371934 -1.196139
N 0.861876 -3.204860 -1.559612
O -4.019575 0.762643 -0.317064
H -3.065256 0.842822 -0.400826
H -4.306536 0.126056 -0.974270
5
Structure 1828 | Energy: -10.834419 Hartree
N 1.477439 -2.371934 -1.196139
N 0.861876 -3.204860 -1.559612
O -4.017256 0.673051 -0.440579
H -3.062937 0.753230 -0.524341
H -4.304217 0.036464 -1.097785
5
Structure 1829 | Energy: -10.834419 Hartree
N 1.477439 -2.371934 -1.196139
N 0.861876 -3.204860 -1.559612
O -4.051319 0.654823 -0.571739
H -3.095439 0.738279 -0.630877
H -4.319133 0.017810 -1.236569
5
Structure 1830 | Energy: -10.834419 Hartree
N 1.477439 -2.371934 -1.196139
N 0.861876 -3.204860 -1.559612
O -4.051080 0.654475 -0.571250
H -3.095526 0.738212 -0.635071
H -4.322847 0.023405 -1.240132
5
Structure 1831 | Energy: -10.834420 Hartree
N 1.477439 -2.371934 -1.196139
N 0.861876 -3.204860 -1.559612
O -4.048963 0.656162 -0.570629
H -3.097919 0.735734 -0.686185
H -4.354056 -0.000907 -1.198871
5
Structure 1832 | Energy: -10.834419 Hartree
N 1.477439 -2.371934 -1.196139
N 0.861876 -3.204860 -1.559612
O -3.951886 0.592245 -0.584971
H -3.000842 0.671817 -0.700527
H -4.256979 -0.064824 -1.213212
5
Structure 1833 | Energy: -10.834412 Hartree
N 1.225511 -2.508893 -0.908880
N 1.113804 -3.067901 -1.846871
O -3.951886 0.592245 -0.584971
H -3.000842 0.671817 -0.700527
H -4.256979 -0.064824 -1.213212
5
Structure 1834 | Energy: -10.834420 Hartree
N 1.225511 -2.508893 -0.908880
N 1.113804 -3.067901 -1.846871
O -4.102780 0.132988 0.207441
H -3.151736 0.212560 0.091885
H -4.407873 -0.524081 -0.420800
5
Structure 1835 | Energy: -10.834572 Hartree
N -4.010783 0.380179 0.634819
N -4.122490 -0.178829 -0.303172
O 1.133514 -2.756084 -1.336257
H 2.084558 -2.676513 -1.451813
H 0.828421 -3.413154 -1.964499
5
Structure 1836 | Energy: -10.834579 Hartree
N -3.701598 0.040171 1.277585
N -3.813306 -0.518837 0.339594
O 1.133514 -2.756084 -1.336257
H 2.084558 -2.676513 -1.451813
H 0.828421 -3.413154 -1.964499
5
Structure 1837 | Energy: -10.834576 Hartree
N -3.563052 -0.133161 1.677051
N -3.724506 -0.652847 0.723818
O 1.133514 -2.756084 -1.336257
H 2.084558 -2.676513 -1.451813
H 0.828421 -3.413154 -1.964499
5
Structure 1838 | Energy: -10.834580 Hartree
N -3.563052 -0.133161 1.677051
N -3.724506 -0.652847 0.723818
O 1.068882 -2.762383 -1.321485
H 2.019926 -2.682812 -1.437041
H 0.763789 -3.419453 -1.949726
5
Structure 1839 | Energy: -10.834588 Hartree
N -3.558443 -0.325286 1.738330
N -3.729116 -0.460721 0.662540
O 1.068882 -2.762383 -1.321485
H 2.019926 -2.682812 -1.437041
H 0.763789 -3.419453 -1.949726
5
Structure 1840 | Energy: -10.834575 Hartree
N -3.691108 -0.298865 1.793710
N -3.861781 -0.434300 0.717920
O 1.068882 -2.762383 -1.321485
H 2.019926 -2.682812 -1.437041
H 0.763789 -3.419453 -1.949726
5
Structure 1841 | Energy: -10.834575 Hartree
N -3.691108 -0.298865 1.793710
N -3.861781 -0.434300 0.717920
O 1.068595 -2.762901 -1.321337
H 2.020595 -2.682926 -1.428423
H 0.767682 -3.411117 -1.960693
5
Structure 1842 | Energy: -10.834417 Hartree
N 1.190361 -2.726979 -0.825208
N 1.019689 -2.862414 -1.900998
O -3.812875 -0.334788 1.297581
H -2.860875 -0.254812 1.190495
H -4.113788 -0.983004 0.658225
5
Structure 1843 | Energy: -10.834416 Hartree
N 1.190361 -2.726979 -0.825208
N 1.019689 -2.862414 -1.900998
O -3.735008 -0.373520 1.255806
H -2.783008 -0.293544 1.148720
H -4.035921 -1.021736 0.616449
5
Structure 1844 | Energy: -10.834415 Hartree
N 1.190361 -2.726979 -0.825208
N 1.019689 -2.862414 -1.900998
O -3.752440 -0.288019 1.237348
H -2.800439 -0.208043 1.130261
H -4.053352 -0.936235 0.597991
5
Structure 1845 | Energy: -10.834434 Hartree
N 1.190361 -2.726979 -0.825208
N 1.019689 -2.862414 -1.900998
O -4.015347 -0.547025 1.870196
H -3.063347 -0.467050 1.763110
H -4.316260 -1.195241 1.230839
5
Structure 1846 | Energy: -10.834435 Hartree
N 1.190361 -2.726979 -0.825208
N 1.019689 -2.862414 -1.900998
O -3.405425 0.155824 1.768248
H -2.453425 0.235799 1.661162
H -3.706338 -0.492392 1.128892
5
Structure 1847 | Energy: -10.834439 Hartree
N 1.160661 -2.502432 -1.103891
N 0.940387 -2.627274 -2.171922
O -3.405425 0.155824 1.768248
H -2.453425 0.235799 1.661162
H -3.706338 -0.492392 1.128892
5
Structure 1848 | Energy: -10.834439 Hartree
N 1.145106 -2.527845 -1.105046
N 0.918235 -2.663904 -2.170322
O -3.405425 0.155824 1.768248
H -2.453425 0.235799 1.661162
H -3.706338 -0.492392 1.128892
5
Structure 1849 | Energy: -10.834438 Hartree
N 1.232809 -2.494269 -1.120565
N 1.005937 -2.630328 -2.185841
O -3.405425 0.155824 1.768248
H -2.453425 0.235799 1.661162
H -3.706338 -0.492392 1.128892
5
Structure 1850 | Energy: -10.834545 Hartree
N -3.255559 0.192058 2.259120
N -3.482430 0.055999 1.193844
O 1.082942 -2.530503 -1.611437
H 2.034943 -2.450528 -1.718523
H 0.782030 -3.178720 -2.250794
5
Structure 1851 | Energy: -10.834542 Hartree
N -3.255559 0.192058 2.259120
N -3.482430 0.055999 1.193844
O 1.110122 -2.546771 -1.631904
H 2.062123 -2.466796 -1.738990
H 0.809210 -3.194987 -2.271260
5
Structure 1852 | Energy: -10.834543 Hartree
N -1.747013 1.047804 2.908743
N -0.977048 1.492014 2.264827
O 1.110122 -2.546771 -1.631904
H 2.062123 -2.466796 -1.738990
H 0.809210 -3.194987 -2.271260
5
Structure 1853 | Energy: -10.834536 Hartree
N -2.305882 0.475925 2.938549
N -1.555564 1.029871 2.359790
O 1.110122 -2.546771 -1.631904
H 2.062123 -2.466796 -1.738990
H 0.809210 -3.194987 -2.271260
5
Structure 1854 | Energy: -10.834536 Hartree
N -2.303254 0.473099 2.942385
N -1.548476 1.025752 2.368207
O 1.110122 -2.546771 -1.631904
H 2.062123 -2.466796 -1.738990
H 0.809210 -3.194987 -2.271260
5
Structure 1855 | Energy: -10.834508 Hartree
N -2.282978 1.171683 3.690296
N -1.528200 1.724337 3.116118
O 1.110122 -2.546771 -1.631904
H 2.062123 -2.466796 -1.738990
H 0.809210 -3.194987 -2.271260
5
Structure 1856 | Energy: -10.834505 Hartree
N -2.282978 1.171683 3.690296
N -1.528200 1.724337 3.116118
O 1.391982 -2.379461 -1.584941
H 2.347873 -2.292819 -1.639103
H 1.128553 -3.008819 -2.258753
5
Structure 1857 | Energy: -10.834505 Hartree
N -2.290320 1.122283 3.718142
N -1.531385 1.678916 3.153366
O 1.391982 -2.379461 -1.584941
H 2.347873 -2.292819 -1.639103
H 1.128553 -3.008819 -2.258753
5
Structure 1858 | Energy: -10.834505 Hartree
N -2.289584 1.121412 3.718271
N -1.532120 1.679787 3.153237
O 1.391982 -2.379461 -1.584941
H 2.347873 -2.292819 -1.639103
H 1.128553 -3.008819 -2.258753
5
Structure 1859 | Energy: -10.834442 Hartree
N 1.051996 -2.689015 -1.343157
N 1.809459 -2.130640 -1.908191
O -1.949598 1.430966 3.476486
H -0.993706 1.517608 3.422325
H -2.213027 0.801608 2.802675
5
Structure 1860 | Energy: -10.834442 Hartree
N 1.051996 -2.689015 -1.343157
N 1.809459 -2.130640 -1.908191
O -2.017955 1.505569 3.432775
H -1.062064 1.592211 3.378613
H -2.281385 0.876211 2.758963
5
Structure 1861 | Energy: -10.834442 Hartree
N 1.051996 -2.689015 -1.343157
N 1.809459 -2.130640 -1.908191
O -2.017860 1.504956 3.433314
H -1.071690 1.642445 3.333178
H -2.273273 0.835707 2.795836
5
Structure 1862 | Energy: -10.834443 Hartree
N 1.051996 -2.689015 -1.343157
N 1.809459 -2.130640 -1.908191
O -2.004202 1.476132 3.473911
H -1.058032 1.613621 3.373774
H -2.259616 0.806883 2.836433
5
Structure 1863 | Energy: -10.834443 Hartree
N 1.051996 -2.689015 -1.343157
N 1.809459 -2.130640 -1.908191
O -1.991733 1.464651 3.494322
H -1.045563 1.602139 3.394185
H -2.247146 0.795401 2.856844
5
Structure 1864 | Energy: -10.834444 Hartree
N 0.394194 -2.576740 -1.785061
N 1.154348 -2.040367 -2.367525
O -1.991733 1.464651 3.494322
H -1.045563 1.602139 3.394185
H -2.247146 0.795401 2.856844
5
Structure 1865 | Energy: -10.834444 Hartree
N 0.394194 -2.576740 -1.785061
N 1.154348 -2.040367 -2.367525
O -1.764512 1.328788 3.689461
H -0.812482 1.418962 3.591095
H -2.058136 0.707124 3.021009
5
Structure 1866 | Energy: -10.834446 Hartree
N 0.394194 -2.576740 -1.785061
N 1.154348 -2.040367 -2.367525
O -1.764984 1.331700 3.686857
H -0.808746 1.395940 3.611686
H -2.054372 0.683926 3.041758
5
Structure 1867 | Energy: -10.834504 Hartree
N -2.107749 1.030863 3.937787
N -1.347594 1.567236 3.355323
O 0.736958 -2.275903 -2.035992
H 1.693196 -2.211663 -2.111162
H 0.447570 -2.923677 -2.681091
5
Structure 1868 | Energy: -10.834506 Hartree
N -2.118631 1.028465 3.920660
N -1.336712 1.569634 3.372450
O 0.736958 -2.275903 -2.035992
H 1.693196 -2.211663 -2.111162
H 0.447570 -2.923677 -2.681091
5
Structure 1869 | Energy: -10.834512 Hartree
N -2.118631 1.028465 3.920660
N -1.336712 1.569634 3.372450
O 0.253060 -2.247515 -2.147358
H 1.209298 -2.183275 -2.222529
H -0.036328 -2.895289 -2.792457
5
Structure 1870 | Energy: -10.834511 Hartree
N -2.118631 1.028465 3.920660
N -1.336712 1.569634 3.372450
O 0.253916 -2.247398 -2.146676
H 1.211894 -2.210010 -2.217724
H -0.052503 -2.870418 -2.808086
5
Structure 1871 | Energy: -10.834440 Hartree
N -0.100587 -2.550750 -1.913555
N 0.681332 -2.009582 -2.461765
O -1.764128 1.331818 3.687539
H -0.806150 1.369205 3.616491
H -2.070548 0.708798 3.026129
5
Structure 1872 | Energy: -10.834511 Hartree
N -2.118631 1.028465 3.920660
N -1.336712 1.569634 3.372450
O 0.253916 -2.247398 -2.146676
H 1.211894 -2.210010 -2.217724
H -0.052503 -2.870418 -2.808086
5
Structure 1873 | Energy: -10.834521 Hartree
N -1.479820 1.135479 3.887973
N -0.697900 1.676647 3.339763
O 0.253916 -2.247398 -2.146676
H 1.211894 -2.210010 -2.217724
H -0.052503 -2.870418 -2.808086
5
Structure 1874 | Energy: -10.834521 Hartree
N -1.465905 1.114070 3.913236
N -0.683985 1.655238 3.365026
O 0.253916 -2.247398 -2.146676
H 1.211894 -2.210010 -2.217724
H -0.052503 -2.870418 -2.808086
5
Structure 1875 | Energy: -10.834519 Hartree
N -1.464183 1.123523 3.924619
N -0.685707 1.645785 3.353643
O 0.253916 -2.247398 -2.146676
H 1.211894 -2.210010 -2.217724
H -0.052503 -2.870418 -2.808086
5
Structure 1876 | Energy: -10.834519 Hartree
N -1.442866 1.059383 3.965064
N -0.664390 1.581645 3.394088
O 0.253916 -2.247398 -2.146676
H 1.211894 -2.210010 -2.217724
H -0.052503 -2.870418 -2.808086
5
Structure 1877 | Energy: -10.834511 Hartree
N -1.313235 0.843208 4.359692
N -0.534759 1.365470 3.788715
O 0.253916 -2.247398 -2.146676
H 1.211894 -2.210010 -2.217724
H -0.052503 -2.870418 -2.808086
5
Structure 1878 | Energy: -10.834509 Hartree
N -1.313235 0.843208 4.359692
N -0.534759 1.365470 3.788715
O 0.254053 -2.247538 -2.146443
H 0.889242 -1.878928 -2.766789
H 0.267977 -3.199271 -2.262716
5
Structure 1879 | Energy: -10.834508 Hartree
N -1.311861 0.849341 4.367011
N -0.536133 1.359338 3.781396
O 0.254053 -2.247538 -2.146443
H 0.889242 -1.878928 -2.766789
H 0.267977 -3.199271 -2.262716
5
Structure 1880 | Energy: -10.834508 Hartree
N -1.310015 0.847993 4.368270
N -0.537979 1.360686 3.780136
O 0.254053 -2.247538 -2.146443
H 0.889242 -1.878928 -2.766789
H 0.267977 -3.199271 -2.262716
5
Structure 1881 | Energy: -10.834439 Hartree
N -0.095646 -2.536512 -1.893593
N 0.676391 -2.023820 -2.481727
O -0.960317 1.136967 4.115420
H -0.325128 1.505577 3.495074
H -0.946393 0.185234 3.999147
5
Structure 1882 | Energy: -10.834443 Hartree
N -1.328526 -0.387122 -2.793726
N -1.432712 -1.476106 -2.883480
O -0.960317 1.136967 4.115420
H -0.325128 1.505577 3.495074
H -0.946393 0.185234 3.999147
5
Structure 1883 | Energy: -10.834448 Hartree
N -1.328526 -0.387122 -2.793726
N -1.432712 -1.476106 -2.883480
O -0.663448 1.811564 3.707560
H -0.028259 2.180174 3.087214
H -0.649524 0.859831 3.591287
5
Structure 1884 | Energy: -10.834469 Hartree
N -0.898015 -0.677525 -2.777525
N -1.863224 -1.185703 -2.899681
O -0.663448 1.811564 3.707560
H -0.028259 2.180174 3.087214
H -0.649524 0.859831 3.591287
5
Structure 1885 | Energy: -10.834473 Hartree
N -0.999039 -1.290645 -2.559894
N -1.964248 -1.798823 -2.682050
O -0.663448 1.811564 3.707560
H -0.028259 2.180174 3.087214
H -0.649524 0.859831 3.591287
5
Structure 1886 | Energy: -10.834473 Hartree
N -0.410605 -0.046332 -3.037998
N -0.742862 0.783942 -3.674430
O -0.663448 1.811564 3.707560
H -0.028259 2.180174 3.087214
H -0.649524 0.859831 3.591287
5
Structure 1887 | Energy: -10.834471 Hartree
N -0.410605 -0.046332 -3.037998
N -0.742862 0.783942 -3.674430
O -0.601482 1.828095 3.698097
H -1.375247 1.319749 3.957019
H -0.286064 1.457887 2.871678
5
Structure 1888 | Energy: -10.834500 Hartree
N -0.276954 0.155783 -3.763586
N -0.876514 0.581827 -2.948841
O -0.601482 1.828095 3.698097
H -1.375247 1.319749 3.957019
H -0.286064 1.457887 2.871678
5
Structure 1889 | Energy: -10.834500 Hartree
N -0.276954 0.155783 -3.763586
N -0.876514 0.581827 -2.948841
O -0.563293 1.842719 3.666844
H -1.337058 1.334373 3.925767
H -0.247876 1.472511 2.840426
5
Structure 1890 | Energy: -10.834478 Hartree
N -1.156802 0.278917 -4.044609
N -1.756362 0.704961 -3.229863
O -0.563293 1.842719 3.666844
H -1.337058 1.334373 3.925767
H -0.247876 1.472511 2.840426
5
Structure 1891 | Energy: -10.834478 Hartree
N -1.156802 0.278917 -4.044609
N -1.756362 0.704961 -3.229863
O -0.562024 1.843447 3.664577
H -1.342698 1.361267 3.951316
H -0.262382 1.434055 2.850868
5
Structure 1892 | Energy: -10.834478 Hartree
N -1.149641 0.289660 -3.984588
N -1.749201 0.715704 -3.169842
O -0.562024 1.843447 3.664577
H -1.342698 1.361267 3.951316
H -0.262382 1.434055 2.850868
5
Structure 1893 | Energy: -10.834479 Hartree
N -1.137781 0.307452 -3.885180
N -1.737341 0.733496 -3.070435
O -0.562024 1.843447 3.664577
H -1.342698 1.361267 3.951316
H -0.262382 1.434055 2.850868
5
Structure 1894 | Energy: -10.834481 Hartree
N -1.137781 0.307452 -3.885180
N -1.737341 0.733496 -3.070435
O -0.622455 1.884930 3.625349
H -1.403129 1.402749 3.912088
H -0.322813 1.475537 2.811641
5
Structure 1895 | Energy: -10.834451 Hartree
N -1.137781 0.307452 -3.885180
N -1.737341 0.733496 -3.070435
O -0.687968 1.845490 3.645699
H -0.237528 1.023480 3.432224
H -0.448590 2.480801 2.968509
5
Structure 1896 | Energy: -10.834450 Hartree
N -1.137781 0.307452 -3.885180
N -1.737341 0.733496 -3.070435
O -0.687868 1.847483 3.645318
H -0.273313 1.004855 3.439673
H -0.414397 2.467781 2.967119
5
Structure 1897 | Energy: -10.834455 Hartree
N -0.488286 0.923776 -3.998986
N -1.160469 1.275629 -3.205787
O -0.687868 1.847483 3.645318
H -0.273313 1.004855 3.439673
H -0.414397 2.467781 2.967119
5
Structure 1898 | Energy: -10.834455 Hartree
N -0.488286 0.923776 -3.998986
N -1.160469 1.275629 -3.205787
O -0.711218 1.833858 3.624889
H -0.296663 0.991230 3.419244
H -0.437747 2.454156 2.946690
5
Structure 1899 | Energy: -10.834454 Hartree
N -0.544348 0.858459 -4.027814
N -1.216532 1.210313 -3.234615
O -0.711218 1.833858 3.624889
H -0.296663 0.991230 3.419244
H -0.437747 2.454156 2.946690
5
Structure 1900 | Energy: -10.834455 Hartree
N -0.544348 0.858459 -4.027814
N -1.216532 1.210313 -3.234615
O -0.710680 1.832568 3.625607
H -0.289525 0.998388 3.399909
H -0.453414 2.467481 2.954630
5
Structure 1901 | Energy: -10.834449 Hartree
N -0.832394 1.233277 -4.185617
N -1.504578 1.585131 -3.392418
O -0.710680 1.832568 3.625607
H -0.289525 0.998388 3.399909
H -0.453414 2.467481 2.954630
5
Structure 1902 | Energy: -10.834450 Hartree
N -0.832394 1.233277 -4.185617
N -1.504578 1.585131 -3.392418
O -0.779269 1.931399 3.581756
H -0.358113 1.097219 3.356058
H -0.522002 2.566312 2.910780
5
Structure 1903 | Energy: -10.834453 Hartree
N -0.832394 1.233277 -4.185617
N -1.504578 1.585131 -3.392418
O -0.833365 2.233700 3.825505
H -0.412209 1.399519 3.599807
H -0.576098 2.868612 3.154529
5
Structure 1904 | Energy: -10.834478 Hartree
N -0.459313 2.046623 3.378734
N -1.131497 2.398477 4.171932
O -1.206446 1.420354 -3.738845
H -0.785290 0.586174 -3.964544
H -0.949180 2.055266 -4.409822
5
Structure 1905 | Energy: -10.834485 Hartree
N -0.459313 2.046623 3.378734
N -1.131497 2.398477 4.171932
O -1.308475 1.794462 -3.557252
H -0.887319 0.960282 -3.782950
H -1.051209 2.429374 -4.228228
5
Structure 1906 | Energy: -10.834449 Hartree
N -0.934423 1.607385 -4.004023
N -1.606607 1.959239 -3.210824
O -0.833365 2.233700 3.825505
H -0.412209 1.399519 3.599807
H -0.576098 2.868612 3.154529
5
Structure 1907 | Energy: -10.834450 Hartree
N -0.934423 1.607385 -4.004023
N -1.606607 1.959239 -3.210824
O -0.700501 2.242368 3.815967
H -0.204526 1.454964 3.574778
H -0.523551 2.902545 3.143388
5
Structure 1908 | Energy: -10.834439 Hartree
N -0.934423 1.607385 -4.004023
N -1.606607 1.959239 -3.210824
O -0.715525 2.234605 3.800995
H -0.085749 1.516331 3.693144
H -0.403868 2.964380 3.262657
5
Structure 1909 | Energy: -10.834495 Hartree
N -0.326757 2.059322 3.368240
N -0.998941 2.411176 4.161438
O -1.323192 1.782668 -3.571267
H -0.693416 1.064394 -3.679119
H -1.011534 2.512443 -4.109605
5
Structure 1910 | Energy: -10.834496 Hartree
N -0.333164 1.985773 3.371625
N -1.004526 2.333001 4.167553
O -1.323192 1.782668 -3.571267
H -0.693416 1.064394 -3.679119
H -1.011534 2.512443 -4.109605
5
Structure 1911 | Energy: -10.834439 Hartree
N -0.934835 1.609698 -4.005388
N -1.606196 1.956926 -3.209459
O -0.721521 2.158743 3.805746
H -0.091745 1.440469 3.697894
H -0.409864 2.888518 3.267408
5
Structure 1912 | Energy: -10.834510 Hartree
N -1.599897 1.954777 -4.011536
N -0.941134 1.611847 -3.203311
O -0.721521 2.158743 3.805746
H -0.091745 1.440469 3.697894
H -0.409864 2.888518 3.267408
5
Structure 1913 | Energy: -10.834495 Hartree
N -1.442284 2.046314 -4.057451
N -1.098746 1.520310 -3.157396
O -0.721521 2.158743 3.805746
H -0.091745 1.440469 3.697894
H -0.409864 2.888518 3.267408
5
Structure 1914 | Energy: -10.834508 Hartree
N 1.925285 -1.542756 -2.667660
N 1.690561 -0.584237 -2.187096
O -0.721521 2.158743 3.805746
H -0.091745 1.440469 3.697894
H -0.409864 2.888518 3.267408
5
Structure 1915 | Energy: -10.834509 Hartree
N 1.925285 -1.542756 -2.667660
N 1.690561 -0.584237 -2.187096
O -0.720521 2.157977 3.807141
H -0.091925 1.443602 3.670382
H -0.425564 2.897548 3.272778
5
Structure 1916 | Energy: -10.834462 Hartree
N 2.239304 -1.366790 -2.579438
N 1.376542 -0.760203 -2.275318
O -0.720521 2.157977 3.807141
H -0.091925 1.443602 3.670382
H -0.425564 2.897548 3.272778
5
Structure 1917 | Energy: -10.834452 Hartree
N 2.239304 -1.366790 -2.579438
N 1.376542 -0.760203 -2.275318
O -0.209752 2.290520 3.930078
H 0.418844 1.576144 3.793319
H 0.085205 3.030091 3.395714
5
Structure 1918 | Energy: -10.834473 Hartree
N 0.273305 1.988636 3.740466
N -0.589458 2.595223 4.044586
O 1.756247 -1.064906 -2.389826
H 2.384843 -1.779282 -2.526585
H 2.051204 -0.325335 -2.924190
5
Structure 1919 | Energy: -10.834452 Hartree
N 2.239304 -1.366790 -2.579438
N 1.376542 -0.760203 -2.275318
O -0.209752 2.290520 3.930078
H 0.418844 1.576144 3.793319
H 0.085205 3.030091 3.395714
5
Structure 1920 | Energy: -10.834453 Hartree
N 2.237326 -1.370167 -2.578260
N 1.378520 -0.756826 -2.276496
O -0.209752 2.290520 3.930078
H 0.418844 1.576144 3.793319
H 0.085205 3.030091 3.395714
5
Structure 1921 | Energy: -10.834150 Hartree
N 2.426909 0.249880 -1.375718
N 2.858395 0.044399 -0.387603
O 1.876729 3.480312 0.385869
H 1.657250 4.124465 -0.289713
H 2.058881 2.650932 -0.064797
5
Structure 1922 | Energy: -10.834148 Hartree
N 2.439127 0.255870 -1.362868
N 2.870613 0.050390 -0.374753
O 1.876729 3.480312 0.385869
H 1.657250 4.124465 -0.289713
H 2.058881 2.650932 -0.064797
5
Structure 1923 | Energy: -10.834155 Hartree
N 2.438237 0.247728 -1.374632
N 2.869723 0.042248 -0.386517
O 1.876729 3.480312 0.385869
H 1.657250 4.124465 -0.289713
H 2.058881 2.650932 -0.064797
5
Structure 1924 | Energy: -10.834161 Hartree
N 2.436214 0.251874 -1.372862
N 2.871746 0.038102 -0.388287
O 1.876729 3.480312 0.385869
H 1.657250 4.124465 -0.289713
H 2.058881 2.650932 -0.064797
5
Structure 1925 | Energy: -10.835225 Hartree
N 1.656874 3.576834 -0.169436
N 2.092407 3.363062 0.815139
O 2.656069 0.155352 -0.817557
H 2.436589 0.799505 -1.493139
H 2.838221 -0.674028 -1.268223
5
Structure 1926 | Energy: -10.835225 Hartree
N 1.656840 3.576822 -0.169423
N 2.092441 3.363074 0.815127
O 2.656069 0.155352 -0.817557
H 2.436589 0.799505 -1.493139
H 2.838221 -0.674028 -1.268223
5
Structure 1927 | Energy: -10.834785 Hartree
N 1.249576 3.700937 -0.799849
N 1.685177 3.487189 0.184701
O 2.656069 0.155352 -0.817557
H 2.436589 0.799505 -1.493139
H 2.838221 -0.674028 -1.268223
5
Structure 1928 | Energy: -10.834573 Hartree
N 1.427154 4.432979 -1.037170
N 1.862754 4.219231 -0.052619
O 2.656069 0.155352 -0.817557
H 2.436589 0.799505 -1.493139
H 2.838221 -0.674028 -1.268223
5
Structure 1929 | Energy: -10.834688 Hartree
N 0.924498 4.091379 -0.595436
N 1.360099 3.877631 0.389114
O 2.656069 0.155352 -0.817557
H 2.436589 0.799505 -1.493139
H 2.838221 -0.674028 -1.268223
5
Structure 1930 | Energy: -10.834712 Hartree
N 0.924498 4.091379 -0.595436
N 1.360099 3.877631 0.389114
O 2.527129 0.126060 -0.914898
H 2.308787 0.786781 -1.574663
H 2.673827 -0.700864 -1.382689
5
Structure 1931 | Energy: -10.834819 Hartree
N 1.142133 3.868069 0.433157
N 1.142464 4.100941 -0.639478
O 2.527129 0.126060 -0.914898
H 2.308787 0.786781 -1.574663
H 2.673827 -0.700864 -1.382689
5
Structure 1932 | Energy: -10.834444 Hartree
N 2.522955 0.000324 -0.441671
N 2.523285 0.233196 -1.514306
O 1.146307 3.993804 -0.040070
H 0.927965 4.654526 -0.699835
H 1.293006 3.166881 -0.507861
5
Structure 1933 | Energy: -10.834819 Hartree
N 1.142133 3.868069 0.433157
N 1.142464 4.100941 -0.639478
O 2.527129 0.126060 -0.914898
H 2.308787 0.786781 -1.574663
H 2.673827 -0.700864 -1.382689
5
Structure 1934 | Energy: -10.834303 Hartree
N 1.142133 3.868069 0.433157
N 1.142464 4.100941 -0.639478
O -0.243596 1.478065 2.940082
H -0.024773 1.199303 2.049058
H -0.390413 0.680501 3.456307
5
Structure 1935 | Energy: -10.833731 Hartree
N 1.142133 3.868069 0.433157
N 1.142464 4.100941 -0.639478
O -0.268874 2.046157 2.204672
H -0.050051 1.767395 1.313648
H -0.415691 1.248593 2.720896
5
Structure 1936 | Energy: -10.834945 Hartree
N 1.622000 3.775618 0.062510
N 0.662597 4.193391 -0.268832
O -0.268874 2.046157 2.204672
H -0.050051 1.767395 1.313648
H -0.415691 1.248593 2.720896
5
Structure 1937 | Energy: -10.834947 Hartree
N 1.622000 3.775618 0.062510
N 0.662597 4.193391 -0.268832
O -0.267575 2.046220 2.204701
H -0.008817 1.760781 1.326587
H -0.477538 1.254215 2.707488
5
Structure 1938 | Energy: -10.834947 Hartree
N -0.373583 3.904705 -0.567499
N 0.643786 4.194608 -0.274771
O -0.267575 2.046220 2.204701
H -0.008817 1.760781 1.326587
H -0.477538 1.254215 2.707488
5
Structure 1939 | Energy: -10.835665 Hartree
N -0.373583 3.904705 -0.567499
N 0.643786 4.194608 -0.274771
O -0.251707 2.040568 2.153279
H -0.193005 1.156634 1.786222
H -0.545213 1.948073 3.064021
5
Structure 1940 | Energy: -10.835665 Hartree
N -0.373266 3.905373 -0.569250
N 0.643469 4.193940 -0.273019
O -0.251707 2.040568 2.153279
H -0.193005 1.156634 1.786222
H -0.545213 1.948073 3.064021
5
Structure 1941 | Energy: -10.833906 Hartree
N -0.773213 1.841650 2.035585
N 0.243523 2.130217 2.331816
O 0.148240 4.104291 -0.451556
H 0.206942 3.220357 -0.818613
H -0.145266 4.011796 0.459186
5
Structure 1942 | Energy: -10.834299 Hartree
N -0.773213 1.841650 2.035585
N 0.243523 2.130217 2.331816
O 0.148392 4.104527 -0.451060
H 0.566458 3.775884 0.346893
H -0.507207 3.452523 -0.714180
5
Structure 1943 | Energy: -10.834305 Hartree
N -1.589357 1.593527 1.230975
N -1.925594 1.470766 0.193358
O 0.148392 4.104527 -0.451060
H 0.566458 3.775884 0.346893
H -0.507207 3.452523 -0.714180
5
Structure 1944 | Energy: -10.834241 Hartree
N -1.745418 1.048813 0.452481
N -1.769534 2.015481 0.971852
O 0.148392 4.104527 -0.451060
H 0.566458 3.775884 0.346893
H -0.507207 3.452523 -0.714180
5
Structure 1945 | Energy: -10.834261 Hartree
N -1.707946 1.085856 0.638903
N -1.703737 2.068505 1.127940
O 0.148392 4.104527 -0.451060
H 0.566458 3.775884 0.346893
H -0.507207 3.452523 -0.714180
5
Structure 1946 | Energy: -10.834264 Hartree
N -1.702058 1.084469 0.648995
N -1.697849 2.067119 1.138031
O 0.148392 4.104527 -0.451060
H 0.566458 3.775884 0.346893
H -0.507207 3.452523 -0.714180
5
Structure 1947 | Energy: -10.835523 Hartree
N -1.988985 1.175041 1.132368
N -1.410922 1.976546 0.654658
O 0.148392 4.104527 -0.451060
H 0.566458 3.775884 0.346893
H -0.507207 3.452523 -0.714180
5
Structure 1948 | Energy: -10.832939 Hartree
N -0.153930 3.648904 -0.182279
N 0.424133 4.450409 -0.659990
O -1.686663 1.630664 0.863587
H -1.268597 1.302021 1.661541
H -2.342262 0.978661 0.600467
5
Structure 1949 | Energy: -10.835523 Hartree
N -1.988985 1.175041 1.132368
N -1.410922 1.976546 0.654658
O 0.148392 4.104527 -0.451060
H 0.566458 3.775884 0.346893
H -0.507207 3.452523 -0.714180
5
Structure 1950 | Energy: -10.835491 Hartree
N -2.437563 1.358040 0.730006
N -1.732727 2.115970 0.364598
O 0.148392 4.104527 -0.451060
H 0.566458 3.775884 0.346893
H -0.507207 3.452523 -0.714180
5
Structure 1951 | Energy: -10.835491 Hartree
N -2.437563 1.358040 0.730006
N -1.732727 2.115970 0.364598
O 0.148392 3.992605 -0.683208
H 0.566458 3.163624 -0.923055
H -0.507207 3.792393 -0.009223
5
Structure 1952 | Energy: -10.835445 Hartree
N -2.437563 1.358040 0.730006
N -1.732727 2.115970 0.364598
O 0.145803 3.993299 -0.682830
H 0.551419 3.175050 -0.975166
H -0.451075 3.769967 0.036899
5
Structure 1953 | Energy: -10.835440 Hartree
N -2.438996 1.360561 0.732432
N -1.731294 2.113449 0.362172
O 0.145803 3.993299 -0.682830
H 0.551419 3.175050 -0.975166
H -0.451075 3.769967 0.036899
5
Structure 1954 | Energy: -10.835440 Hartree
N -2.438996 1.360561 0.732432
N -1.731294 2.113449 0.362172
O -4.239895 -0.672417 1.611706
H -3.574930 -1.214759 1.183683
H -3.829894 0.175417 1.804650
5
Structure 1955 | Energy: -10.835216 Hartree
N -2.094868 1.984765 0.057696
N -2.075422 1.489245 1.036908
O -4.239895 -0.672417 1.611706
H -3.574930 -1.214759 1.183683
H -3.829894 0.175417 1.804650
5
Structure 1956 | Energy: -10.834991 Hartree
N -4.189470 -0.407564 1.108946
N -4.170024 -0.903084 2.088158
O -2.145293 1.719912 0.560455
H -1.480329 1.177570 0.132433
H -1.735292 2.567746 0.753399
5
Structure 1957 | Energy: -10.835060 Hartree
N -4.189470 -0.407564 1.108946
N -4.170024 -0.903084 2.088158
O -2.303726 1.890245 0.671721
H -1.637592 1.416672 0.170215
H -1.921994 2.738004 0.916131
5
Structure 1958 | Energy: -10.834370 Hartree
N -4.189470 -0.407564 1.108946
N -4.170024 -0.903084 2.088158
O -2.287694 1.927050 0.612430
H -1.765311 1.123480 0.642529
H -2.048751 2.447023 1.384884
5
Structure 1959 | Energy: -10.835049 Hartree
N -3.965776 -0.206283 1.830441
N -4.393717 -1.104365 1.366664
O -2.287694 1.927050 0.612430
H -1.765311 1.123480 0.642529
H -2.048751 2.447023 1.384884
5
Structure 1960 | Energy: -10.834170 Hartree
N -2.031124 2.360224 0.889224
N -2.459065 1.462141 0.425447
O -4.222345 -0.639456 1.553647
H -3.699963 -1.443026 1.583746
H -3.983403 -0.119483 2.326101
5
Structure 1961 | Energy: -10.834223 Hartree
N -1.999007 2.437039 0.872283
N -2.426948 1.538956 0.408506
O -4.222345 -0.639456 1.553647
H -3.699963 -1.443026 1.583746
H -3.983403 -0.119483 2.326101
5
Structure 1962 | Energy: -10.834278 Hartree
N -2.475072 2.242679 0.540139
N -2.903013 1.344596 0.076362
O -4.222345 -0.639456 1.553647
H -3.699963 -1.443026 1.583746
H -3.983403 -0.119483 2.326101
5
Structure 1963 | Energy: -10.835268 Hartree
N -3.965776 -0.206283 1.830441
N -4.393717 -1.104365 1.366664
O -2.731641 1.809506 0.263345
H -2.209258 1.005935 0.293445
H -2.492698 2.329478 1.035800
5
Structure 1964 | Energy: -10.835149 Hartree
N -3.734670 -0.362753 1.792648
N -4.087500 -1.283069 1.309633
O -2.731641 1.809506 0.263345
H -2.209258 1.005935 0.293445
H -2.492698 2.329478 1.035800
5
Structure 1965 | Energy: -10.833633 Hartree
N -3.734670 -0.362753 1.792648
N -4.087500 -1.283069 1.309633
O -1.943996 0.919183 0.966252
H -1.421613 0.115613 0.996351
H -1.705053 1.439156 1.738706
5
Structure 1966 | Energy: -10.832166 Hartree
N -1.724981 1.363473 1.252665
N -2.077812 0.443157 0.769649
O -3.953684 -0.807043 1.506235
H -3.431301 -1.610613 1.536334
H -3.714741 -0.287070 2.278689
5
Structure 1967 | Energy: -10.832166 Hartree
N -1.724981 1.363473 1.252665
N -2.077812 0.443157 0.769649
O -0.659306 -1.104329 -0.333790
H -1.012742 -1.828866 0.185485
H -0.057631 -0.617090 0.236066
5
Structure 1968 | Energy: -10.833362 Hartree
N -1.724981 1.363473 1.252665
N -2.077812 0.443157 0.769649
O -0.529408 -1.038900 -0.412663
H -0.882843 -1.763437 0.106612
H 0.072268 -0.551661 0.157193
5
Structure 1969 | Energy: -10.833043 Hartree
N -1.473261 1.196955 1.622198
N -1.883026 0.296557 1.146644
O -0.529408 -1.038900 -0.412663
H -0.882843 -1.763437 0.106612
H 0.072268 -0.551661 0.157193
5
Structure 1970 | Energy: -10.833110 Hartree
N -1.484239 1.211409 1.602807
N -1.872048 0.282103 1.166035
O -0.529408 -1.038900 -0.412663
H -0.882843 -1.763437 0.106612
H 0.072268 -0.551661 0.157193
5
Structure 1971 | Energy: -10.834357 Hartree
N -0.321613 -0.587525 -0.133337
N -0.709423 -1.516831 -0.570108
O -1.692033 0.760033 1.323481
H -2.045468 0.035497 1.842755
H -1.090358 1.247273 1.893336
5
Structure 1972 | Energy: -10.834588 Hartree
N -0.321613 -0.587525 -0.133337
N -0.709423 -1.516831 -0.570108
O -1.782019 0.759122 1.257554
H -2.144014 0.034702 1.771061
H -1.209849 1.261551 1.844357
5
Structure 1973 | Energy: -10.835237 Hartree
N 0.279207 -0.690838 -0.582083
N -0.108602 -1.620144 -1.018855
O -1.782019 0.759122 1.257554
H -2.144014 0.034702 1.771061
H -1.209849 1.261551 1.844357
5
Structure 1974 | Energy: -10.835528 Hartree
N 0.279207 -0.690838 -0.582083
N -0.108602 -1.620144 -1.018855
O -1.753922 0.711837 1.268124
H -1.226036 1.397406 1.681462
H -2.573793 0.649362 1.766179
5
Structure 1975 | Energy: -10.835655 Hartree
N 0.279207 -0.690838 -0.582083
N -0.108602 -1.620144 -1.018855
O -2.057930 0.446385 1.196850
H -1.626087 1.158656 1.671926
H -2.900507 0.288344 1.631865
5
Structure 1976 | Energy: -10.835728 Hartree
N -0.053151 0.619593 -1.232403
N -0.460558 -0.056387 -1.995190
O -2.057930 0.446385 1.196850
H -1.626087 1.158656 1.671926
H -2.900507 0.288344 1.631865
5
Structure 1977 | Energy: -10.835719 Hartree
N -0.135904 0.607915 -1.298443
N -0.555244 -0.089198 -2.035303
O -2.057930 0.446385 1.196850
H -1.626087 1.158656 1.671926
H -2.900507 0.288344 1.631865
5
Structure 1978 | Energy: -10.835710 Hartree
N -0.135904 0.607915 -1.298443
N -0.555244 -0.089198 -2.035303
O -1.870039 0.310412 1.306585
H -1.421694 1.014873 1.778006
H -2.679160 0.119414 1.789279
5
Structure 1979 | Energy: -10.835917 Hartree
N -0.135904 0.607915 -1.298443
N -0.555244 -0.089198 -2.035303
O -1.979252 -0.696879 0.707657
H -1.530907 0.007581 1.179078
H -2.788374 -0.887878 1.190351
5
Structure 1980 | Energy: -10.835921 Hartree
N -0.135904 0.607915 -1.298443
N -0.555244 -0.089198 -2.035303
O -2.127893 -0.542763 0.657267
H -1.647020 0.134498 1.136427
H -2.965436 -0.668239 1.112161
5
Structure 1981 | Energy: -10.835884 Hartree
N -0.175382 0.767786 -1.241277
N -0.632353 0.156498 -2.030123
O -2.127893 -0.542763 0.657267
H -1.647020 0.134498 1.136427
H -2.965436 -0.668239 1.112161
5
Structure 1982 | Energy: -10.833193 Hartree
N -1.149429 2.304471 1.346018
N -2.100075 2.472020 1.868488
O -2.127893 -0.542763 0.657267
H -1.647020 0.134498 1.136427
H -2.965436 -0.668239 1.112161
5
Structure 1983 | Energy: -10.834512 Hartree
N -0.709472 3.547232 0.593895
N -1.660118 3.714780 1.116365
O -2.127893 -0.542763 0.657267
H -1.647020 0.134498 1.136427
H -2.965436 -0.668239 1.112161
5
Structure 1984 | Energy: -10.834546 Hartree
N -0.709472 3.547232 0.593895
N -1.660118 3.714780 1.116365
O -2.552207 -0.424756 0.682176
H -1.997326 0.200281 1.152231
H -3.391054 -0.463583 1.150128
5
Structure 1985 | Energy: -10.834538 Hartree
N -0.709472 3.547232 0.593895
N -1.660118 3.714780 1.116365
O -2.578516 -0.591162 0.769987
H -2.023635 0.033875 1.240042
H -3.417362 -0.629989 1.237940
5
Structure 1986 | Energy: -10.834538 Hartree
N -0.709472 3.547232 0.593895
N -1.660118 3.714780 1.116365
O -1.674197 -0.750545 0.272978
H -1.398931 -0.076227 0.896708
H -0.878997 -1.077368 -0.157132
5
Structure 1987 | Energy: -10.834536 Hartree
N -0.709472 3.547232 0.593895
N -1.660118 3.714780 1.116365
O -1.673552 -0.752648 0.273423
H -1.414788 -0.083878 0.910057
H -0.873365 -1.036340 -0.177543
5
Structure 1988 | Energy: -10.834761 Hartree
N -1.138977 -0.814876 0.022577
N -2.089623 -0.647328 0.545047
O -1.244047 3.609460 0.844741
H -0.985283 4.278230 1.481375
H -0.443860 3.325768 0.393775
5
Structure 1989 | Energy: -10.834560 Hartree
N -0.458971 -0.611825 -0.742918
N -1.409617 -0.444277 -0.220448
O -1.244047 3.609460 0.844741
H -0.985283 4.278230 1.481375
H -0.443860 3.325768 0.393775
5
Structure 1990 | Energy: -10.834549 Hartree
N -0.458971 -0.611825 -0.742918
N -1.409617 -0.444277 -0.220448
O -1.244560 3.610018 0.846722
H -0.960684 4.286537 1.464178
H -0.460324 3.308591 0.379532
5
Structure 1991 | Energy: -10.834533 Hartree
N -0.466334 -0.571409 -0.804617
N -1.416980 -0.403861 -0.282147
O -1.325405 3.544762 0.839633
H -1.041529 4.221281 1.457089
H -0.541169 3.243334 0.372443
5
Structure 1992 | Energy: -10.834531 Hartree
N -0.438781 -0.571827 -0.789949
N -1.386163 -0.411319 -0.259404
O -1.325405 3.544762 0.839633
H -1.041529 4.221281 1.457089
H -0.541169 3.243334 0.372443
5
Structure 1993 | Energy: -10.834538 Hartree
N -0.438781 -0.571827 -0.789949
N -1.386163 -0.411319 -0.259404
O -1.324881 3.547006 0.833136
H -1.084311 4.208252 1.484592
H -0.506697 3.220752 0.448058
5
Structure 1994 | Energy: -10.834550 Hartree
N -0.421590 -0.567755 -0.757967
N -1.403354 -0.415391 -0.291386
O -1.324881 3.547006 0.833136
H -1.084311 4.208252 1.484592
H -0.506697 3.220752 0.448058
5
Structure 1995 | Energy: -10.834592 Hartree
N -0.421590 -0.567755 -0.757967
N -1.403354 -0.415391 -0.291386
O -1.123848 3.611138 0.678211
H -0.862988 4.280767 1.313084
H -0.315893 3.224169 0.329476
5
Structure 1996 | Energy: -10.834650 Hartree
N -0.573162 3.550771 0.460930
N -1.554926 3.703136 0.927512
O -0.972276 -0.507389 -0.540687
H -0.711416 0.162240 0.094187
H -0.164321 -0.894357 -0.889421
5
Structure 1997 | Energy: -10.834592 Hartree
N -0.421590 -0.567755 -0.757967
N -1.403354 -0.415391 -0.291386
O -1.123848 3.611138 0.678211
H -0.862988 4.280767 1.313084
H -0.315893 3.224169 0.329476
5
Structure 1998 | Energy: -10.834555 Hartree
N -0.421590 -0.567755 -0.757967
N -1.403354 -0.415391 -0.291386
O -0.850994 3.767774 1.335769
H -0.590134 4.437403 1.970642
H -0.043040 3.380806 0.987034
5
Structure 1999 | Energy: -10.834563 Hartree
N -0.541735 -0.586987 -0.735724
N -1.518164 -0.406109 -0.268130
O -0.850994 3.767774 1.335769
H -0.590134 4.437403 1.970642
H -0.043040 3.380806 0.987034
5
Structure 2000 | Energy: -10.834571 Hartree
N -0.550939 -0.568907 -0.759816
N -1.508960 -0.424189 -0.244038
O -0.850994 3.767774 1.335769
H -0.590134 4.437403 1.970642
H -0.043040 3.380806 0.987034
5
Structure 2001 | Energy: -10.834628 Hartree
N -0.324223 0.209171 -0.705709
N -1.282244 0.353889 -0.189931
O -0.850994 3.767774 1.335769
H -0.590134 4.437403 1.970642
H -0.043040 3.380806 0.987034
5
Structure 2002 | Energy: -10.834628 Hartree
N -0.324223 0.209171 -0.705709
N -1.282244 0.353889 -0.189931
O -0.850994 -1.768011 2.889015
H -0.590134 -2.009631 3.779570
H -0.043040 -1.618941 2.389878
5
Structure 2003 | Energy: -10.834554 Hartree
N -0.324223 0.209171 -0.705709
N -1.282244 0.353889 -0.189931
O -0.787826 -1.753081 2.971475
H -0.068430 -1.772957 2.337764
H -1.567350 -2.092588 2.522889
5
Structure 2004 | Energy: -10.834475 Hartree
N -0.337853 0.319890 -1.387354
N -1.295874 0.464608 -0.871576
O -0.787826 -1.753081 2.971475
H -0.068430 -1.772957 2.337764
H -1.567350 -2.092588 2.522889
5
Structure 2005 | Energy: -10.834801 Hartree
N -0.312180 -1.845549 2.653027
N -1.270201 -1.700830 3.168806
O -0.813499 0.412358 -1.068907
H -0.094103 0.392482 -1.702618
H -1.593023 0.072850 -1.517492
5
Structure 2006 | Energy: -10.835207 Hartree
N -0.312180 -1.845549 2.653027
N -1.270201 -1.700830 3.168806
O -0.924924 -0.873233 -0.708099
H -0.205528 -0.893109 -1.341810
H -1.704447 -1.212741 -1.156685
5
Structure 2007 | Energy: -10.835116 Hartree
N -0.498994 -1.857976 2.708320
N -1.457015 -1.713258 3.224099
O -0.924924 -0.873233 -0.708099
H -0.205528 -0.893109 -1.341810
H -1.704447 -1.212741 -1.156685
5
Structure 2008 | Energy: -10.834580 Hartree
N -0.449277 -0.965701 -1.026547
N -1.407299 -0.820983 -0.510768
O -0.974640 -1.765508 3.026768
H -0.255244 -1.785384 2.393057
H -1.754164 -2.105016 2.578182
5
Structure 2009 | Energy: -10.835028 Hartree
N -0.449277 -0.965701 -1.026547
N -1.407299 -0.820983 -0.510768
O -0.965499 -1.847617 2.957124
H -0.328065 -1.131301 2.947844
H -1.826436 -1.455865 3.128787
5
Structure 2010 | Energy: -10.835275 Hartree
N -0.012065 -1.350190 -0.525173
N -0.970086 -1.205471 -0.009395
O -0.965499 -1.847617 2.957124
H -0.328065 -1.131301 2.947844
H -1.826436 -1.455865 3.128787
5
Structure 2011 | Energy: -10.835314 Hartree
N 0.046425 -1.343221 -0.388732
N -0.911596 -1.198502 0.127046
O -0.976115 -1.878749 2.898268
H -0.338682 -1.162433 2.888989
H -1.837052 -1.486996 3.069931
5
Structure 2012 | Energy: -10.835307 Hartree
N 0.019856 -1.369305 -0.243557
N -0.938165 -1.224587 0.272221
O -0.976115 -1.878749 2.898268
H -0.338682 -1.162433 2.888989
H -1.837052 -1.486996 3.069931
5
Structure 2013 | Energy: -10.835400 Hartree
N 0.021743 -1.401863 -0.228409
N -0.940053 -1.192029 0.257074
O -0.976115 -1.878749 2.898268
H -0.338682 -1.162433 2.888989
H -1.837052 -1.486996 3.069931
5
Structure 2014 | Energy: -10.835434 Hartree
N 0.025716 -1.418389 -0.212264
N -0.944025 -1.175503 0.240929
O -0.976115 -1.878749 2.898268
H -0.338682 -1.162433 2.888989
H -1.837052 -1.486996 3.069931
5
Structure 2015 | Energy: -10.835400 Hartree
N -0.042714 -1.173899 -0.180472
N -1.012455 -0.931013 0.272721
O -0.976115 -1.878749 2.898268
H -0.338682 -1.162433 2.888989
H -1.837052 -1.486996 3.069931
5
Structure 2016 | Energy: -10.834732 Hartree
N -0.042714 -1.173899 -0.180472
N -1.012455 -0.931013 0.272721
O -1.906626 -0.683490 3.142351
H -1.269192 0.032826 3.133072
H -2.767563 -0.291737 3.314014
5
Structure 2017 | Energy: -10.835115 Hartree
N -0.042714 -1.173899 -0.180472
N -1.012455 -0.931013 0.272721
O -1.346294 -1.187543 2.887686
H -0.708861 -0.471227 2.878406
H -2.207231 -0.795790 3.059349
5
Structure 2018 | Energy: -10.835125 Hartree
N -0.042714 -1.173899 -0.180472
N -1.012455 -0.931013 0.272721
O -1.346830 -1.187642 2.887643
H -0.702063 -0.477860 2.887263
H -2.205527 -0.787580 3.051171
5
Structure 2019 | Energy: -10.834781 Hartree
N -0.061130 -1.157125 -0.223426
N -0.994040 -0.947786 0.315675
O -1.346830 -1.187642 2.887643
H -0.702063 -0.477860 2.887263
H -2.205527 -0.787580 3.051171
5
Structure 2020 | Energy: -10.834880 Hartree
N -0.186386 -1.290247 -0.219066
N -1.119297 -1.080908 0.320035
O -1.346830 -1.187642 2.887643
H -0.702063 -0.477860 2.887263
H -2.205527 -0.787580 3.051171
5
Structure 2021 | Energy: -10.834870 Hartree
N -2.995691 -1.861733 0.088082
N -2.126201 -1.285738 0.430122
O -1.346830 -1.187642 2.887643
H -0.702063 -0.477860 2.887263
H -2.205527 -0.787580 3.051171
5
Structure 2022 | Energy: -10.833659 Hartree
N -1.793545 -1.413540 2.725752
N -0.924055 -0.837546 3.067791
O -2.548976 -1.635835 0.249974
H -1.904209 -0.926053 0.249594
H -3.407673 -1.235773 0.413502
5
Structure 2023 | Energy: -10.833014 Hartree
N -1.793545 -1.413540 2.725752
N -0.924055 -0.837546 3.067791
O -2.767425 -1.890385 0.424273
H -2.175608 -1.144177 0.312726
H -3.630942 -1.533294 0.650048
5
Structure 2024 | Energy: -10.833555 Hartree
N -1.793545 -1.413540 2.725752
N -0.924055 -0.837546 3.067791
O -2.785407 -1.787709 0.336568
H -2.193591 -1.041500 0.225021
H -3.648925 -1.430618 0.562344
5
Structure 2025 | Energy: -10.834857 Hartree
N -1.793545 -1.413540 2.725752
N -0.924055 -0.837546 3.067791
O -2.153604 -2.603811 -0.024541
H -1.561788 -1.857603 -0.136088
H -3.017122 -2.246720 0.201234
5
Structure 2026 | Energy: -10.834757 Hartree
N -1.773138 -1.447913 2.736784
N -0.944463 -0.803173 3.056759
O -2.153604 -2.603811 -0.024541
H -1.561788 -1.857603 -0.136088
H -3.017122 -2.246720 0.201234
5
Structure 2027 | Energy: -10.834752 Hartree
N -1.855671 -1.469756 2.755924
N -2.673357 -1.260741 3.457692
O -2.153604 -2.603811 -0.024541
H -1.561788 -1.857603 -0.136088
H -3.017122 -2.246720 0.201234
5
Structure 2028 | Energy: -10.834490 Hartree
N -1.855671 -1.469756 2.755924
N -2.673357 -1.260741 3.457692
O -2.154191 -2.603975 -0.024320
H -2.943754 -2.243710 0.383496
H -1.625835 -1.858009 -0.321854
5
Structure 2029 | Energy: -10.834570 Hartree
N -1.855671 -1.469756 2.755924
N -2.673357 -1.260741 3.457692
O -2.157944 -2.604493 -0.026475
H -2.936926 -2.210512 0.370366
H -1.573093 -1.882986 -0.274524
5
Structure 2030 | Energy: -10.835004 Hartree
N -1.855671 -1.469756 2.755924
N -2.673357 -1.260741 3.457692
O -3.697382 -1.938744 0.072525
H -4.476363 -1.544763 0.469365
H -3.112530 -1.217237 -0.175525
5
Structure 2031 | Energy: -10.834667 Hartree
N -1.855671 -1.469756 2.755924
N -2.673357 -1.260741 3.457692
O -3.747699 -1.906684 0.040790
H -2.789226 -1.924682 0.017962
H -4.001030 -1.346172 0.779573
5
Structure 2032 | Energy: -10.834632 Hartree
N -1.855671 -1.469756 2.755924
N -2.673357 -1.260741 3.457692
O -3.877429 -2.408197 0.242507
H -2.921340 -2.399584 0.169464
H -4.115074 -1.750967 0.902602
5
Structure 2033 | Energy: -10.834573 Hartree
N -1.855671 -1.469756 2.755924
N -2.673357 -1.260741 3.457692
O -3.879276 -2.406260 0.242681
H -2.928978 -2.390490 0.115405
H -4.078107 -1.790807 0.953902
5
Structure 2034 | Energy: -10.834572 Hartree
N -1.513992 -1.649089 2.505473
N -0.740975 -2.274968 2.041258
O -3.879276 -2.406260 0.242681
H -2.928978 -2.390490 0.115405
H -4.078107 -1.790807 0.953902
5
Structure 2035 | Energy: -10.834546 Hartree
N -1.554142 -1.655148 2.475869
N -0.781125 -2.281026 2.011654
O -3.879276 -2.406260 0.242681
H -2.928978 -2.390490 0.115405
H -4.078107 -1.790807 0.953902
5
Structure 2036 | Energy: -10.834549 Hartree
N -1.575338 -1.620192 2.519299
N -0.802321 -2.246070 2.055083
O -3.879276 -2.406260 0.242681
H -2.928978 -2.390490 0.115405
H -4.078107 -1.790807 0.953902
5
Structure 2037 | Energy: -10.835621 Hartree
N -4.223738 -2.058001 0.507462
N -3.450721 -2.683880 0.043246
O -1.230877 -1.968450 2.254517
H -0.280578 -1.952681 2.127241
H -1.429707 -1.352998 2.965738
5
Structure 2038 | Energy: -10.835625 Hartree
N -4.017276 -1.496315 0.685642
N -3.244259 -2.122194 0.221426
O -1.230877 -1.968450 2.254517
H -0.280578 -1.952681 2.127241
H -1.429707 -1.352998 2.965738
5
Structure 2039 | Energy: -10.835637 Hartree
N -4.017276 -1.496315 0.685642
N -3.244259 -2.122194 0.221426
O -1.231118 -1.966379 2.252705
H -0.278658 -1.969181 2.141676
H -1.427802 -1.369374 2.980064
5
Structure 2040 | Energy: -10.835566 Hartree
N -4.017276 -1.496315 0.685642
N -3.244259 -2.122194 0.221426
O -1.104456 -1.928730 2.429226
H -0.151996 -1.931533 2.318197
H -1.301140 -1.331726 3.156585
5
Structure 2041 | Energy: -10.835541 Hartree
N -4.017276 -1.496315 0.685642
N -3.244259 -2.122194 0.221426
O -1.104800 -2.040683 2.419700
H -0.152923 -2.065121 2.306344
H -1.284847 -1.456530 3.161657
5
Structure 2042 | Energy: -10.835541 Hartree
N -4.017276 -1.496315 0.685642
N -3.244259 -2.122194 0.221426
O -1.105579 -2.040129 2.420767
H -0.153661 -2.064666 2.307790
H -1.285880 -1.455699 3.162443
5
Structure 2043 | Energy: -10.834774 Hartree
N -4.713874 -0.644383 0.469060
N -3.940857 -1.270262 0.004845
O -1.105579 -2.040129 2.420767
H -0.153661 -2.064666 2.307790
H -1.285880 -1.455699 3.162443
5
Structure 2044 | Energy: -10.834818 Hartree
N -4.713874 -0.644383 0.469060
N -3.940857 -1.270262 0.004845
O -1.105704 -2.039856 2.420678
H -0.447873 -1.420844 2.098812
H -0.989684 -2.103863 3.372830
5
Structure 2045 | Energy: -10.834929 Hartree
N -1.448913 -1.695862 2.688053
N -0.675896 -2.321741 2.223837
O -4.370665 -0.988377 0.201686
H -3.712834 -0.369365 -0.120180
H -4.254644 -1.052384 1.153838
5
Structure 2046 | Energy: -10.835449 Hartree
N -1.448913 -1.695862 2.688053
N -0.675896 -2.321741 2.223837
O -3.428898 -0.352076 0.416458
H -2.771066 0.266936 0.094593
H -3.312877 -0.416083 1.368610
5
Structure 2047 | Energy: -10.835075 Hartree
N -3.772106 -0.008082 0.683833
N -2.999090 -0.633960 0.219617
O -1.105704 -2.039856 2.420678
H -0.447873 -1.420844 2.098812
H -0.989684 -2.103863 3.372830
5
Structure 2048 | Energy: -10.835031 Hartree
N -2.422094 0.644738 1.120876
N -1.649078 0.018859 0.656660
O -1.105704 -2.039856 2.420678
H -0.447873 -1.420844 2.098812
H -0.989684 -2.103863 3.372830
5
Structure 2049 | Energy: -10.835370 Hartree
N -2.841230 0.537887 1.444710
N -1.995965 0.092312 0.904557
O -1.105704 -2.039856 2.420678
H -0.447873 -1.420844 2.098812
H -0.989684 -2.103863 3.372830
5
Structure 2050 | Energy: -10.835276 Hartree
N -2.841230 0.537887 1.444710
N -1.995965 0.092312 0.904557
O -0.578000 -2.288854 1.849387
H 0.079832 -1.669842 1.527521
H -0.461979 -2.352861 2.801539
5
Structure 2051 | Energy: -10.835420 Hartree
N -2.841230 0.537887 1.444710
N -1.995965 0.092312 0.904557
O -0.749852 -2.364098 1.987562
H -0.056414 -1.812799 1.620511
H -0.623469 -2.377968 2.940445
5
Structure 2052 | Energy: -10.835356 Hartree
N -2.158635 0.985966 1.927061
N -1.490631 0.424031 1.261647
O -0.749852 -2.364098 1.987562
H -0.056414 -1.812799 1.620511
H -0.623469 -2.377968 2.940445
5
Structure 2053 | Energy: -10.835365 Hartree
N -2.714028 0.431496 3.228097
N -2.491164 -0.574841 3.605448
O -0.749852 -2.364098 1.987562
H -0.056414 -1.812799 1.620511
H -0.623469 -2.377968 2.940445
5
Structure 2054 | Energy: -10.835365 Hartree
N -2.714028 0.431496 3.228097
N -2.491164 -0.574841 3.605448
O -1.974157 -2.760273 1.654101
H -2.590184 -2.632704 0.930393
H -2.494871 -2.983538 2.430736
5
Structure 2055 | Energy: -10.834320 Hartree
N -2.714028 0.431496 3.228097
N -2.491164 -0.574841 3.605448
O -1.752807 1.724431 0.812470
H -1.342350 2.471312 1.252026
H -1.156661 0.976899 0.912256
5
Structure 2056 | Energy: -10.834346 Hartree
N -2.814719 0.327928 3.232274
N -2.591856 -0.678408 3.609625
O -1.752807 1.724431 0.812470
H -1.342350 2.471312 1.252026
H -1.156661 0.976899 0.912256
5
Structure 2057 | Energy: -10.835323 Hartree
N -2.814719 0.327928 3.232274
N -2.591856 -0.678408 3.609625
O -1.643919 1.693481 0.861736
H -2.372746 1.321535 0.361752
H -1.854529 2.617905 1.020594
5
Structure 2058 | Energy: -10.835377 Hartree
N -2.769473 0.413299 3.116404
N -2.546610 -0.593038 3.493755
O -1.643919 1.693481 0.861736
H -2.372746 1.321535 0.361752
H -1.854529 2.617905 1.020594
5
Structure 2059 | Energy: -10.835206 Hartree
N -2.769473 0.413299 3.116404
N -2.546610 -0.593038 3.493755
O -1.785155 1.845432 0.923611
H -2.510568 1.465358 0.424776
H -2.030383 2.751624 1.130566
5
Structure 2060 | Energy: -10.835189 Hartree
N -2.749631 0.355586 3.085515
N -2.511721 -0.654476 3.443213
O -1.785155 1.845432 0.923611
H -2.510568 1.465358 0.424776
H -2.030383 2.751624 1.130566
5
Structure 2061 | Energy: -10.835196 Hartree
N -2.749631 0.355586 3.085515
N -2.511721 -0.654476 3.443213
O -1.778350 1.862844 0.903336
H -2.503762 1.482771 0.404501
H -2.023578 2.769036 1.110291
5
Structure 2062 | Energy: -10.835312 Hartree
N -2.749631 0.355586 3.085515
N -2.511721 -0.654476 3.443213
O -1.648207 1.774441 1.000453
H -2.373619 1.394367 0.501617
H -1.893435 2.680633 1.207407
5
Structure 2063 | Energy: -10.835134 Hartree
N -3.046870 -0.066023 3.401152
N -2.808960 -1.076086 3.758849
O -1.648207 1.774441 1.000453
H -2.373619 1.394367 0.501617
H -1.893435 2.680633 1.207407
5
Structure 2064 | Energy: -10.835077 Hartree
N -3.046870 -0.066023 3.401152
N -2.808960 -1.076086 3.758849
O -1.610188 1.782211 1.026805
H -2.234983 1.307535 0.475598
H -1.965232 2.665942 1.157623
5
Structure 2065 | Energy: -10.835094 Hartree
N -3.035683 -0.044975 3.378327
N -2.797773 -1.055038 3.736024
O -1.610188 1.782211 1.026805
H -2.234983 1.307535 0.475598
H -1.965232 2.665942 1.157623
5
Structure 2066 | Energy: -10.835050 Hartree
N -2.866645 -0.125188 3.279366
N -2.628735 -1.135251 3.637063
O -1.610188 1.782211 1.026805
H -2.234983 1.307535 0.475598
H -1.965232 2.665942 1.157623
5
Structure 2067 | Energy: -10.834914 Hartree
N -2.866645 -0.125188 3.279366
N -2.628735 -1.135251 3.637063
O -1.247451 2.030411 0.741058
H -1.872246 1.555735 0.189851
H -1.602494 2.914143 0.871877
5
Structure 2068 | Energy: -10.834909 Hartree
N -2.859612 -0.129598 3.263162
N -2.635768 -1.130841 3.653267
O -1.247451 2.030411 0.741058
H -1.872246 1.555735 0.189851
H -1.602494 2.914143 0.871877
5
Structure 2069 | Energy: -10.834977 Hartree
N -2.687645 -0.915168 3.923395
N -2.807735 -0.345272 2.993034
O -1.247451 2.030411 0.741058
H -1.872246 1.555735 0.189851
H -1.602494 2.914143 0.871877
5
Structure 2070 | Energy: -10.834898 Hartree
N -2.687645 -0.915168 3.923395
N -2.807735 -0.345272 2.993034
O -1.366705 2.090148 0.655009
H -1.991500 1.615473 0.103802
H -1.721748 2.973880 0.785828
5
Structure 2071 | Energy: -10.834431 Hartree
N -1.361485 1.828089 1.096667
N -1.481575 2.397984 0.166306
O -2.692865 -0.653108 3.481737
H -3.317660 -1.127784 2.930530
H -3.047908 0.230624 3.612555
5
Structure 2072 | Energy: -10.834423 Hartree
N -1.330981 1.794451 1.080052
N -1.443298 2.358279 0.145034
O -2.692865 -0.653108 3.481737
H -3.317660 -1.127784 2.930530
H -3.047908 0.230624 3.612555
5
Structure 2073 | Energy: -10.834402 Hartree
N -1.303792 1.799426 1.078967
N -1.470487 2.353304 0.146118
O -2.692865 -0.653108 3.481737
H -3.317660 -1.127784 2.930530
H -3.047908 0.230624 3.612555
5
Structure 2074 | Energy: -10.834403 Hartree
N -1.303792 1.799426 1.078967
N -1.470487 2.353304 0.146118
O -2.689411 -0.655272 3.482530
H -3.314206 -1.129947 2.931323
H -3.044455 0.228460 3.613348
5
Structure 2075 | Energy: -10.834403 Hartree
N -1.303792 1.799426 1.078967
N -1.470487 2.353304 0.146118
O 0.611991 -0.894779 2.750382
H 0.875092 -1.433868 2.002267
H 1.107001 -0.072716 2.692685
5
Structure 2076 | Energy: -10.834400 Hartree
N -1.361024 1.765615 1.093619
N -1.553871 2.306703 0.158307
O 0.611991 -0.894779 2.750382
H 0.875092 -1.433868 2.002267
H 1.107001 -0.072716 2.692685
5
Structure 2077 | Energy: -10.834411 Hartree
N -0.766015 0.790498 0.441647
N -0.958862 1.331587 -0.493665
O 0.611991 -0.894779 2.750382
H 0.875092 -1.433868 2.002267
H 1.107001 -0.072716 2.692685
5
Structure 2078 | Energy: -10.834432 Hartree
N -0.768143 0.777817 0.415817
N -0.960990 1.318905 -0.519495
O 0.471572 -0.859523 2.722748
H 0.734673 -1.398612 1.974633
H 0.966582 -0.037460 2.665051
5
Structure 2079 | Energy: -10.834306 Hartree
N 0.610415 -1.114233 3.145316
N 0.417568 -0.573145 2.210004
O -0.906985 1.032528 -0.006751
H -0.643885 0.493438 -0.754866
H -0.411975 1.854590 -0.064448
5
Structure 2080 | Energy: -10.834432 Hartree
N -0.768143 0.777817 0.415817
N -0.960990 1.318905 -0.519495
O 0.471572 -0.859523 2.722748
H 0.734673 -1.398612 1.974633
H 0.966582 -0.037460 2.665051
5
Structure 2081 | Energy: -10.834997 Hartree
N -0.768143 0.777817 0.415817
N -0.960990 1.318905 -0.519495
O -1.843442 0.054059 -3.395008
H -2.238233 0.925551 -3.330526
H -2.307498 -0.511826 -2.771649
5
Structure 2082 | Energy: -10.834943 Hartree
N -0.795637 0.782117 0.423089
N -0.933496 1.314605 -0.526767
O -1.843442 0.054059 -3.395008
H -2.238233 0.925551 -3.330526
H -2.307498 -0.511826 -2.771649
5
Structure 2083 | Energy: -10.834861 Hartree
N -1.822568 -0.195085 -2.881593
N -1.960427 0.337403 -3.831449
O -0.816511 1.031261 -0.090326
H -1.211302 1.902753 -0.025844
H -1.280567 0.465376 0.533034
5
Structure 2084 | Energy: -10.834790 Hartree
N -2.371511 -1.074168 -3.217148
N -2.509370 -0.541681 -4.167004
O -0.816511 1.031261 -0.090326
H -1.211302 1.902753 -0.025844
H -1.280567 0.465376 0.533034
5
Structure 2085 | Energy: -10.834918 Hartree
N 2.138706 0.444563 2.670472
N 3.087113 0.972305 2.506802
O -0.816511 1.031261 -0.090326
H -1.211302 1.902753 -0.025844
H -1.280567 0.465376 0.533034
5
Structure 2086 | Energy: -10.834916 Hartree
N 2.138706 0.444563 2.670472
N 3.087113 0.972305 2.506802
O -0.723162 0.905782 -0.217368
H -1.108630 1.783807 -0.218535
H -1.214463 0.383705 0.423109
5
Structure 2087 | Energy: -10.835101 Hartree
N 1.748883 1.533357 1.840194
N 2.697290 2.061099 1.676524
O -0.723162 0.905782 -0.217368
H -1.108630 1.783807 -0.218535
H -1.214463 0.383705 0.423109
5
Structure 2088 | Energy: -10.835105 Hartree
N 1.748417 1.534637 1.841595
N 2.697756 2.059820 1.675123
O -0.723162 0.905782 -0.217368
H -1.108630 1.783807 -0.218535
H -1.214463 0.383705 0.423109
5
Structure 2089 | Energy: -10.835101 Hartree
N 1.764526 1.741808 1.746252
N 2.627588 1.157460 2.090399
O -0.723162 0.905782 -0.217368
H -1.108630 1.783807 -0.218535
H -1.214463 0.383705 0.423109
5
Structure 2090 | Energy: -10.835216 Hartree
N 1.764526 1.741808 1.746252
N 2.627588 1.157460 2.090399
O -0.312811 0.984850 -0.702430
H -0.665729 1.873867 -0.770356
H -0.925215 0.479726 -0.160247
5
Structure 2091 | Energy: -10.835177 Hartree
N 1.979100 1.853032 1.498988
N 2.808254 1.239814 1.874809
O -0.312811 0.984850 -0.702430
H -0.665729 1.873867 -0.770356
H -0.925215 0.479726 -0.160247
5
Structure 2092 | Energy: -10.834446 Hartree
N -0.781401 1.312940 -0.863805
N 0.047752 0.699721 -0.487983
O 2.447690 1.524943 1.660362
H 2.094772 2.413959 1.592436
H 1.835286 1.019819 2.202545
5
Structure 2093 | Energy: -10.835180 Hartree
N 1.832078 0.258244 -2.142843
N 1.388109 0.158807 -1.143955
O 2.447690 1.524943 1.660362
H 2.094772 2.413959 1.592436
H 1.835286 1.019819 2.202545
5
Structure 2094 | Energy: -10.834443 Hartree
N 2.615661 1.596141 1.187454
N 2.171692 1.496704 2.186343
O 1.664106 0.187046 -1.669935
H 1.311189 1.076062 -1.737861
H 1.051703 -0.318078 -1.127752
5
Structure 2095 | Energy: -10.834443 Hartree
N 2.613745 1.600935 1.185780
N 2.169287 1.502936 2.184593
O 1.664106 0.187046 -1.669935
H 1.311189 1.076062 -1.737861
H 1.051703 -0.318078 -1.127752
5
Structure 2096 | Energy: -10.834431 Hartree
N 2.613745 1.600935 1.185780
N 2.169287 1.502936 2.184593
O 1.664459 0.189945 -1.671366
H 1.284230 1.069930 -1.695186
H 1.073073 -0.357965 -1.147717
5
Structure 2097 | Energy: -10.834463 Hartree
N 2.613745 1.600935 1.185780
N 2.169287 1.502936 2.184593
O 1.425695 0.170938 -1.602687
H 1.098860 1.072048 -1.629036
H 0.827507 -0.328947 -1.040160
5
Structure 2098 | Energy: -10.834558 Hartree
N 1.324567 1.105928 1.283112
N 0.880109 1.007930 2.281925
O 1.425695 0.170938 -1.602687
H 1.098860 1.072048 -1.629036
H 0.827507 -0.328947 -1.040160
5
Structure 2099 | Energy: -10.835128 Hartree
N 1.324567 1.105928 1.283112
N 0.880109 1.007930 2.281925
O 2.122226 0.150782 -1.596559
H 1.795390 1.051892 -1.622908
H 1.524037 -0.349103 -1.034031
5
Structure 2100 | Energy: -10.835209 Hartree
N 1.113337 1.147156 1.205134
N 0.599338 1.061734 2.171200
O 2.122226 0.150782 -1.596559
H 1.795390 1.051892 -1.622908
H 1.524037 -0.349103 -1.034031
5
Structure 2101 | Energy: -10.835206 Hartree
N 1.116924 1.110646 1.174479
N 0.602925 1.025224 2.140545
O 2.122226 0.150782 -1.596559
H 1.795390 1.051892 -1.622908
H 1.524037 -0.349103 -1.034031
5
Structure 2102 | Energy: -10.835981 Hartree
N -1.372164 -0.109454 -0.345212
N -1.133565 -0.123100 -1.417408
O -3.037289 1.753171 0.053992
H -2.626464 2.541955 0.413961
H -3.147844 1.135444 0.780352
5
Structure 2103 | Energy: -10.835365 Hartree
N -1.817375 -1.611319 -0.040439
N -1.578776 -1.624966 -1.112635
O -3.037289 1.753171 0.053992
H -2.626464 2.541955 0.413961
H -3.147844 1.135444 0.780352
5
Structure 2104 | Energy: -10.835351 Hartree
N -1.940315 -1.655549 0.048637
N -1.561323 -1.661973 -0.982404
O -3.037289 1.753171 0.053992
H -2.626464 2.541955 0.413961
H -3.147844 1.135444 0.780352
5
Structure 2105 | Energy: -10.835469 Hartree
N -1.940315 -1.655549 0.048637
N -1.561323 -1.661973 -0.982404
O -2.989914 1.625505 0.032288
H -2.579089 2.414289 0.392257
H -3.100469 1.007778 0.758648
5
Structure 2106 | Energy: -10.835469 Hartree
N -1.940315 -1.655549 0.048637
N -1.561323 -1.661973 -0.982404
O -2.989817 1.625611 0.032245
H -2.579057 2.413553 0.394127
H -3.102037 1.006843 0.757464
5
Structure 2107 | Energy: -10.835469 Hartree
N -0.154455 3.149422 -1.194867
N -0.022971 2.477062 -2.053566
O -2.989817 1.625611 0.032245
H -2.579057 2.413553 0.394127
H -3.102037 1.006843 0.757464
5
Structure 2108 | Energy: -10.835493 Hartree
N -0.216437 3.107304 -1.366431
N -0.146555 2.431813 -2.229882
O -2.989817 1.625611 0.032245
H -2.579057 2.413553 0.394127
H -3.102037 1.006843 0.757464
5
Structure 2109 | Energy: -10.835532 Hartree
N -0.250148 3.093605 -1.343593
N -0.180266 2.418113 -2.207045
O -2.989817 1.625611 0.032245
H -2.579057 2.413553 0.394127
H -3.102037 1.006843 0.757464
5
Structure 2110 | Energy: -10.835592 Hartree
N -0.250148 3.093605 -1.343593
N -0.180266 2.418113 -2.207045
O -2.925109 1.622119 0.053118
H -3.857570 1.658932 -0.169806
H -2.850575 1.816878 0.990093
5
Structure 2111 | Energy: -10.835585 Hartree
N -0.250148 3.093605 -1.343593
N -0.180266 2.418113 -2.207045
O -2.816557 1.619464 0.202988
H -3.759425 1.643263 0.027007
H -2.697094 1.828212 1.132268
5
Structure 2112 | Energy: -10.834847 Hartree
N 0.572466 2.707394 -2.162897
N 0.642348 2.031902 -3.026348
O -2.816557 1.619464 0.202988
H -3.759425 1.643263 0.027007
H -2.697094 1.828212 1.132268
5
Structure 2113 | Energy: -10.834464 Hartree
N -2.897571 1.970221 0.676863
N -2.827689 1.294730 -0.186588
O 0.653479 2.356636 -2.636772
H -0.289389 2.380435 -2.812753
H 0.772942 2.565385 -1.707492
5
Structure 2114 | Energy: -10.834454 Hartree
N -2.120908 1.653328 0.360393
N -2.051026 0.977837 -0.503059
O 0.653479 2.356636 -2.636772
H -0.289389 2.380435 -2.812753
H 0.772942 2.565385 -1.707492
5
Structure 2115 | Energy: -10.835248 Hartree
N 0.572466 2.707394 -2.162897
N 0.642348 2.031902 -3.026348
O -2.039895 1.302571 -0.113483
H -2.982762 1.326370 -0.289463
H -1.920432 1.511319 0.815797
5
Structure 2116 | Energy: -10.834964 Hartree
N 0.572466 2.707394 -2.162897
N 0.642348 2.031902 -3.026348
O -1.435485 1.185351 0.697923
H -2.378352 1.209150 0.521942
H -1.316022 1.394099 1.627202
5
Structure 2117 | Energy: -10.834957 Hartree
N 0.634752 2.603586 -2.170254
N 0.661047 1.929282 -3.037054
O -1.435485 1.185351 0.697923
H -2.378352 1.209150 0.521942
H -1.316022 1.394099 1.627202
5
Structure 2118 | Energy: -10.834274 Hartree
N 0.613625 2.186014 -2.061401
N 0.682174 2.346853 -3.145907
O -1.435485 1.185351 0.697923
H -2.378352 1.209150 0.521942
H -1.316022 1.394099 1.627202
5
Structure 2119 | Energy: -10.834272 Hartree
N 0.660609 2.102684 -2.053997
N 0.741712 2.251147 -3.139401
O -1.435485 1.185351 0.697923
H -2.378352 1.209150 0.521942
H -1.316022 1.394099 1.627202
5
Structure 2120 | Energy: -10.834351 Hartree
N 0.660609 2.102684 -2.053997
N 0.741712 2.251147 -3.139401
O -1.618127 1.059674 0.529906
H -2.548757 1.077227 0.297193
H -1.558487 1.241577 1.470524
5
Structure 2121 | Energy: -10.834391 Hartree
N 0.815248 2.278121 -1.827617
N 0.974179 2.468391 -2.897785
O -1.618127 1.059674 0.529906
H -2.548757 1.077227 0.297193
H -1.558487 1.241577 1.470524
5
Structure 2122 | Energy: -10.834379 Hartree
N 0.860055 2.346337 -1.969191
N 1.018986 2.536606 -3.039359
O -1.618127 1.059674 0.529906
H -2.548757 1.077227 0.297193
H -1.558487 1.241577 1.470524
5
Structure 2123 | Energy: -10.833906 Hartree
N -0.228474 2.287817 -1.916624
N -0.069543 2.478086 -2.986792
O -1.618127 1.059674 0.529906
H -2.548757 1.077227 0.297193
H -1.558487 1.241577 1.470524
5
Structure 2124 | Energy: -10.835431 Hartree
N -0.228474 2.287817 -1.916624
N -0.069543 2.478086 -2.986792
O -1.639384 1.037747 0.616619
H -2.469283 1.516682 0.665844
H -1.300571 1.150159 -0.274435
5
Structure 2125 | Energy: -10.835352 Hartree
N -0.228474 2.287817 -1.916624
N -0.069543 2.478086 -2.986792
O -1.636892 1.037408 0.614825
H -2.460408 1.519713 0.713503
H -1.349013 1.152504 -0.293628
5
Structure 2126 | Energy: -10.835333 Hartree
N -0.149816 2.085971 -1.989667
N -0.148201 2.679932 -2.913749
O -1.636892 1.037408 0.614825
H -2.460408 1.519713 0.713503
H -1.349013 1.152504 -0.293628
5
Structure 2127 | Energy: -10.835299 Hartree
N -0.125019 2.150227 -1.953179
N -0.123404 2.744189 -2.877261
O -1.636892 1.037408 0.614825
H -2.460408 1.519713 0.713503
H -1.349013 1.152504 -0.293628
5
Structure 2128 | Energy: -10.835272 Hartree
N -0.125019 2.150227 -1.953179
N -0.123404 2.744189 -2.877261
O -1.614236 1.057622 0.570991
H -2.437752 1.539927 0.669668
H -1.326357 1.172718 -0.337462
5
Structure 2129 | Energy: -10.835123 Hartree
N -1.645014 0.794067 0.987722
N -1.643399 1.388029 0.063640
O -0.094241 2.413782 -2.369911
H -0.917757 2.896087 -2.271233
H 0.193638 2.528878 -3.278364
5
Structure 2130 | Energy: -10.835132 Hartree
N -1.616853 0.819193 0.933236
N -1.615238 1.413155 0.009154
O -0.094241 2.413782 -2.369911
H -0.917757 2.896087 -2.271233
H 0.193638 2.528878 -3.278364
5
Structure 2131 | Energy: -10.835547 Hartree
N -1.616853 0.819193 0.933236
N -1.615238 1.413155 0.009154
O -0.032557 1.883644 -2.420405
H -0.856073 2.365949 -2.321727
H 0.255322 1.998741 -3.328858
5
Structure 2132 | Energy: -10.835315 Hartree
N -1.081432 0.593770 1.053495
N -1.238146 1.221236 0.165549
O -0.032557 1.883644 -2.420405
H -0.856073 2.365949 -2.321727
H 0.255322 1.998741 -3.328858
5
Structure 2133 | Energy: -10.835315 Hartree
N -1.081432 0.593770 1.053495
N -1.238146 1.221236 0.165549
O 0.779446 -1.367507 2.180400
H 0.045296 -1.243015 2.785430
H 1.283883 -2.119482 2.498968
5
Structure 2134 | Energy: -10.835325 Hartree
N -1.050142 0.561699 1.096306
N -1.206857 1.189165 0.208360
O 0.779446 -1.367507 2.180400
H 0.045296 -1.243015 2.785430
H 1.283883 -2.119482 2.498968
5
Structure 2135 | Energy: -10.835089 Hartree
N -1.022203 0.448226 0.323888
N -1.234796 1.302638 0.980778
O 0.779446 -1.367507 2.180400
H 0.045296 -1.243015 2.785430
H 1.283883 -2.119482 2.498968
5
Structure 2136 | Energy: -10.833996 Hartree
N 0.872889 -1.829823 1.903634
N 0.660296 -0.975411 2.560524
O -1.115647 0.910542 0.600654
H -1.849796 1.035034 1.205684
H -0.611210 0.158567 0.919221
5
Structure 2137 | Energy: -10.833947 Hartree
N 0.872889 -1.829823 1.903634
N 0.660296 -0.975411 2.560524
O 0.146421 1.160905 0.179938
H -0.587728 1.285397 0.784967
H 0.650858 0.408929 0.498505
5
Structure 2138 | Energy: -10.834350 Hartree
N 0.872889 -1.829823 1.903634
N 0.660296 -0.975411 2.560524
O 0.135503 1.096994 -0.690212
H -0.598646 1.221486 -0.085183
H 0.639940 0.345018 -0.371645
5
Structure 2139 | Energy: -10.834348 Hartree
N 0.872889 -1.829823 1.903634
N 0.660296 -0.975411 2.560524
O 0.061498 0.941553 -0.800053
H -0.673314 1.075588 -0.197872
H 0.586009 0.218146 -0.449370
5
Structure 2140 | Energy: -10.834388 Hartree
N 0.872889 -1.829823 1.903634
N 0.660296 -0.975411 2.560524
O -0.580766 1.554489 -0.503105
H -1.315578 1.688524 0.099076
H -0.056255 0.831082 -0.152422
5
Structure 2141 | Energy: -10.834382 Hartree
N 1.043629 -1.588856 2.112650
N 0.819608 -0.692915 2.707482
O -0.580766 1.554489 -0.503105
H -1.315578 1.688524 0.099076
H -0.056255 0.831082 -0.152422
5
Structure 2142 | Energy: -10.834382 Hartree
N 1.043629 -1.588856 2.112650
N 0.819608 -0.692915 2.707482
O -0.201733 0.038600 -1.509531
H -0.697845 -0.782014 -1.541160
H 0.115957 0.142344 -0.609688
5
Structure 2143 | Energy: -10.834944 Hartree
N -0.099706 -0.449482 -1.758368
N -0.323727 0.446460 -1.163536
O 0.941602 -1.100774 2.361486
H 0.445490 -1.921389 2.329857
H 1.259292 -0.997030 3.261330
5
Structure 2144 | Energy: -10.835178 Hartree
N -0.099706 -0.449482 -1.758368
N -0.323727 0.446460 -1.163536
O 1.208095 -0.870426 1.832653
H 0.711984 -1.691040 1.801024
H 1.525785 -0.766682 2.732496
5
Structure 2145 | Energy: -10.835172 Hartree
N -0.099706 -0.449482 -1.758368
N -0.323727 0.446460 -1.163536
O 1.207379 -0.870012 1.832855
H 0.675153 -1.668067 1.813389
H 1.573981 -0.796232 2.716919
5
Structure 2146 | Energy: -10.835225 Hartree
N -0.068277 -0.469746 -1.683861
N -0.292298 0.426195 -1.089030
O 1.207379 -0.870012 1.832855
H 0.675153 -1.668067 1.813389
H 1.573981 -0.796232 2.716919
5
Structure 2147 | Energy: -10.835222 Hartree
N -0.068277 -0.469746 -1.683861
N -0.292298 0.426195 -1.089030
O 1.209302 -0.870753 1.832647
H 0.674742 -1.667016 1.805316
H 1.543873 -0.785509 2.728305
5
Structure 2148 | Energy: -10.834859 Hartree
N 0.196798 0.310932 -1.165555
N -0.557373 -0.354483 -1.607336
O 1.209302 -0.870753 1.832647
H 0.674742 -1.667016 1.805316
H 1.543873 -0.785509 2.728305
5
Structure 2149 | Energy: -10.834708 Hartree
N 1.575197 -0.577830 2.102123
N 0.821026 -1.243245 1.660342
O -0.169098 0.018008 -1.435031
H -0.703657 -0.778254 -1.462362
H 0.165473 0.103253 -0.539373
5
Structure 2150 | Energy: -10.834700 Hartree
N 1.575197 -0.577830 2.102123
N 0.821026 -1.243245 1.660342
O -0.145999 0.003115 -1.380273
H -0.680559 -0.793148 -1.407604
H 0.188572 0.088359 -0.484615
5
Structure 2151 | Energy: -10.834703 Hartree
N 1.575197 -0.577830 2.102123
N 0.821026 -1.243245 1.660342
O -0.210152 -0.034607 -1.363509
H -0.829156 -0.766188 -1.317045
H 0.178998 0.062227 -0.491389
5
Structure 2152 | Energy: -10.834703 Hartree
N 1.575197 -0.577830 2.102123
N 0.821026 -1.243245 1.660342
O 1.977338 2.213576 0.174910
H 2.553203 2.487189 0.891883
H 1.480898 1.453039 0.485620
5
Structure 2153 | Energy: -10.834731 Hartree
N 1.575197 -0.577830 2.102123
N 0.821026 -1.243245 1.660342
O 2.013204 2.231847 0.225982
H 2.585826 2.490714 0.950983
H 1.508817 1.470701 0.522055
5
Structure 2154 | Energy: -10.834745 Hartree
N 1.607481 -0.601338 2.143212
N 0.853311 -1.266753 1.701431
O 1.990972 2.301758 0.314193
H 2.563594 2.560625 1.039194
H 1.486586 1.540612 0.610267
5
Structure 2155 | Energy: -10.834812 Hartree
N 1.607481 -0.601338 2.143212
N 0.853311 -1.266753 1.701431
O 2.113308 2.307943 0.390999
H 2.700547 2.524571 1.118156
H 1.579919 1.560756 0.671383
5
Structure 2156 | Energy: -10.834781 Hartree
N 1.615491 -0.315753 2.556197
N 0.804861 -0.996222 2.261983
O 2.113308 2.307943 0.390999
H 2.700547 2.524571 1.118156
H 1.579919 1.560756 0.671383
5
Structure 2157 | Energy: -10.834781 Hartree
N 1.615491 -0.315753 2.556197
N 0.804861 -0.996222 2.261983
O 3.202637 1.214633 -0.081714
H 3.740441 1.480876 0.666896
H 2.582843 0.554166 0.236165
5
Structure 2158 | Energy: -10.834826 Hartree
N 3.603364 1.532809 0.125066
N 2.792734 0.852340 -0.169147
O 1.214763 -0.633929 2.349416
H 1.752568 -0.367686 3.098026
H 0.594969 -1.294396 2.667296
5
Structure 2159 | Energy: -10.834746 Hartree
N -2.623560 0.239279 1.923374
N -1.787349 0.893313 2.205707
O 1.214763 -0.633929 2.349416
H 1.752568 -0.367686 3.098026
H 0.594969 -1.294396 2.667296
5
Structure 2160 | Energy: -10.834755 Hartree
N 0.792070 -0.983005 2.267924
N 1.628281 -0.328970 2.550256
O -2.200867 0.588354 2.004867
H -1.663062 0.854597 2.753477
H -2.820661 -0.072113 2.322746
5
Structure 2161 | Energy: -10.834746 Hartree
N -2.623560 0.239279 1.923374
N -1.787349 0.893313 2.205707
O 1.214763 -0.633929 2.349416
H 1.752568 -0.367686 3.098026
H 0.594969 -1.294396 2.667296
5
Structure 2162 | Energy: -10.834704 Hartree
N -2.623560 0.239279 1.923374
N -1.787349 0.893313 2.205707
O 1.217954 -0.631417 2.350743
H 1.722252 -0.406520 3.135370
H 0.574646 -1.295437 2.608892
5
Structure 2163 | Energy: -10.834791 Hartree
N -2.702133 -0.010035 2.516479
N -1.888857 0.571229 2.971929
O 1.217954 -0.631417 2.350743
H 1.722252 -0.406520 3.135370
H 0.574646 -1.295437 2.608892
5
Structure 2164 | Energy: -10.834705 Hartree
N 0.803538 -0.946619 2.181365
N 1.616814 -0.365356 2.636815
O -2.287717 0.305167 2.685857
H -1.783419 0.530065 3.470484
H -2.931025 -0.358852 2.944006
5
Structure 2165 | Energy: -10.834776 Hartree
N 0.803538 -0.946619 2.181365
N 1.616814 -0.365356 2.636815
O -2.337617 0.325936 2.759653
H -1.387127 0.365131 2.884423
H -2.535296 -0.523552 2.358777
5
Structure 2166 | Energy: -10.834767 Hartree
N 0.667316 -0.783692 2.123001
N 1.480593 -0.202429 2.578452
O -2.337617 0.325936 2.759653
H -1.387127 0.365131 2.884423
H -2.535296 -0.523552 2.358777
5
Structure 2167 | Energy: -10.834825 Hartree
N -2.702133 -0.010035 2.516479
N -1.888857 0.571229 2.971929
O 1.031832 -0.447722 2.366176
H 1.982322 -0.408527 2.490946
H 0.834154 -1.297210 1.965300
5
Structure 2168 | Energy: -10.834767 Hartree
N 0.667316 -0.783692 2.123001
N 1.480593 -0.202429 2.578452
O -2.337617 0.325936 2.759653
H -1.387127 0.365131 2.884423
H -2.535296 -0.523552 2.358777
5
Structure 2169 | Energy: -10.834667 Hartree
N 0.545462 -0.755713 2.137231
N 1.358738 -0.174450 2.592682
O -2.337617 0.325936 2.759653
H -1.387127 0.365131 2.884423
H -2.535296 -0.523552 2.358777
5
Structure 2170 | Energy: -10.834650 Hartree
N 0.546997 -0.736019 2.111649
N 1.357203 -0.194144 2.618264
O -2.337617 0.325936 2.759653
H -1.387127 0.365131 2.884423
H -2.535296 -0.523552 2.358777
5
Structure 2171 | Energy: -10.834496 Hartree
N 0.546997 -0.736019 2.111649
N 1.357203 -0.194144 2.618264
O -2.270112 0.486104 2.927386
H -1.312590 0.491057 2.987901
H -2.527457 -0.374178 2.588128
5
Structure 2172 | Energy: -10.834635 Hartree
N 0.546997 -0.736019 2.111649
N 1.357203 -0.194144 2.618264
O -2.312903 0.490710 2.538017
H -1.365734 0.511304 2.689613
H -2.533054 -0.396479 2.245039
5
Structure 2173 | Energy: -10.834654 Hartree
N 0.546997 -0.736019 2.111649
N 1.357203 -0.194144 2.618264
O -2.346358 0.322015 2.688047
H -1.396299 0.384014 2.806704
H -2.534376 -0.564266 2.370930
5
Structure 2174 | Energy: -10.834679 Hartree
N 0.546997 -0.736019 2.111649
N 1.357203 -0.194144 2.618264
O -2.347340 0.320155 2.691319
H -1.397088 0.401932 2.795572
H -2.518003 -0.552669 2.330126
5
Structure 2175 | Energy: -10.834673 Hartree
N 0.546997 -0.736019 2.111649
N 1.357203 -0.194144 2.618264
O -2.343290 0.335474 2.695003
H -1.392664 0.411573 2.800141
H -2.518401 -0.534134 2.328225
5
Structure 2176 | Energy: -10.834681 Hartree
N 0.552354 -0.701275 2.112138
N 1.362561 -0.159400 2.618753
O -2.343290 0.335474 2.695003
H -1.392664 0.411573 2.800141
H -2.518401 -0.534134 2.328225
5
Structure 2177 | Energy: -10.834694 Hartree
N 0.549936 -0.712029 2.163579
N 1.360143 -0.170155 2.670193
O -2.343290 0.335474 2.695003
H -1.392664 0.411573 2.800141
H -2.518401 -0.534134 2.328225
5
Structure 2178 | Energy: -10.834361 Hartree
N 0.535645 -0.706143 2.166742
N 1.345852 -0.164269 2.673356
O -2.203064 0.353968 2.777521
H -1.252438 0.430068 2.882659
H -2.378176 -0.515639 2.410742
5
Structure 2179 | Energy: -10.834083 Hartree
N 0.493026 -0.172339 1.813502
N 1.303232 0.369535 2.320116
O -2.203064 0.353968 2.777521
H -1.252438 0.430068 2.882659
H -2.378176 -0.515639 2.410742
5
Structure 2180 | Energy: -10.834102 Hartree
N 0.466835 -0.203883 1.758795
N 1.293137 0.332968 2.244321
O -2.203064 0.353968 2.777521
H -1.252438 0.430068 2.882659
H -2.378176 -0.515639 2.410742
5
Structure 2181 | Energy: -10.834448 Hartree
N 0.122114 -1.742573 1.689535
N 0.948417 -1.205722 2.175061
O -2.203064 0.353968 2.777521
H -1.252438 0.430068 2.882659
H -2.378176 -0.515639 2.410742
5
Structure 2182 | Energy: -10.834452 Hartree
N 0.122114 -1.742573 1.689535
N 0.948417 -1.205722 2.175061
O -2.317562 -0.012230 3.063240
H -1.381026 0.196065 3.056275
H -2.410319 -0.908287 2.731749
5
Structure 2183 | Energy: -10.834452 Hartree
N 0.122114 -1.742573 1.689535
N 0.948417 -1.205722 2.175061
O -2.317562 -0.202481 3.273602
H -1.381026 -0.188550 3.481547
H -2.410319 -0.622045 2.415249
5
Structure 2184 | Energy: -10.834112 Hartree
N 0.516546 -1.201317 1.455965
N 0.553985 -1.746979 2.408631
O -2.317562 -0.202481 3.273602
H -1.381026 -0.188550 3.481547
H -2.410319 -0.622045 2.415249
5
Structure 2185 | Energy: -10.835489 Hartree
N 0.020213 -1.283401 1.928260
N 1.050319 -1.664894 1.936337
O -2.317562 -0.202481 3.273602
H -1.381026 -0.188550 3.481547
H -2.410319 -0.622045 2.415249
5
Structure 2186 | Energy: -10.834977 Hartree
N 0.020213 -1.283401 1.928260
N 1.050319 -1.664894 1.936337
O -2.216144 -0.247629 3.226432
H -1.279608 -0.233698 3.434377
H -2.308901 -0.667193 2.368079
5
Structure 2187 | Energy: -10.834801 Hartree
N 0.743734 -1.982189 1.943055
N 0.326797 -0.966107 1.921541
O -2.216144 -0.247629 3.226432
H -1.279608 -0.233698 3.434377
H -2.308901 -0.667193 2.368079
5
Structure 2188 | Energy: -10.834810 Hartree
N 0.743734 -1.982189 1.943055
N 0.326797 -0.966107 1.921541
O -2.416466 -0.441362 2.917193
H -1.504574 -0.307027 3.183540
H -2.401033 -0.944611 2.099935
5
Structure 2189 | Energy: -10.834899 Hartree
N 0.706202 -2.082170 1.987604
N 0.339664 -1.046795 2.006820
O -2.416466 -0.441362 2.917193
H -1.504574 -0.307027 3.183540
H -2.401033 -0.944611 2.099935
5
Structure 2190 | Energy: -10.835022 Hartree
N 0.598406 -2.314959 2.080335
N 0.306432 -1.255999 2.071634
O -2.416466 -0.441362 2.917193
H -1.504574 -0.307027 3.183540
H -2.401033 -0.944611 2.099935
5
Structure 2191 | Energy: -10.834907 Hartree
N 0.598406 -2.314959 2.080335
N 0.306432 -1.255999 2.071634
O -2.421464 -0.475766 2.861004
H -2.262131 0.016221 3.669148
H -1.564160 -0.721795 2.506168
5
Structure 2192 | Energy: -10.834460 Hartree
N -2.218592 -0.991484 2.890718
N -2.510567 0.067476 2.882017
O 0.395535 -1.799241 2.050621
H 0.554867 -1.307255 2.858765
H 1.252838 -2.045270 1.695785
5
Structure 2193 | Energy: -10.834497 Hartree
N -2.218592 -0.991484 2.890718
N -2.510567 0.067476 2.882017
O 0.394511 -1.798843 2.052819
H 0.587907 -1.332054 2.868441
H 1.236040 -2.026792 1.651225
5
Structure 2194 | Energy: -10.834498 Hartree
N -2.218592 -0.991484 2.890718
N -2.510567 0.067476 2.882017
O 0.394559 -1.798940 2.052757
H 0.586314 -1.335604 2.870733
H 1.236881 -2.021701 1.649918
5
Structure 2195 | Energy: -10.834480 Hartree
N -2.218592 -0.991484 2.890718
N -2.510567 0.067476 2.882017
O 0.395107 -1.799534 2.051770
H 0.568019 -1.329812 2.870304
H 1.246477 -2.018072 1.666001
5
Structure 2196 | Energy: -10.834414 Hartree
N -2.218592 -0.991484 2.890718
N -2.510567 0.067476 2.882017
O 0.451828 -1.834443 2.351889
H 0.539869 -1.371370 3.187560
H 1.337469 -2.063126 2.060768
5
Structure 2197 | Energy: -10.834407 Hartree
N -2.218592 -0.991484 2.890718
N -2.510567 0.067476 2.882017
O 0.448877 -1.840645 2.352308
H 0.538435 -1.376118 3.187011
H 1.333864 -2.071516 2.060926
5
Structure 2198 | Energy: -10.834423 Hartree
N -2.249655 -1.053040 2.815315
N -2.563072 -0.000208 2.809325
O 0.448877 -1.840645 2.352308
H 0.538435 -1.376118 3.187011
H 1.333864 -2.071516 2.060926
5
Structure 2199 | Energy: -10.834374 Hartree
N -2.249655 -1.053040 2.815315
N -2.563072 -0.000208 2.809325
O 0.412955 -1.824584 2.357611
H 0.502513 -1.360057 3.192314
H 1.297943 -2.055456 2.066230
5
Structure 2200 | Energy: -10.834379 Hartree
N -2.249655 -1.053040 2.815315
N -2.563072 -0.000208 2.809325
O 0.413031 -1.824332 2.357368
H 0.500591 -1.365358 3.195348
H 1.298647 -2.054157 2.067068
5
Structure 2201 | Energy: -10.835259 Hartree
N 1.395533 -3.404454 0.210407
N 1.132061 -4.466952 0.118748
O 0.413031 -1.824332 2.357368
H 0.500591 -1.365358 3.195348
H 1.298647 -2.054157 2.067068
5
Structure 2202 | Energy: -10.835346 Hartree
N 1.419742 -3.410486 0.203423
N 1.107853 -4.460919 0.125732
O 0.413031 -1.824332 2.357368
H 0.500591 -1.365358 3.195348
H 1.298647 -2.054157 2.067068
5
Structure 2203 | Energy: -10.835318 Hartree
N 1.477400 -3.437214 0.249530
N 1.195874 -4.497730 0.196888
O 0.413031 -1.824332 2.357368
H 0.500591 -1.365358 3.195348
H 1.298647 -2.054157 2.067068
5
Structure 2204 | Energy: -10.835268 Hartree
N 1.477400 -3.437214 0.249530
N 1.195874 -4.497730 0.196888
O 0.177363 -2.127943 2.519498
H 0.185745 -1.771720 3.410323
H 1.090038 -2.294235 2.272965
5
Structure 2205 | Energy: -10.834936 Hartree
N 1.477400 -3.437214 0.249530
N 1.195874 -4.497730 0.196888
O 1.145548 -1.389823 3.097576
H 1.153930 -1.033600 3.988401
H 2.058223 -1.556116 2.851043
5
Structure 2206 | Energy: -10.834989 Hartree
N 1.473114 -3.357723 0.338916
N 1.191588 -4.418238 0.286274
O 1.145548 -1.389823 3.097576
H 1.153930 -1.033600 3.988401
H 2.058223 -1.556116 2.851043
5
Structure 2207 | Energy: -10.835200 Hartree
N 1.337847 -0.848939 3.159947
N 1.056321 -1.909454 3.107305
O 1.280815 -3.898608 0.276545
H 1.289197 -3.542385 1.167370
H 2.193491 -4.064900 0.030012
5
Structure 2208 | Energy: -10.835128 Hartree
N 1.366209 -0.887678 3.162662
N 1.084683 -1.948193 3.110019
O 1.339354 -3.774404 0.242595
H 1.347736 -3.418181 1.133420
H 2.252029 -3.940696 -0.003938
5
Structure 2209 | Energy: -10.835136 Hartree
N 1.367904 -0.888331 3.166417
N 1.082988 -1.947541 3.106264
O 1.339354 -3.774404 0.242595
H 1.347736 -3.418181 1.133420
H 2.252029 -3.940696 -0.003938
5
Structure 2210 | Energy: -10.835028 Hartree
N 1.367904 -0.888331 3.166417
N 1.082988 -1.947541 3.106264
O 1.339196 -3.781236 0.245608
H 1.348990 -3.363924 1.109489
H 2.253282 -3.886516 -0.027835
5
Structure 2211 | Energy: -10.835085 Hartree
N 1.389187 -0.922877 3.073106
N 1.104271 -1.982087 3.012953
O 1.339196 -3.781236 0.245608
H 1.348990 -3.363924 1.109489
H 2.253282 -3.886516 -0.027835
5
Structure 2212 | Energy: -10.835038 Hartree
N 1.389187 -0.922877 3.073106
N 1.104271 -1.982087 3.012953
O 1.378065 -3.752602 0.223560
H 1.386797 -3.342522 1.090908
H 2.290784 -3.822145 -0.065431
5
Structure 2213 | Energy: -10.834970 Hartree
N 1.389187 -0.922877 3.073106
N 1.104271 -1.982087 3.012953
O 1.531073 -3.699804 0.192432
H 1.497513 -3.305121 1.066294
H 2.455902 -3.750042 -0.059711
5
Structure 2214 | Energy: -10.834734 Hartree
N 1.389187 -0.922877 3.073106
N 1.104271 -1.982087 3.012953
O 0.513982 -3.660569 -0.495573
H 0.480421 -3.265887 0.378289
H 1.438810 -3.710808 -0.747717
5
Structure 2215 | Energy: -10.834825 Hartree
N 0.706309 -3.111692 -0.430709
N 0.421393 -4.170901 -0.490862
O 1.196860 -1.471755 3.008242
H 1.163299 -1.077073 3.882104
H 2.121688 -1.521994 2.756098
5
Structure 2216 | Energy: -10.834822 Hartree
N 0.706309 -3.111692 -0.430709
N 0.421393 -4.170901 -0.490862
O 1.162859 -1.486078 3.023175
H 1.117927 -1.091303 3.896485
H 2.091800 -1.553769 2.791021
5
Structure 2217 | Energy: -10.834703 Hartree
N 0.874049 -3.439580 -0.054869
N 0.253654 -3.843013 -0.866702
O 1.162859 -1.486078 3.023175
H 1.117927 -1.091303 3.896485
H 2.091800 -1.553769 2.791021
5
Structure 2218 | Energy: -10.834758 Hartree
N 0.893247 -3.466887 -0.057350
N 0.234456 -3.815707 -0.864221
O 1.162859 -1.486078 3.023175
H 1.117927 -1.091303 3.896485
H 2.091800 -1.553769 2.791021
5
Structure 2219 | Energy: -10.834754 Hartree
N 0.878175 -3.472495 -0.039070
N 0.219384 -3.821315 -0.845940
O 1.162859 -1.486078 3.023175
H 1.117927 -1.091303 3.896485
H 2.091800 -1.553769 2.791021
5
Structure 2220 | Energy: -10.834753 Hartree
N 0.877692 -3.474194 -0.037946
N 0.219867 -3.819616 -0.847064
O 1.162859 -1.486078 3.023175
H 1.117927 -1.091303 3.896485
H 2.091800 -1.553769 2.791021
5
Structure 2221 | Energy: -10.834677 Hartree
N 0.877692 -3.474194 -0.037946
N 0.219867 -3.819616 -0.847064
O 1.174341 -1.517439 3.046419
H 1.026743 -0.842241 3.711893
H 2.000745 -1.305060 2.606692
5
Structure 2222 | Energy: -10.834739 Hartree
N 0.976428 -3.399426 -0.031065
N 0.318603 -3.744847 -0.840183
O 1.174341 -1.517439 3.046419
H 1.026743 -0.842241 3.711893
H 2.000745 -1.305060 2.606692
5
Structure 2223 | Energy: -10.835349 Hartree
N 1.541235 -1.295066 3.463609
N 0.883410 -1.640487 2.654491
O 0.609534 -3.621799 -0.448255
H 0.461936 -2.946601 0.217219
H 1.435938 -3.409420 -0.887982
5
Structure 2224 | Energy: -10.835204 Hartree
N 1.541235 -1.295066 3.463609
N 0.883410 -1.640487 2.654491
O 0.995908 -3.561839 -0.528766
H 0.770621 -2.903194 0.131512
H 1.856121 -3.324667 -0.882590
5
Structure 2225 | Energy: -10.835716 Hartree
N 1.541235 -1.295066 3.463609
N 0.883410 -1.640487 2.654491
O -1.072695 -2.319743 -0.310995
H -0.823412 -2.310769 0.615456
H -0.445900 -2.886035 -0.766899
5
Structure 2226 | Energy: -10.835157 Hartree
N 1.541235 -1.295066 3.463609
N 0.883410 -1.640487 2.654491
O -1.080073 -2.378870 -0.274322
H -0.474983 -2.566640 -0.994838
H -0.677224 -1.691690 0.261313
5
Structure 2227 | Energy: -10.835172 Hartree
N 1.407677 -1.180384 3.518165
N 0.784154 -1.555172 2.695078
O -1.080073 -2.378870 -0.274322
H -0.474983 -2.566640 -0.994838
H -0.677224 -1.691690 0.261313
5
Structure 2228 | Energy: -10.835304 Hartree
N 1.407677 -1.180384 3.518165
N 0.784154 -1.555172 2.695078
O -1.403102 -3.621600 -0.019570
H -0.798012 -3.809369 -0.740086
H -1.000253 -2.934420 0.516065
5
Structure 2229 | Energy: -10.835236 Hartree
N 1.462500 -1.134079 3.520666
N 0.838976 -1.508867 2.697578
O -1.462378 -3.666536 -0.006437
H -0.857288 -3.854305 -0.726953
H -1.059529 -2.979356 0.529198
5
Structure 2230 | Energy: -10.835235 Hartree
N 1.462500 -1.134079 3.520666
N 0.838976 -1.508867 2.697578
O -1.462353 -3.666635 -0.006569
H -0.853655 -3.855831 -0.723665
H -1.063558 -2.976265 0.527997
5
Structure 2231 | Energy: -10.835252 Hartree
N 1.462500 -1.134079 3.520666
N 0.838976 -1.508867 2.697578
O -1.744105 -3.771152 0.354623
H -1.135407 -3.960349 -0.362473
H -1.345310 -3.080783 0.889189
5
Structure 2232 | Energy: -10.835258 Hartree
N 1.468775 -1.120759 3.509430
N 0.832701 -1.522187 2.708814
O -1.744105 -3.771152 0.354623
H -1.135407 -3.960349 -0.362473
H -1.345310 -3.080783 0.889189
5
Structure 2233 | Energy: -10.834752 Hartree
N 1.503046 -1.502246 3.489754
N 0.798430 -1.140700 2.728490
O -1.744105 -3.771152 0.354623
H -1.135407 -3.960349 -0.362473
H -1.345310 -3.080783 0.889189
5
Structure 2234 | Energy: -10.834752 Hartree
N 1.503046 -1.502246 3.489754
N 0.798430 -1.140700 2.728490
O 2.021126 1.035168 -0.847767
H 2.193287 0.288732 -1.425459
H 1.607641 0.688662 -0.053808
5
Structure 2235 | Energy: -10.834752 Hartree
N 1.503046 -1.502246 3.489754
N 0.798430 -1.140700 2.728490
O -1.744105 -3.771152 0.354623
H -1.135407 -3.960349 -0.362473
H -1.345310 -3.080783 0.889189
5
Structure 2236 | Energy: -10.834603 Hartree
N -1.335424 -3.923883 0.725042
N -2.040040 -3.562337 -0.036222
O 1.094365 -1.349515 3.119335
H 1.703063 -1.538712 2.402239
H 1.493161 -0.659146 3.653901
5
Structure 2237 | Energy: -10.834606 Hartree
N -1.423697 -4.057120 0.981706
N -2.166353 -3.739198 0.237321
O 1.094365 -1.349515 3.119335
H 1.703063 -1.538712 2.402239
H 1.493161 -0.659146 3.653901
5
Structure 2238 | Energy: -10.834619 Hartree
N -1.423697 -4.057120 0.981706
N -2.166353 -3.739198 0.237321
O 1.049545 -1.388720 3.081303
H 1.658243 -1.577917 2.364207
H 1.448340 -0.698351 3.615869
5
Structure 2239 | Energy: -10.834750 Hartree
N 4.027920 -1.349018 -0.010637
N 3.987242 -0.682387 -0.882800
O 1.049545 -1.388720 3.081303
H 1.658243 -1.577917 2.364207
H 1.448340 -0.698351 3.615869
5
Structure 2240 | Energy: -10.834771 Hartree
N 4.027920 -1.349018 -0.010637
N 3.987242 -0.682387 -0.882800
O 1.095659 -1.383238 3.025397
H 1.704357 -1.572434 2.308301
H 1.494454 -0.692868 3.559963
5
Structure 2241 | Energy: -10.834382 Hartree
N 3.919164 -1.553747 -0.512827
N 4.095998 -0.477658 -0.380610
O 1.095659 -1.383238 3.025397
H 1.704357 -1.572434 2.308301
H 1.494454 -0.692868 3.559963
5
Structure 2242 | Energy: -10.834362 Hartree
N 3.980496 -2.131794 -0.381872
N 4.271364 -1.074003 -0.325343
O 1.095659 -1.383238 3.025397
H 1.704357 -1.572434 2.308301
H 1.494454 -0.692868 3.559963
5
Structure 2243 | Energy: -10.834423 Hartree
N 3.023357 -1.406826 -0.906066
N 3.314224 -0.349035 -0.849537
O 1.095659 -1.383238 3.025397
H 1.704357 -1.572434 2.308301
H 1.494454 -0.692868 3.559963
5
Structure 2244 | Energy: -10.834355 Hartree
N 2.956493 -1.824596 -0.465920
N 3.247361 -0.766805 -0.409391
O 1.095659 -1.383238 3.025397
H 1.704357 -1.572434 2.308301
H 1.494454 -0.692868 3.559963
5
Structure 2245 | Energy: -10.834324 Hartree
N 3.584657 -1.557342 -0.451638
N 2.619197 -1.034059 -0.423673
O 1.095659 -1.383238 3.025397
H 1.704357 -1.572434 2.308301
H 1.494454 -0.692868 3.559963
5
Structure 2246 | Energy: -10.834983 Hartree
N 1.634762 -1.616836 3.001202
N 0.669301 -1.093554 3.029166
O 3.045554 -1.323743 -0.427443
H 3.654252 -1.512939 -1.144538
H 3.444349 -0.633373 0.107124
5
Structure 2247 | Energy: -10.834997 Hartree
N 1.635795 -1.615153 3.023868
N 0.668268 -1.095238 3.006499
O 3.045554 -1.323743 -0.427443
H 3.654252 -1.512939 -1.144538
H 3.444349 -0.633373 0.107124
5
Structure 2248 | Energy: -10.834743 Hartree
N 1.635795 -1.615153 3.023868
N 0.668268 -1.095238 3.006499
O 3.095044 -1.348147 -0.402011
H 3.261219 -1.319132 -1.346510
H 3.051874 -0.439841 -0.094561
5
Structure 2249 | Energy: -10.834612 Hartree
N 1.209829 -1.368046 3.561237
N 1.094235 -1.342345 2.469130
O 3.095044 -1.348147 -0.402011
H 3.261219 -1.319132 -1.346510
H 3.051874 -0.439841 -0.094561
5
Structure 2250 | Energy: -10.834620 Hartree
N 1.209829 -1.368046 3.561237
N 1.094235 -1.342345 2.469130
O 3.094098 -1.349729 -0.404669
H 3.307097 -1.277602 -1.337387
H 3.021017 -0.456253 -0.061497
5
Structure 2251 | Energy: -10.834881 Hartree
N 3.159724 -1.308551 0.108398
N 3.044130 -1.282850 -0.983709
O 1.144203 -1.409224 3.048171
H 1.357202 -1.337097 2.115452
H 1.071122 -0.515747 3.391343
5
Structure 2252 | Energy: -10.834875 Hartree
N 3.159724 -1.308551 0.108398
N 3.044130 -1.282850 -0.983709
O 1.132398 -1.409584 3.069075
H 1.345396 -1.337457 2.136357
H 1.059317 -0.516108 3.412247
5
Structure 2253 | Energy: -10.834970 Hartree
N 3.159724 -1.308551 0.108398
N 3.044130 -1.282850 -0.983709
O 1.248187 -1.641339 3.116688
H 1.431794 -1.500235 2.185606
H 1.210568 -0.776563 3.531605
5
Structure 2254 | Energy: -10.834855 Hartree
N 3.279471 -1.498248 0.105267
N 3.163877 -1.472547 -0.986841
O 1.248187 -1.641339 3.116688
H 1.431794 -1.500235 2.185606
H 1.210568 -0.776563 3.531605
5
Structure 2255 | Energy: -10.834833 Hartree
N 3.279043 -1.518599 0.104453
N 3.164306 -1.452196 -0.986027
O 1.248187 -1.641339 3.116688
H 1.431794 -1.500235 2.185606
H 1.210568 -0.776563 3.531605
5
Structure 2256 | Energy: -10.834904 Hartree
N 3.222613 -1.151717 -0.227885
N 3.107877 -1.085315 -1.318365
O 1.248187 -1.641339 3.116688
H 1.431794 -1.500235 2.185606
H 1.210568 -0.776563 3.531605
5
Structure 2257 | Energy: -10.834497 Hartree
N 1.313724 -1.618258 3.633047
N 1.198987 -1.551856 2.542567
O 3.157077 -1.174799 -0.744244
H 3.340684 -1.033694 -1.675325
H 3.119457 -0.310023 -0.329327
5
Structure 2258 | Energy: -10.834538 Hartree
N 1.313724 -1.618258 3.633047
N 1.198987 -1.551856 2.542567
O 2.701313 -1.464355 -0.575095
H 2.884920 -1.323251 -1.506177
H 2.663694 -0.599579 -0.160178
5
Structure 2259 | Energy: -10.834521 Hartree
N 1.312964 -1.659851 3.736308
N 1.198227 -1.593449 2.645828
O 2.701313 -1.464355 -0.575095
H 2.884920 -1.323251 -1.506177
H 2.663694 -0.599579 -0.160178
5
Structure 2260 | Energy: -10.835223 Hartree
N 2.766850 -1.441274 -0.058736
N 2.652113 -1.374872 -1.149216
O 1.247427 -1.682933 3.219949
H 1.431034 -1.541828 2.288867
H 1.209807 -0.818157 3.634866
5
Structure 2261 | Energy: -10.835184 Hartree
N 2.777786 -1.447590 -0.060420
N 2.641177 -1.368556 -1.147532
O 1.247427 -1.682933 3.219949
H 1.431034 -1.541828 2.288867
H 1.209807 -0.818157 3.634866
5
Structure 2262 | Energy: -10.834894 Hartree
N 3.049241 -0.570403 -0.472787
N 2.912632 -0.491369 -1.559899
O 1.247427 -1.682933 3.219949
H 1.431034 -1.541828 2.288867
H 1.209807 -0.818157 3.634866
5
Structure 2263 | Energy: -10.834711 Hartree
N 3.049241 -0.570403 -0.472787
N 2.912632 -0.491369 -1.559899
O 1.036038 -2.371844 3.483250
H 1.219645 -2.230740 2.552169
H 0.998419 -1.507068 3.898167
5
Structure 2264 | Energy: -10.834604 Hartree
N 2.799357 0.365219 -1.166827
N 2.662748 0.444254 -2.253939
O 1.036038 -2.371844 3.483250
H 1.219645 -2.230740 2.552169
H 0.998419 -1.507068 3.898167
5
Structure 2265 | Energy: -10.834616 Hartree
N 2.768961 0.316202 -1.073764
N 2.632352 0.395237 -2.160875
O 1.036038 -2.371844 3.483250
H 1.219645 -2.230740 2.552169
H 0.998419 -1.507068 3.898167
5
Structure 2266 | Energy: -10.834614 Hartree
N 2.814973 0.361027 -1.029514
N 2.687923 0.452414 -2.116817
O 1.036038 -2.371844 3.483250
H 1.219645 -2.230740 2.552169
H 0.998419 -1.507068 3.898167
5
Structure 2267 | Energy: -10.834613 Hartree
N 3.044361 0.075076 -1.094167
N 2.965727 0.104464 -2.189463
O 1.036038 -2.371844 3.483250
H 1.219645 -2.230740 2.552169
H 0.998419 -1.507068 3.898167
5
Structure 2268 | Energy: -10.834605 Hartree
N 3.545175 -0.253567 -1.006380
N 3.582070 -0.297587 -2.103386
O 1.036038 -2.371844 3.483250
H 1.219645 -2.230740 2.552169
H 0.998419 -1.507068 3.898167
5
Structure 2269 | Energy: -10.834606 Hartree
N 3.545175 -0.253567 -1.006380
N 3.582070 -0.297587 -2.103386
O 1.034693 -2.371262 3.483958
H 1.217511 -2.246102 2.550445
H 1.021899 -1.500941 3.888661
5
Structure 2270 | Energy: -10.834622 Hartree
N 3.545175 -0.253567 -1.006380
N 3.582070 -0.297587 -2.103386
O 1.405811 -2.335739 3.667844
H 1.537997 -2.234657 2.722940
H 1.354233 -1.453288 4.042048
5
Structure 2271 | Energy: -10.834639 Hartree
N 3.443996 -0.267987 -0.935097
N 3.480890 -0.312007 -2.032103
O 1.405811 -2.335739 3.667844
H 1.537997 -2.234657 2.722940
H 1.354233 -1.453288 4.042048
5
Structure 2272 | Energy: -10.834608 Hartree
N 3.443996 -0.267987 -0.935097
N 3.480890 -0.312007 -2.032103
O 0.872331 -2.506524 3.346566
H 1.086494 -2.356376 2.423460
H 0.846024 -1.647441 3.773993
5
Structure 2273 | Energy: -10.834390 Hartree
N 0.864395 -2.428044 3.867334
N 0.901289 -2.472064 2.770328
O 3.451932 -0.346467 -1.455865
H 3.666095 -0.196319 -2.378971
H 3.425625 0.512615 -1.028438
5
Structure 2274 | Energy: -10.834607 Hartree
N 0.864395 -2.428044 3.867334
N 0.901289 -2.472064 2.770328
O 3.477703 -0.241224 -1.521769
H 3.103226 -0.179389 -0.640588
H 3.579457 -1.174736 -1.720793
5
Structure 2275 | Energy: -10.834617 Hartree
N 0.903758 -2.395083 3.794053
N 0.940652 -2.439103 2.697047
O 3.477703 -0.241224 -1.521769
H 3.103226 -0.179389 -0.640588
H 3.579457 -1.174736 -1.720793
5
Structure 2276 | Energy: -10.834628 Hartree
N 0.903758 -2.395083 3.794053
N 0.940652 -2.439103 2.697047
O 3.489594 -0.383055 -1.514433
H 3.115117 -0.321220 -0.633253
H 3.591348 -1.316567 -1.713457
5
Structure 2277 | Energy: -10.834641 Hartree
N 0.893141 -2.416049 3.794034
N 0.951269 -2.418137 2.697066
O 3.489594 -0.383055 -1.514433
H 3.115117 -0.321220 -0.633253
H 3.591348 -1.316567 -1.713457
5
Structure 2278 | Energy: -10.834643 Hartree
N 0.893141 -2.416049 3.794034
N 0.951269 -2.418137 2.697066
O 3.491434 -0.394239 -1.505283
H 3.116957 -0.332403 -0.624102
H 3.593188 -1.327750 -1.704307
5
Structure 2279 | Energy: -10.834668 Hartree
N 0.893141 -2.416049 3.794034
N 0.951269 -2.418137 2.697066
O 3.491409 -0.394244 -1.505299
H 2.806698 -0.399106 -0.833226
H 3.903838 -1.260963 -1.494919
5
Structure 2280 | Energy: -10.834399 Hartree
N 0.484366 -2.417724 2.913923
N 1.360044 -2.416462 3.577177
O 3.491409 -0.394244 -1.505299
H 2.806698 -0.399106 -0.833226
H 3.903838 -1.260963 -1.494919
5
Structure 2281 | Energy: -10.834398 Hartree
N 0.508259 -2.399256 2.869833
N 1.383938 -2.397993 3.533087
O 3.491409 -0.394244 -1.505299
H 2.806698 -0.399106 -0.833226
H 3.903838 -1.260963 -1.494919
5
Structure 2282 | Energy: -10.834605 Hartree
N 0.508259 -2.399256 2.869833
N 1.383938 -2.397993 3.533087
O 3.430802 -0.443939 -1.422291
H 4.018810 -1.166256 -1.652595
H 3.653679 0.294946 -1.993064
5
Structure 2283 | Energy: -10.834606 Hartree
N 0.646344 -2.406615 2.886321
N 1.522023 -2.405352 3.549575
O 3.430802 -0.443939 -1.422291
H 4.018810 -1.166256 -1.652595
H 3.653679 0.294946 -1.993064
5
Structure 2284 | Energy: -10.834487 Hartree
N 0.646344 -2.406615 2.886321
N 1.522023 -2.405352 3.549575
O 3.427468 -0.463560 -1.502808
H 4.045286 -1.010435 -1.013151
H 3.680117 0.450546 -1.354528
5
Structure 2285 | Energy: -10.834485 Hartree
N 0.641313 -2.397401 2.934558
N 1.516992 -2.396139 3.597812
O 3.427468 -0.463560 -1.502808
H 4.045286 -1.010435 -1.013151
H 3.680117 0.450546 -1.354528
5
Structure 2286 | Energy: -10.834559 Hartree
N 1.143852 -2.186053 3.302883
N 0.429936 -2.853313 2.801077
O 3.427468 -0.463560 -1.502808
H 4.045286 -1.010435 -1.013151
H 3.680117 0.450546 -1.354528
5
Structure 2287 | Energy: -10.834561 Hartree
N 1.143087 -2.182502 3.300662
N 0.429171 -2.849762 2.798856
O 3.446702 -0.450505 -1.479602
H 4.064520 -0.997380 -0.989945
H 3.699351 0.463601 -1.331322
5
Structure 2288 | Energy: -10.836335 Hartree
N 0.584780 -0.492233 1.893771
N 0.033632 -0.784610 0.990698
O -1.574679 -2.356167 -1.242859
H -1.130278 -1.775624 -0.618642
H -1.896671 -1.804989 -1.958447
5
Structure 2289 | Energy: -10.836356 Hartree
N 0.534530 -0.479359 1.887105
N -0.016618 -0.771735 0.984031
O -1.537506 -2.359530 -1.247420
H -1.093105 -1.778987 -0.623203
H -1.859498 -1.808351 -1.963007
5
Structure 2290 | Energy: -10.836349 Hartree
N 0.534530 -0.479359 1.887105
N -0.016618 -0.771735 0.984031
O -1.584152 -2.277982 -1.267173
H -1.127608 -1.716658 -0.634202
H -1.911198 -1.706504 -1.964307
5
Structure 2291 | Energy: -10.834018 Hartree
N -1.301332 -2.068410 -0.819227
N -1.852480 -2.360786 -1.722300
O 0.251710 -0.688931 1.439158
H 0.708254 -0.127607 2.072129
H -0.075336 -0.117453 0.742024
5
Structure 2292 | Energy: -10.833821 Hartree
N -1.301332 -2.068410 -0.819227
N -1.852480 -2.360786 -1.722300
O 0.188514 -0.743631 1.345998
H 0.645058 -0.182307 1.978969
H -0.138532 -0.172153 0.648864
5
Structure 2293 | Energy: -10.836260 Hartree
N 0.471334 -0.534059 1.793944
N -0.079814 -0.826436 0.890871
O -1.584152 -2.277982 -1.267173
H -1.127608 -1.716658 -0.634202
H -1.911198 -1.706504 -1.964307
5
Structure 2294 | Energy: -10.835985 Hartree
N 0.425558 -0.573680 1.726465
N -0.125589 -0.866057 0.823391
O -1.584152 -2.277982 -1.267173
H -1.127608 -1.716658 -0.634202
H -1.911198 -1.706504 -1.964307
5
Structure 2295 | Energy: -10.835986 Hartree
N 0.507229 -0.316760 1.511402
N -0.081739 -0.683943 0.661059
O -1.584152 -2.277982 -1.267173
H -1.127608 -1.716658 -0.634202
H -1.911198 -1.706504 -1.964307
5
Structure 2296 | Energy: -10.835934 Hartree
N 0.515104 -0.286348 1.491173
N -0.089614 -0.714355 0.681288
O -1.584152 -2.277982 -1.267173
H -1.127608 -1.716658 -0.634202
H -1.911198 -1.706504 -1.964307
5
Structure 2297 | Energy: -10.835924 Hartree
N 0.515104 -0.286348 1.491173
N -0.089614 -0.714355 0.681288
O -1.584172 -2.277836 -1.265191
H -1.088740 -1.703704 -0.674353
H -1.949749 -1.721771 -1.955616
5
Structure 2298 | Energy: -10.835110 Hartree
N 0.515104 -0.286348 1.491173
N -0.089614 -0.714355 0.681288
O -1.583778 -2.277878 -1.265164
H -2.024478 -1.604841 -0.738880
H -1.020268 -1.819972 -1.891520
5
Structure 2299 | Energy: -10.835113 Hartree
N 0.491637 -0.292460 1.510728
N -0.066147 -0.708242 0.661733
O -1.583778 -2.277878 -1.265164
H -2.024478 -1.604841 -0.738880
H -1.020268 -1.819972 -1.891520
5
Structure 2300 | Energy: -10.834430 Hartree
N 0.477000 -0.145796 1.411280
N -0.051511 -0.854906 0.761181
O -1.583778 -2.277878 -1.265164
H -2.024478 -1.604841 -0.738880
H -1.020268 -1.819972 -1.891520
5
Structure 2301 | Energy: -10.833895 Hartree
N -1.312651 -1.860043 -0.945714
N -1.841161 -2.569153 -1.595813
O 0.205873 -0.563631 1.091830
H -0.234827 0.109405 1.618113
H 0.769383 -0.105726 0.465474
5
Structure 2302 | Energy: -10.834430 Hartree
N 0.477000 -0.145796 1.411280
N -0.051511 -0.854906 0.761181
O -1.583778 -2.277878 -1.265164
H -2.024478 -1.604841 -0.738880
H -1.020268 -1.819972 -1.891520
5
Structure 2303 | Energy: -10.834089 Hartree
N 0.105314 -0.941363 0.777742
N 0.320176 -0.059340 1.394718
O -1.583778 -2.277878 -1.265164
H -2.024478 -1.604841 -0.738880
H -1.020268 -1.819972 -1.891520
5
Structure 2304 | Energy: -10.834886 Hartree
N 0.105314 -0.941363 0.777742
N 0.320176 -0.059340 1.394718
O -1.601075 -2.156189 -1.261425
H -1.998599 -2.990084 -0.995410
H -0.771595 -2.366175 -1.694334
5
Structure 2305 | Energy: -10.833947 Hartree
N -1.684337 -2.655609 -1.579251
N -1.469475 -1.773587 -0.962275
O 0.188575 -0.441943 1.095569
H -0.208949 -1.275837 1.361584
H 1.018056 -0.651929 0.662660
5
Structure 2306 | Energy: -10.834807 Hartree
N -1.618483 -2.675335 -0.975483
N -1.535329 -1.753861 -1.566043
O 0.188575 -0.441943 1.095569
H -0.208949 -1.275837 1.361584
H 1.018056 -0.651929 0.662660
5
Structure 2307 | Energy: -10.834810 Hartree
N -1.618483 -2.675335 -0.975483
N -1.535329 -1.753861 -1.566043
O 0.188405 -0.442001 1.095494
H -0.206228 -1.276655 1.363427
H 1.018035 -0.650178 0.661997
5
Structure 2308 | Energy: -10.834810 Hartree
N -1.618483 -2.675335 -0.975483
N -1.535329 -1.753861 -1.566043
O 0.135568 -1.027526 1.470749
H -0.126527 -0.393443 0.797389
H 0.946815 -1.439401 1.167800
5
Structure 2309 | Energy: -10.835565 Hartree
N -1.047934 -3.656690 0.043806
N -0.964780 -2.735217 -0.546755
O 0.135568 -1.027526 1.470749
H -0.126527 -0.393443 0.797389
H 0.946815 -1.439401 1.167800
5
Structure 2310 | Energy: -10.835832 Hartree
N -1.047934 -3.656690 0.043806
N -0.964780 -2.735217 -0.546755
O 0.050756 -0.758584 1.131951
H -0.343721 -0.226500 0.435213
H 0.869307 -1.115879 0.782870
5
Structure 2311 | Energy: -10.835832 Hartree
N 2.140808 1.537216 2.204886
N 1.648218 1.520904 1.224132
O 0.050756 -0.758584 1.131951
H -0.343721 -0.226500 0.435213
H 0.869307 -1.115879 0.782870
5
Structure 2312 | Energy: -10.835641 Hartree
N 2.140808 1.537216 2.204886
N 1.648218 1.520904 1.224132
O 0.288325 -1.028969 0.354471
H -0.106153 -0.496885 -0.342267
H 1.106875 -1.386263 0.005391
5
Structure 2313 | Energy: -10.835649 Hartree
N 2.132063 1.541304 2.209097
N 1.656963 1.516816 1.219920
O 0.288325 -1.028969 0.354471
H -0.106153 -0.496885 -0.342267
H 1.106875 -1.386263 0.005391
5
Structure 2314 | Energy: -10.835606 Hartree
N 2.132063 1.541304 2.209097
N 1.656963 1.516816 1.219920
O 1.502750 -0.934805 -0.334577
H 1.108273 -0.402721 -1.031316
H 2.321301 -1.292100 -0.683658
5
Structure 2315 | Energy: -10.835615 Hartree
N 1.452616 1.460740 2.032717
N 2.336410 1.597379 1.396300
O 1.502750 -0.934805 -0.334577
H 1.108273 -0.402721 -1.031316
H 2.321301 -1.292100 -0.683658
5
Structure 2316 | Energy: -10.834917 Hartree
N 2.719494 1.928463 1.988682
N 3.603288 2.065102 1.352265
O 1.502750 -0.934805 -0.334577
H 1.108273 -0.402721 -1.031316
H 2.321301 -1.292100 -0.683658
5
Structure 2317 | Energy: -10.834958 Hartree
N 2.719494 1.928463 1.988682
N 3.603288 2.065102 1.352265
O 1.538240 -0.871379 -0.289782
H 1.143763 -0.339295 -0.986520
H 2.356791 -1.228674 -0.638863
5
Structure 2318 | Energy: -10.834992 Hartree
N 2.186260 2.177947 2.283796
N 3.070055 2.314587 1.647379
O 1.538240 -0.871379 -0.289782
H 1.143763 -0.339295 -0.986520
H 2.356791 -1.228674 -0.638863
5
Structure 2319 | Energy: -10.834499 Hartree
N 2.157519 1.983654 1.861997
N 3.098796 2.508880 2.069177
O 1.538240 -0.871379 -0.289782
H 1.143763 -0.339295 -0.986520
H 2.356791 -1.228674 -0.638863
5
Structure 2320 | Energy: -10.835159 Hartree
N 1.091329 -1.124212 -0.451889
N 2.032607 -0.598987 -0.244709
O 2.604429 2.236487 2.024104
H 2.209952 2.768571 1.327366
H 3.422980 1.879192 1.675023
5
Structure 2321 | Energy: -10.835139 Hartree
N 1.081004 -1.101308 -0.459700
N 2.042932 -0.621890 -0.236898
O 2.604429 2.236487 2.024104
H 2.209952 2.768571 1.327366
H 3.422980 1.879192 1.675023
5
Structure 2322 | Energy: -10.835178 Hartree
N 1.058889 -0.996362 -0.496446
N 2.020817 -0.516943 -0.273644
O 2.604429 2.236487 2.024104
H 2.209952 2.768571 1.327366
H 3.422980 1.879192 1.675023
5
Structure 2323 | Energy: -10.835243 Hartree
N 1.058889 -0.996362 -0.496446
N 2.020817 -0.516943 -0.273644
O 3.174516 1.772779 1.385743
H 2.780039 2.304863 0.689005
H 3.993066 1.415485 1.036662
5
Structure 2324 | Energy: -10.835312 Hartree
N 1.065898 -1.021060 -0.466608
N 2.013807 -0.492244 -0.303482
O 3.174516 1.772779 1.385743
H 2.780039 2.304863 0.689005
H 3.993066 1.415485 1.036662
5
Structure 2325 | Energy: -10.835413 Hartree
N 1.065898 -1.021060 -0.466608
N 2.013807 -0.492244 -0.303482
O 2.827804 2.014773 1.307948
H 2.516435 2.453824 0.511422
H 3.698317 1.663225 1.112592
5
Structure 2326 | Energy: -10.835451 Hartree
N 1.065898 -1.021060 -0.466608
N 2.013807 -0.492244 -0.303482
O 2.823934 2.017892 1.305776
H 2.585833 2.441549 0.476323
H 3.690345 1.625983 1.182157
5
Structure 2327 | Energy: -10.835457 Hartree
N 1.058904 -1.008177 -0.466414
N 2.020801 -0.505127 -0.303676
O 2.823934 2.017892 1.305776
H 2.585833 2.441549 0.476323
H 3.690345 1.625983 1.182157
5
Structure 2328 | Energy: -10.835534 Hartree
N 1.061569 -1.009008 -0.466732
N 2.023467 -0.505958 -0.303994
O 2.797838 1.882309 1.278640
H 2.559738 2.305966 0.449187
H 3.664249 1.490400 1.155021
5
Structure 2329 | Energy: -10.835537 Hartree
N 1.794908 -1.551608 0.004928
N 2.048684 -0.524616 -0.287775
O 2.797838 1.882309 1.278640
H 2.559738 2.305966 0.449187
H 3.664249 1.490400 1.155021
5
Structure 2330 | Energy: -10.835481 Hartree
N 1.794908 -1.551608 0.004928
N 2.048684 -0.524616 -0.287775
O 2.795888 1.885357 1.277317
H 2.624533 2.325886 0.440214
H 3.630406 1.422108 1.184997
5
Structure 2331 | Energy: -10.835521 Hartree
N 1.763561 -1.543841 0.001397
N 2.080030 -0.532384 -0.284244
O 2.795888 1.885357 1.277317
H 2.624533 2.325886 0.440214
H 3.630406 1.422108 1.184997
5
Structure 2332 | Energy: -10.835537 Hartree
N 1.805032 -1.410844 0.063600
N 2.121501 -0.399387 -0.222040
O 2.795888 1.885357 1.277317
H 2.624533 2.325886 0.440214
H 3.630406 1.422108 1.184997
5
Structure 2333 | Energy: -10.834961 Hartree
N 1.863972 -1.442768 -0.031604
N 2.062560 -0.367463 -0.126836
O 2.795888 1.885357 1.277317
H 2.624533 2.325886 0.440214
H 3.630406 1.422108 1.184997
5
Structure 2334 | Energy: -10.835053 Hartree
N 2.460186 -1.137163 -0.058669
N 1.466347 -0.673069 -0.099771
O 2.795888 1.885357 1.277317
H 2.624533 2.325886 0.440214
H 3.630406 1.422108 1.184997
5
Structure 2335 | Energy: -10.834969 Hartree
N 2.460186 -1.137163 -0.058669
N 1.466347 -0.673069 -0.099771
O 2.750458 1.739662 1.209174
H 2.579103 2.180192 0.372071
H 3.584975 1.276413 1.116854
5
Structure 2336 | Energy: -10.834958 Hartree
N 2.465146 -1.127144 -0.083397
N 1.461387 -0.683087 -0.075043
O 2.750458 1.739662 1.209174
H 2.579103 2.180192 0.372071
H 3.584975 1.276413 1.116854
5
Structure 2337 | Energy: -10.835935 Hartree
N 0.322721 2.067298 3.073056
N 1.209597 2.034891 3.718958
O 2.750458 1.739662 1.209174
H 2.579103 2.180192 0.372071
H 3.584975 1.276413 1.116854
5
Structure 2338 | Energy: -10.835709 Hartree
N 0.402154 2.453939 3.315923
N 1.130164 1.648250 3.476091
O 2.750458 1.739662 1.209174
H 2.579103 2.180192 0.372071
H 3.584975 1.276413 1.116854
5
Structure 2339 | Energy: -10.835912 Hartree
N 0.402154 2.453939 3.315923
N 1.130164 1.648250 3.476091
O 2.740948 1.773764 1.182833
H 2.649230 0.898536 0.795881
H 3.665791 2.016801 1.111133
5
Structure 2340 | Energy: -10.835930 Hartree
N 0.420404 2.469120 3.312905
N 1.111913 1.633069 3.479109
O 2.740948 1.773764 1.182833
H 2.649230 0.898536 0.795881
H 3.665791 2.016801 1.111133
5
Structure 2341 | Energy: -10.835884 Hartree
N 0.401378 2.458186 3.346930
N 1.130940 1.644003 3.445084
O 2.740948 1.773764 1.182833
H 2.649230 0.898536 0.795881
H 3.665791 2.016801 1.111133
5
Structure 2342 | Energy: -10.835270 Hartree
N 0.401378 2.458186 3.346930
N 1.130940 1.644003 3.445084
O 2.776005 1.731633 1.219649
H 2.372063 1.231627 0.504811
H 3.386522 2.352418 0.817856
5
Structure 2343 | Energy: -10.835173 Hartree
N 0.401378 2.458186 3.346930
N 1.130940 1.644003 3.445084
O 2.689149 1.745070 1.315849
H 2.285206 1.245063 0.601010
H 3.299665 2.365854 0.914055
5
Structure 2344 | Energy: -10.835188 Hartree
N 0.401378 2.458186 3.346930
N 1.130940 1.644003 3.445084
O 2.686828 1.743609 1.315198
H 2.323072 1.248819 0.575580
H 3.298629 2.385276 0.949814
5
Structure 2345 | Energy: -10.835216 Hartree
N 0.401378 2.458186 3.346930
N 1.130940 1.644003 3.445084
O 2.687984 1.746848 1.315789
H 2.356923 1.176597 0.616231
H 3.246429 2.406100 0.899775
5
Structure 2346 | Energy: -10.835004 Hartree
N 0.401378 2.458186 3.346930
N 1.130940 1.644003 3.445084
O 2.619618 1.757424 1.391510
H 2.288556 1.187173 0.691952
H 3.178063 2.416676 0.975496
5
Structure 2347 | Energy: -10.835037 Hartree
N 0.386982 2.431266 3.340053
N 1.066320 1.570704 3.392215
O 2.619618 1.757424 1.391510
H 2.288556 1.187173 0.691952
H 3.178063 2.416676 0.975496
5
Structure 2348 | Energy: -10.835034 Hartree
N 0.328238 2.250922 3.325448
N 1.045595 1.420735 3.356688
O 2.619618 1.757424 1.391510
H 2.288556 1.187173 0.691952
H 3.178063 2.416676 0.975496
5
Structure 2349 | Energy: -10.833613 Hartree
N 0.328238 2.250922 3.325448
N 1.045595 1.420735 3.356688
O 2.942743 0.523469 1.732865
H 2.611681 -0.046782 1.033307
H 3.501188 1.182721 1.316851
5
Structure 2350 | Energy: -10.833573 Hartree
N 0.328238 2.250922 3.325448
N 1.045595 1.420735 3.356688
O 2.936602 0.529223 1.743242
H 2.605540 -0.041028 1.043684
H 3.495047 1.188475 1.327228
5
Structure 2351 | Energy: -10.835556 Hartree
N 2.590646 0.949297 1.665202
N 3.308004 0.119109 1.696442
O 0.674193 1.830849 3.403488
H 0.343132 1.260598 2.703930
H 1.232639 2.490101 2.987474
5
Structure 2352 | Energy: -10.835491 Hartree
N 2.573984 0.934559 1.675196
N 3.324666 0.133848 1.686448
O 0.674193 1.830849 3.403488
H 0.343132 1.260598 2.703930
H 1.232639 2.490101 2.987474
5
Structure 2353 | Energy: -10.835588 Hartree
N 2.583722 0.950221 1.632592
N 3.334404 0.149510 1.643845
O 0.674193 1.830849 3.403488
H 0.343132 1.260598 2.703930
H 1.232639 2.490101 2.987474
5
Structure 2354 | Energy: -10.835335 Hartree
N 2.514123 1.011531 1.624848
N 3.264805 0.210820 1.636100
O 0.676913 1.831596 3.401343
H 0.345852 1.261345 2.701785
H 1.235358 2.490848 2.985329
5
Structure 2355 | Energy: -10.833929 Hartree
N 2.745535 0.757575 1.121506
N 3.033394 0.464776 2.139442
O 0.676913 1.831596 3.401343
H 0.345852 1.261345 2.701785
H 1.235358 2.490848 2.985329
5
Structure 2356 | Energy: -10.834089 Hartree
N 2.677017 0.268287 2.002617
N 3.101911 0.954065 1.258330
O 0.676913 1.831596 3.401343
H 0.345852 1.261345 2.701785
H 1.235358 2.490848 2.985329
5
Structure 2357 | Energy: -10.833966 Hartree
N 2.586109 0.336074 1.806992
N 2.907439 1.033808 1.022962
O 0.676913 1.831596 3.401343
H 0.345852 1.261345 2.701785
H 1.235358 2.490848 2.985329
5
Structure 2358 | Energy: -10.834589 Hartree
N 3.080816 -0.796178 1.974353
N 3.402147 -0.098444 1.190323
O 0.676913 1.831596 3.401343
H 0.345852 1.261345 2.701785
H 1.235358 2.490848 2.985329
5
Structure 2359 | Energy: -10.834618 Hartree
N 2.472224 -1.582665 1.923000
N 2.793554 -0.884931 1.138970
O 0.676913 1.831596 3.401343
H 0.345852 1.261345 2.701785
H 1.235358 2.490848 2.985329
5
Structure 2360 | Energy: -10.835002 Hartree
N 0.528971 1.487709 3.730938
N 0.850301 2.185443 2.946908
O 2.620166 -1.238778 1.593405
H 2.289105 -1.809029 0.893847
H 3.178611 -0.579526 1.177391
5
Structure 2361 | Energy: -10.834618 Hartree
N 2.472224 -1.582665 1.923000
N 2.793554 -0.884931 1.138970
O 0.676913 1.831596 3.401343
H 0.345852 1.261345 2.701785
H 1.235358 2.490848 2.985329
5
Structure 2362 | Energy: -10.834681 Hartree
N 2.472224 -1.582665 1.923000
N 2.793554 -0.884931 1.138970
O 0.840412 2.085364 3.109247
H 0.500291 1.500782 2.426056
H 1.471568 2.671771 2.688164
5
Structure 2363 | Energy: -10.834677 Hartree
N 2.472224 -1.582665 1.923000
N 2.793554 -0.884931 1.138970
O 0.839090 2.073361 3.132768
H 0.498898 1.493107 2.445931
H 1.469488 2.663053 2.715150
5
Structure 2364 | Energy: -10.835067 Hartree
N 2.217975 -1.244967 2.648148
N 2.539305 -0.547233 1.864119
O 0.839090 2.073361 3.132768
H 0.498898 1.493107 2.445931
H 1.469488 2.663053 2.715150
5
Structure 2365 | Energy: -10.835066 Hartree
N 2.217975 -1.244967 2.648148
N 2.539305 -0.547233 1.864119
O 0.839026 2.073418 3.132751
H 0.499402 1.492659 2.446060
H 1.469995 2.662602 2.715280
5
Structure 2366 | Energy: -10.835048 Hartree
N 0.694663 1.725022 3.462985
N 1.015993 2.422756 2.678955
O 2.362338 -0.896571 2.317915
H 2.022714 -1.477329 1.631224
H 2.993307 -0.307386 1.900444
5
Structure 2367 | Energy: -10.835044 Hartree
N 0.694663 1.725022 3.462985
N 1.015993 2.422756 2.678955
O 2.358354 -0.899747 2.322503
H 2.021799 -1.478035 1.632225
H 2.994109 -0.311697 1.910731
5
Structure 2368 | Energy: -10.835070 Hartree
N 2.214430 -1.248068 2.652854
N 2.535761 -0.550334 1.868824
O 0.838587 2.073343 3.132633
H 0.502032 1.495054 2.442356
H 1.474341 2.661393 2.720862
5
Structure 2369 | Energy: -10.835027 Hartree
N 2.318577 -1.219225 2.605422
N 2.639907 -0.521491 1.821392
O 0.838587 2.073343 3.132633
H 0.502032 1.495054 2.442356
H 1.474341 2.661393 2.720862
5
Structure 2370 | Energy: -10.835052 Hartree
N 2.254978 -1.103916 2.639007
N 2.576308 -0.406182 1.854978
O 0.838587 2.073343 3.132633
H 0.502032 1.495054 2.442356
H 1.474341 2.661393 2.720862
5
Structure 2371 | Energy: -10.835586 Hartree
N 2.254978 -1.103916 2.639007
N 2.576308 -0.406182 1.854978
O 1.783056 2.251586 2.421112
H 1.446501 1.673298 1.730835
H 2.418811 2.839636 2.009341
5
Structure 2372 | Energy: -10.833920 Hartree
N 1.639132 1.903265 2.751464
N 1.960463 2.600999 1.967434
O 2.398902 -0.755595 2.308656
H 2.062347 -1.333883 1.618378
H 3.034656 -0.167545 1.896884
5
Structure 2373 | Energy: -10.833050 Hartree
N 0.214917 -0.632302 0.496040
N 0.324023 -1.287333 -0.377927
O 2.398902 -0.755595 2.308656
H 2.062347 -1.333883 1.618378
H 3.034656 -0.167545 1.896884
5
Structure 2374 | Energy: -10.833053 Hartree
N 0.206934 -0.629914 0.506291
N 0.317070 -1.275126 -0.374823
O 2.398902 -0.755595 2.308656
H 2.062347 -1.333883 1.618378
H 3.034656 -0.167545 1.896884
5
Structure 2375 | Energy: -10.832380 Hartree
N 0.206934 -0.629914 0.506291
N 0.317070 -1.275126 -0.374823
O 2.327422 -0.762149 2.236259
H 1.990866 -1.340438 1.545982
H 2.963176 -0.174099 1.824488
5
Structure 2376 | Energy: -10.834394 Hartree
N 0.206934 -0.629914 0.506291
N 0.317070 -1.275126 -0.374823
O 2.923851 0.415055 2.839928
H 2.587296 -0.163233 2.149651
H 3.559605 1.003106 2.428156
5
Structure 2377 | Energy: -10.834399 Hartree
N 0.280106 -0.499904 0.430584
N 0.390242 -1.145116 -0.450529
O 2.923851 0.415055 2.839928
H 2.587296 -0.163233 2.149651
H 3.559605 1.003106 2.428156
5
Structure 2378 | Energy: -10.834388 Hartree
N 0.280106 -0.499904 0.430584
N 0.390242 -1.145116 -0.450529
O 3.002795 0.773636 2.576699
H 2.647337 0.110184 1.978660
H 3.625801 1.300567 2.072964
5
Structure 2379 | Energy: -10.835075 Hartree
N 2.962697 1.088603 2.955608
N 3.072833 0.443391 2.074494
O 0.320204 -0.814871 0.051675
H -0.035254 -1.478322 -0.546364
H 0.943210 -0.287940 -0.452060
5
Structure 2380 | Energy: -10.835068 Hartree
N 2.971610 1.090266 2.955410
N 3.063921 0.441727 2.074692
O 0.320204 -0.814871 0.051675
H -0.035254 -1.478322 -0.546364
H 0.943210 -0.287940 -0.452060
5
Structure 2381 | Energy: -10.835068 Hartree
N 0.753721 2.974477 2.183361
N 0.480633 2.636363 1.175446
O 0.320204 -0.814871 0.051675
H -0.035254 -1.478322 -0.546364
H 0.943210 -0.287940 -0.452060
5
Structure 2382 | Energy: -10.834401 Hartree
N 0.471718 -0.653453 0.493985
N 0.198630 -0.991566 -0.513930
O 0.602207 2.813059 1.741051
H 0.246749 2.149607 1.143012
H 1.225213 3.339990 1.237316
5
Structure 2383 | Energy: -10.834782 Hartree
N 0.121845 -1.148668 -0.396377
N 0.548504 -0.496351 0.376432
O 0.602207 2.813059 1.741051
H 0.246749 2.149607 1.143012
H 1.225213 3.339990 1.237316
5
Structure 2384 | Energy: -10.834783 Hartree
N 0.121845 -1.148668 -0.396377
N 0.548504 -0.496351 0.376432
O 0.562615 2.819330 1.780433
H 0.207157 2.155878 1.182394
H 1.185621 3.346261 1.276698
5
Structure 2385 | Energy: -10.834797 Hartree
N 0.127757 -1.060025 -0.354211
N 0.554417 -0.407709 0.418599
O 0.562615 2.819330 1.780433
H 0.207157 2.155878 1.182394
H 1.185621 3.346261 1.276698
5
Structure 2386 | Energy: -10.834736 Hartree
N 0.102881 -1.266417 -0.380480
N 0.529540 -0.614100 0.392329
O 0.562615 2.819330 1.780433
H 0.207157 2.155878 1.182394
H 1.185621 3.346261 1.276698
5
Structure 2387 | Energy: -10.834739 Hartree
N 0.086414 -1.272365 -0.365071
N 0.524762 -0.616159 0.397840
O 0.562615 2.819330 1.780433
H 0.207157 2.155878 1.182394
H 1.185621 3.346261 1.276698
5
Structure 2388 | Energy: -10.834678 Hartree
N 0.358412 2.483587 1.337330
N 0.796759 3.139794 2.100241
O 0.290618 -0.936623 0.078033
H -0.064840 -1.600075 -0.520007
H 0.913624 -0.409692 -0.425703
5
Structure 2389 | Energy: -10.834880 Hartree
N 1.053921 2.607170 1.898988
N 0.101250 3.016211 1.538582
O 0.290618 -0.936623 0.078033
H -0.064840 -1.600075 -0.520007
H 0.913624 -0.409692 -0.425703
5
Structure 2390 | Energy: -10.834509 Hartree
N 0.781923 -1.148783 0.196588
N -0.170747 -0.739741 -0.163818
O 0.562615 2.819330 1.780433
H 0.207157 2.155878 1.182394
H 1.185621 3.346261 1.276698
5
Structure 2391 | Energy: -10.834509 Hartree
N 0.781923 -1.148783 0.196588
N -0.170747 -0.739741 -0.163818
O 0.938746 1.699402 3.171175
H 1.182766 1.018464 2.537972
H 1.229924 2.537739 2.807927
5
Structure 2392 | Energy: -10.834496 Hartree
N 0.773815 -1.164991 0.198701
N -0.162639 -0.723534 -0.165932
O 0.938746 1.699402 3.171175
H 1.182766 1.018464 2.537972
H 1.229924 2.537739 2.807927
5
Structure 2393 | Energy: -10.834390 Hartree
N 1.369525 -1.410119 -0.205620
N 0.433070 -0.968662 -0.570253
O 0.938746 1.699402 3.171175
H 1.182766 1.018464 2.537972
H 1.229924 2.537739 2.807927
5
Structure 2394 | Energy: -10.834389 Hartree
N 1.366740 -1.414808 -0.204232
N 0.435855 -0.963972 -0.571641
O 0.938746 1.699402 3.171175
H 1.182766 1.018464 2.537972
H 1.229924 2.537739 2.807927
5
Structure 2395 | Energy: -10.834633 Hartree
N 0.610711 -0.723342 0.292663
N -0.320174 -0.272507 -0.074746
O 0.938746 1.699402 3.171175
H 1.182766 1.018464 2.537972
H 1.229924 2.537739 2.807927
5
Structure 2396 | Energy: -10.832308 Hartree
N 0.610711 -0.723342 0.292663
N -0.320174 -0.272507 -0.074746
O 0.379044 1.739065 2.189528
H 0.623064 1.058126 1.556325
H 0.670223 2.577401 1.826280
5
Structure 2397 | Energy: -10.833907 Hartree
N 1.303506 -1.274090 0.521549
N 0.372622 -0.823254 0.154139
O 0.379044 1.739065 2.189528
H 0.623064 1.058126 1.556325
H 0.670223 2.577401 1.826280
5
Structure 2398 | Energy: -10.833907 Hartree
N 1.303506 -1.274090 0.521549
N 0.372622 -0.823254 0.154139
O -0.254062 0.953535 2.829698
H -0.032171 0.245141 2.218870
H -0.916669 0.608458 3.430877
5
Structure 2399 | Energy: -10.833907 Hartree
N 1.303506 -1.274090 0.521549
N 0.372622 -0.823254 0.154139
O 2.813483 -1.409944 -2.378425
H 2.320047 -1.128107 -1.603016
H 3.469273 -0.732988 -2.555097
5
Structure 2400 | Energy: -10.834976 Hartree
N 3.288009 -1.581714 -2.161219
N 2.357125 -1.130878 -2.528629
O 0.828980 -1.102320 0.304342
H 0.335544 -0.820483 1.079752
H 1.484770 -0.425364 0.127671
5
Structure 2401 | Energy: -10.834136 Hartree
N 3.288009 -1.581714 -2.161219
N 2.357125 -1.130878 -2.528629
O 0.802820 -1.033738 0.389008
H 1.520488 -0.514095 0.016055
H 0.715027 -1.820286 -0.152449
5
Structure 2402 | Energy: -10.835319 Hartree
N -2.426766 0.316745 0.247305
N -2.044558 0.123839 1.257994
O 0.802820 -1.033738 0.389008
H 1.520488 -0.514095 0.016055
H 0.715027 -1.820286 -0.152449
5
Structure 2403 | Energy: -10.834931 Hartree
N -2.925831 0.716071 0.211458
N -2.543622 0.523165 1.222147
O 0.802820 -1.033738 0.389008
H 1.520488 -0.514095 0.016055
H 0.715027 -1.820286 -0.152449
5
Structure 2404 | Energy: -10.835178 Hartree
N -2.925831 0.716071 0.211458
N -2.543622 0.523165 1.222147
O -0.581541 -1.059575 0.220616
H 0.136127 -0.539933 -0.152337
H -0.669334 -1.846124 -0.320841
5
Structure 2405 | Energy: -10.834186 Hartree
N -2.795547 0.615214 0.178872
N -2.413338 0.422308 1.189561
O -0.581541 -1.059575 0.220616
H 0.136127 -0.539933 -0.152337
H -0.669334 -1.846124 -0.320841
5
Structure 2406 | Energy: -10.834138 Hartree
N -2.760254 0.656301 0.038788
N -2.384193 0.535126 1.062841
O -0.581541 -1.059575 0.220616
H 0.136127 -0.539933 -0.152337
H -0.669334 -1.846124 -0.320841
5
Structure 2407 | Energy: -10.835020 Hartree
N -2.901364 0.683654 0.086235
N -2.525302 0.562479 1.110288
O -0.581541 -1.059575 0.220616
H 0.136127 -0.539933 -0.152337
H -0.669334 -1.846124 -0.320841
5
Structure 2408 | Energy: -10.835010 Hartree
N -2.901364 0.683654 0.086235
N -2.525302 0.562479 1.110288
O -0.550726 -1.043337 0.343958
H 0.168309 -0.530221 -0.035344
H -0.615239 -1.854161 -0.163926
5
Structure 2409 | Energy: -10.835567 Hartree
N -2.901364 0.683654 0.086235
N -2.525302 0.562479 1.110288
O -0.568509 -1.052724 0.261605
H 0.226663 -0.519142 0.176988
H -0.391340 -1.716246 0.930852
5
Structure 2410 | Energy: -10.835572 Hartree
N -2.916732 0.656442 0.041650
N -2.481549 0.643648 1.049242
O -0.568509 -1.052724 0.261605
H 0.226663 -0.519142 0.176988
H -0.391340 -1.716246 0.930852
5
Structure 2411 | Energy: -10.835577 Hartree
N -2.933815 0.628657 0.018502
N -2.494761 0.639142 1.024440
O -0.568509 -1.052724 0.261605
H 0.226663 -0.519142 0.176988
H -0.391340 -1.716246 0.930852
5
Structure 2412 | Energy: -10.835568 Hartree
N -2.933815 0.628657 0.018502
N -2.494761 0.639142 1.024440
O -0.551975 -1.028315 0.242116
H 0.237184 -0.485849 0.157681
H -0.365071 -1.694165 0.906386
5
Structure 2413 | Energy: -10.835473 Hartree
N -2.933815 0.628657 0.018502
N -2.494761 0.639142 1.024440
O -0.516407 -0.986118 0.238376
H -0.118679 -1.805059 -0.070361
H -0.573741 -1.044710 1.193793
5
Structure 2414 | Energy: -10.835473 Hartree
N -0.120026 1.902108 0.265451
N -0.558617 1.515393 1.194364
O -0.516407 -0.986118 0.238376
H -0.118679 -1.805059 -0.070361
H -0.573741 -1.044710 1.193793
5
Structure 2415 | Energy: -10.835442 Hartree
N 0.044938 1.875399 0.206952
N -0.465913 1.541743 1.119363
O -0.516407 -0.986118 0.238376
H -0.118679 -1.805059 -0.070361
H -0.573741 -1.044710 1.193793
5
Structure 2416 | Energy: -10.835442 Hartree
N 0.044938 1.875399 0.206952
N -0.465913 1.541743 1.119363
O -0.516360 -0.986130 0.238335
H -0.118225 -1.805173 -0.069606
H -0.574937 -1.044399 1.193696
5
Structure 2417 | Energy: -10.835441 Hartree
N 0.770837 0.664565 -1.792506
N 0.694045 -0.393120 -2.075690
O -0.516360 -0.986130 0.238335
H -0.118225 -1.805173 -0.069606
H -0.574937 -1.044399 1.193696
5
Structure 2418 | Energy: -10.834711 Hartree
N 0.720543 0.616678 -1.702181
N 0.643751 -0.441007 -1.985365
O -0.516360 -0.986130 0.238335
H -0.118225 -1.805173 -0.069606
H -0.574937 -1.044399 1.193696
5
Structure 2419 | Energy: -10.834715 Hartree
N 0.717509 0.617273 -1.703619
N 0.646785 -0.441602 -1.983927
O -0.516360 -0.986130 0.238335
H -0.118225 -1.805173 -0.069606
H -0.574937 -1.044399 1.193696
5
Structure 2420 | Energy: -10.834752 Hartree
N 0.629041 0.620807 -1.724114
N 0.735253 -0.445136 -1.963432
O -0.516360 -0.986130 0.238335
H -0.118225 -1.805173 -0.069606
H -0.574937 -1.044399 1.193696
5
Structure 2421 | Energy: -10.834772 Hartree
N 0.629041 0.620807 -1.724114
N 0.735253 -0.445136 -1.963432
O -0.515729 -0.986736 0.237211
H -0.122717 -1.815285 -0.051266
H -0.580473 -1.024673 1.193198
5
Structure 2422 | Energy: -10.834692 Hartree
N 0.629041 0.620807 -1.724114
N 0.735253 -0.445136 -1.963432
O 2.528918 -1.549364 -0.933215
H 2.213501 -2.165687 -1.600168
H 2.841263 -2.072657 -0.192845
5
Structure 2423 | Energy: -10.834692 Hartree
N 3.327686 0.536340 -2.922311
N 3.023533 -0.516759 -2.979427
O 2.528918 -1.549364 -0.933215
H 2.213501 -2.165687 -1.600168
H 2.841263 -2.072657 -0.192845
5
Structure 2424 | Energy: -10.835033 Hartree
N 3.352339 0.524806 -2.882140
N 2.998880 -0.505224 -3.019599
O 2.528918 -1.549364 -0.933215
H 2.213501 -2.165687 -1.600168
H 2.841263 -2.072657 -0.192845
5
Structure 2425 | Energy: -10.835019 Hartree
N 3.352339 0.524806 -2.882140
N 2.998880 -0.505224 -3.019599
O 2.525791 -1.549514 -0.934336
H 2.271180 -2.191857 -1.602721
H 2.833230 -2.044097 -0.172489
5
Structure 2426 | Energy: -10.835067 Hartree
N 3.310132 0.610118 -2.802610
N 2.980662 -0.422181 -2.977533
O 2.525791 -1.549514 -0.934336
H 2.271180 -2.191857 -1.602721
H 2.833230 -2.044097 -0.172489
5
Structure 2427 | Energy: -10.834911 Hartree
N 3.310132 0.610118 -2.802610
N 2.980662 -0.422181 -2.977533
O 2.559349 -1.617312 -0.982740
H 2.446726 -2.284784 -1.665357
H 2.855559 -2.071773 -0.192001
5
Structure 2428 | Energy: -10.834911 Hartree
N 0.432394 0.221588 -1.947912
N 0.856495 -0.708969 -2.346649
O 2.559349 -1.617312 -0.982740
H 2.446726 -2.284784 -1.665357
H 2.855559 -2.071773 -0.192001
5
Structure 2429 | Energy: -10.834586 Hartree
N 0.403182 0.032657 -2.201609
N 0.960225 -0.847182 -2.548559
O 2.559349 -1.617312 -0.982740
H 2.446726 -2.284784 -1.665357
H 2.855559 -2.071773 -0.192001
5
Structure 2430 | Energy: -10.834717 Hartree
N 0.403182 0.032657 -2.201609
N 0.960225 -0.847182 -2.548559
O 2.557195 -1.618144 -0.986257
H 2.470141 -2.326229 -1.630623
H 2.866328 -2.017115 -0.170904
5
Structure 2431 | Energy: -10.832782 Hartree
N 0.713359 -0.118828 -2.840917
N 0.650047 -0.695697 -1.909250
O 2.557195 -1.618144 -0.986257
H 2.470141 -2.326229 -1.630623
H 2.866328 -2.017115 -0.170904
5
Structure 2432 | Energy: -10.832395 Hartree
N 0.698826 -0.107552 -2.834516
N 0.664580 -0.706973 -1.915652
O 2.557195 -1.618144 -0.986257
H 2.470141 -2.326229 -1.630623
H 2.866328 -2.017115 -0.170904
5
Structure 2433 | Energy: -10.832416 Hartree
N 1.680636 0.669139 0.788275
N 1.268194 -0.229465 0.311629
O 2.557195 -1.618144 -0.986257
H 2.470141 -2.326229 -1.630623
H 2.866328 -2.017115 -0.170904
5
Structure 2434 | Energy: -10.834596 Hartree
N 1.680636 0.669139 0.788275
N 1.268194 -0.229465 0.311629
O 2.622661 -2.733158 -1.041915
H 2.535607 -3.441242 -1.686281
H 2.931794 -3.132129 -0.226561
5
Structure 2435 | Energy: -10.834591 Hartree
N 1.680636 0.669139 0.788275
N 1.268194 -0.229465 0.311629
O 2.611563 -2.731474 -1.052966
H 2.521209 -3.437537 -1.699094
H 2.921711 -3.133478 -0.239490
5
Structure 2436 | Energy: -10.834772 Hartree
N 2.830082 -2.344172 -0.805280
N 2.417640 -3.242776 -1.281926
O 1.462117 0.281837 0.540588
H 1.371763 -0.424226 -0.105539
H 1.772265 -0.120167 1.354064
5
Structure 2437 | Energy: -10.834829 Hartree
N 2.760246 -2.434882 -0.694128
N 2.325941 -3.318392 -1.179492
O 1.462117 0.281837 0.540588
H 1.371763 -0.424226 -0.105539
H 1.772265 -0.120167 1.354064
5
Structure 2438 | Energy: -10.834560 Hartree
N 1.691567 0.661592 0.792634
N 1.257263 -0.221918 0.307270
O 2.530795 -2.814637 -0.946173
H 2.440441 -3.520700 -1.592301
H 2.840943 -3.216641 -0.132697
5
Structure 2439 | Energy: -10.834563 Hartree
N 1.691567 0.661592 0.792634
N 1.257263 -0.221918 0.307270
O 2.531055 -2.814554 -0.945957
H 2.435692 -3.518283 -1.593908
H 2.841575 -3.220378 -0.134522
5
Structure 2440 | Energy: -10.834555 Hartree
N 1.688337 0.665521 0.788280
N 1.260493 -0.225847 0.311623
O 2.531055 -2.814554 -0.945957
H 2.435692 -3.518283 -1.593908
H 2.841575 -3.220378 -0.134522
5
Structure 2441 | Energy: -10.834832 Hartree
N 2.757016 -2.430953 -0.698481
N 2.329171 -3.322321 -1.175138
O 1.462376 0.281920 0.540804
H 1.367014 -0.421809 -0.107147
H 1.772897 -0.123904 1.352239
5
Structure 2442 | Energy: -10.834809 Hartree
N 2.757016 -2.430953 -0.698481
N 2.329171 -3.322321 -1.175138
O 1.479927 0.231066 0.516387
H 1.384565 -0.472663 -0.131564
H 1.790448 -0.174757 1.327822
5
Structure 2443 | Energy: -10.834873 Hartree
N 2.567073 -2.434323 -0.528047
N 2.139228 -3.325690 -1.004704
O 1.479927 0.231066 0.516387
H 1.384565 -0.472663 -0.131564
H 1.790448 -0.174757 1.327822
5
Structure 2444 | Energy: -10.834363 Hartree
N 1.705888 0.614667 0.763863
N 1.278044 -0.276701 0.287206
O 2.341112 -2.817923 -0.775523
H 2.245749 -3.521652 -1.423474
H 2.651632 -3.223747 0.035912
5
Structure 2445 | Energy: -10.834336 Hartree
N 1.797589 0.655719 0.704445
N 1.350434 -0.222444 0.221051
O 2.341112 -2.817923 -0.775523
H 2.245749 -3.521652 -1.423474
H 2.651632 -3.223747 0.035912
5
Structure 2446 | Energy: -10.834602 Hartree
N 2.003780 0.867425 -1.665272
N 2.512346 -0.084787 -1.863871
O 2.341112 -2.817923 -0.775523
H 2.245749 -3.521652 -1.423474
H 2.651632 -3.223747 0.035912
5
Structure 2447 | Energy: -10.835033 Hartree
N 2.098868 -2.403900 -0.667076
N 2.607433 -3.356113 -0.865675
O 2.246024 0.453402 -1.773719
H 2.150661 -0.250327 -2.421670
H 2.556545 0.047578 -0.962284
5
Structure 2448 | Energy: -10.835033 Hartree
N 2.098868 -2.403900 -0.667076
N 2.607433 -3.356113 -0.865675
O 2.246024 -0.227189 1.489486
H 2.150661 -1.131259 1.802106
H 2.556545 -0.274813 0.583477
5
Structure 2449 | Energy: -10.835164 Hartree
N 2.633258 -1.879540 -1.330416
N 3.141824 -2.831753 -1.529014
O 2.246024 -0.227189 1.489486
H 2.150661 -1.131259 1.802106
H 2.556545 -0.274813 0.583477
5
Structure 2450 | Energy: -10.835150 Hartree
N 2.633258 -1.879540 -1.330416
N 3.141824 -2.831753 -1.529014
O 2.438287 -0.012530 1.358041
H 2.241707 -0.882542 1.716655
H 2.754519 -0.143130 0.462227
5
Structure 2451 | Energy: -10.835080 Hartree
N 2.517734 -1.686229 -1.457704
N 2.987805 -2.638440 -1.735403
O 2.438287 -0.012530 1.358041
H 2.241707 -0.882542 1.716655
H 2.754519 -0.143130 0.462227
5
Structure 2452 | Energy: -10.834943 Hartree
N 2.517734 -1.686229 -1.457704
N 2.987805 -2.638440 -1.735403
O 2.263601 0.598001 1.707786
H 2.067021 -0.272011 2.066400
H 2.579833 0.467401 0.811972
5
Structure 2453 | Energy: -10.834623 Hartree
N 2.035260 1.018119 1.816578
N 2.505331 0.065908 1.538879
O 2.746075 -2.106347 -1.566495
H 2.549494 -2.976359 -1.207882
H 3.062307 -2.236947 -2.462310
5
Structure 2454 | Energy: -10.834596 Hartree
N 2.412974 1.282486 1.612390
N 2.842965 0.303429 1.364713
O 2.746075 -2.106347 -1.566495
H 2.549494 -2.976359 -1.207882
H 3.062307 -2.236947 -2.462310
5
Structure 2455 | Energy: -10.834773 Hartree
N 3.093066 1.035907 1.827426
N 3.523057 0.056849 1.579749
O 2.746075 -2.106347 -1.566495
H 2.549494 -2.976359 -1.207882
H 3.062307 -2.236947 -2.462310
5
Structure 2456 | Energy: -10.834469 Hartree
N 3.151273 0.607693 2.225943
N 3.464850 0.485063 1.181232
O 2.746075 -2.106347 -1.566495
H 2.549494 -2.976359 -1.207882
H 3.062307 -2.236947 -2.462310
5
Structure 2457 | Energy: -10.834468 Hartree
N 3.070890 0.626418 2.219858
N 3.402665 0.501150 1.181098
O 2.746075 -2.106347 -1.566495
H 2.549494 -2.976359 -1.207882
H 3.062307 -2.236947 -2.462310
5
Structure 2458 | Energy: -10.834550 Hartree
N 3.070890 0.626418 2.219858
N 3.402665 0.501150 1.181098
O 2.707255 -2.450277 -1.245459
H 2.446788 -3.258694 -0.795139
H 3.047317 -2.704981 -2.105125
5
Structure 2459 | Energy: -10.834545 Hartree
N 3.070890 0.626418 2.219858
N 3.402665 0.501150 1.181098
O 2.702944 -2.475511 -1.269833
H 2.442477 -3.283928 -0.819513
H 3.043006 -2.730215 -2.129499
5
Structure 2460 | Energy: -10.834587 Hartree
N 3.070890 0.626418 2.219858
N 3.402665 0.501150 1.181098
O 2.482531 -2.503267 -1.192505
H 2.188566 -3.287093 -0.719885
H 2.791222 -2.793529 -2.052738
5
Structure 2461 | Energy: -10.834763 Hartree
N 2.317468 -2.500732 -0.694814
N 2.649243 -2.626000 -1.733574
O 3.235953 0.623883 1.722166
H 2.941988 -0.159944 2.194787
H 3.544644 0.333620 0.861934
5
Structure 2462 | Energy: -10.834776 Hartree
N 2.317468 -2.500732 -0.694814
N 2.649243 -2.626000 -1.733574
O 3.335608 0.590205 1.731281
H 2.926348 -0.149299 2.189330
H 3.677560 0.251951 0.901706
5
Structure 2463 | Energy: -10.834610 Hartree
N 1.571450 -2.843559 -0.092158
N 1.903225 -2.968827 -1.130918
O 3.335608 0.590205 1.731281
H 2.926348 -0.149299 2.189330
H 3.677560 0.251951 0.901706
5
Structure 2464 | Energy: -10.834806 Hartree
N 3.165954 0.592535 2.229873
N 3.497729 0.467267 1.191113
O 1.741104 -2.845889 -0.590750
H 1.331844 -3.585394 -0.132701
H 2.083057 -3.184144 -1.420325
5
Structure 2465 | Energy: -10.834788 Hartree
N 3.165954 0.592535 2.229873
N 3.497729 0.467267 1.191113
O 1.740534 -2.844644 -0.594674
H 1.357110 -3.560563 -0.080266
H 2.066833 -3.228735 -1.410484
5
Structure 2466 | Energy: -10.834783 Hartree
N 3.165954 0.592535 2.229873
N 3.497729 0.467267 1.191113
O 1.742378 -2.844574 -0.595395
H 1.336108 -3.542269 -0.073537
H 2.058578 -3.248140 -1.405762
5
Structure 2467 | Energy: -10.834853 Hartree
N 3.165954 0.592535 2.229873
N 3.497729 0.467267 1.191113
O 1.838550 -2.689506 -0.504611
H 1.432281 -3.387202 0.017247
H 2.154751 -3.093073 -1.314977
5
Structure 2468 | Energy: -10.834817 Hartree
N 2.994505 0.276213 2.642904
N 3.427929 0.226404 1.635705
O 1.838550 -2.689506 -0.504611
H 1.432281 -3.387202 0.017247
H 2.154751 -3.093073 -1.314977
5
Structure 2469 | Energy: -10.834628 Hartree
N 1.616799 -2.726221 -0.017154
N 2.050223 -2.776030 -1.024354
O 3.216257 0.312928 2.155448
H 2.809987 -0.384768 2.677305
H 3.532457 -0.090639 1.345081
5
Structure 2470 | Energy: -10.834630 Hartree
N 1.673780 -2.764581 -0.005191
N 2.102206 -2.805204 -1.014938
O 3.216257 0.312928 2.155448
H 2.809987 -0.384768 2.677305
H 3.532457 -0.090639 1.345081
5
Structure 2471 | Energy: -10.834626 Hartree
N 1.673780 -2.764581 -0.005191
N 2.102206 -2.805204 -1.014938
O 3.130013 0.388020 2.108283
H 2.761123 -0.321131 2.642319
H 3.449606 -0.009345 1.296184
5
Structure 2472 | Energy: -10.834819 Hartree
N 2.913042 0.346418 2.597598
N 3.341468 0.305795 1.587851
O 1.890751 -2.722979 -0.494506
H 1.521861 -3.432130 0.039530
H 2.210343 -3.120344 -1.306605
5
Structure 2473 | Energy: -10.835002 Hartree
N 2.913042 0.346418 2.597598
N 3.341468 0.305795 1.587851
O 1.876063 -2.754725 -0.455014
H 1.226007 -3.055057 -1.096417
H 2.739330 -2.993540 -0.797475
5
Structure 2474 | Energy: -10.835028 Hartree
N 2.913042 0.346418 2.597598
N 3.341468 0.305795 1.587851
O 1.489420 -2.666862 -0.337835
H 0.774785 -2.924107 -0.927149
H 2.307057 -2.961942 -0.742731
5
Structure 2475 | Energy: -10.835030 Hartree
N 2.909055 0.341164 2.596072
N 3.345455 0.311049 1.589376
O 1.489420 -2.666862 -0.337835
H 0.774785 -2.924107 -0.927149
H 2.307057 -2.961942 -0.742731
5
Structure 2476 | Energy: -10.834556 Hartree
N 2.909055 0.341164 2.596072
N 3.345455 0.311049 1.589376
O 1.448550 -2.735957 -0.414670
H 1.506388 -2.330887 0.455239
H 2.224148 -2.458478 -0.905583
5
Structure 2477 | Energy: -10.834551 Hartree
N 2.909055 0.341164 2.596072
N 3.345455 0.311049 1.589376
O 1.448208 -2.753620 -0.392713
H 1.502895 -2.339789 0.473268
H 2.228089 -2.485108 -0.881823
5
Structure 2478 | Energy: -10.834571 Hartree
N 2.909055 0.341164 2.596072
N 3.345455 0.311049 1.589376
O 1.644406 -2.771074 -0.493768
H 1.626577 -2.346647 0.368620
H 2.466815 -2.515390 -0.915445
5
Structure 2479 | Energy: -10.834643 Hartree
N 2.909055 0.341164 2.596072
N 3.345455 0.311049 1.589376
O 1.752080 -2.727431 -0.480336
H 1.048777 -2.214939 -0.888854
H 1.335612 -3.339803 0.128842
5
Structure 2480 | Energy: -10.836338 Hartree
N 2.511263 0.676449 -0.820327
N 2.774041 -0.382170 -0.942993
O 1.848467 3.549017 0.393306
H 1.628988 4.193170 -0.282277
H 2.030619 2.719637 -0.057361
5
Structure 2481 | Energy: -10.836063 Hartree
N 2.875845 0.696160 -0.301547
N 3.138624 -0.362459 -0.424213
O 1.848467 3.549017 0.393306
H 1.628988 4.193170 -0.282277
H 2.030619 2.719637 -0.057361
5
Structure 2482 | Energy: -10.836047 Hartree
N 2.862737 0.734234 -0.293720
N 3.125516 -0.324385 -0.416386
O 1.848467 3.549017 0.393306
H 1.628988 4.193170 -0.282277
H 2.030619 2.719637 -0.057361
5
Structure 2483 | Energy: -10.836050 Hartree
N 2.547350 0.609899 -0.136804
N 2.695420 -0.476000 -0.197416
O 1.848467 3.549017 0.393306
H 1.628988 4.193170 -0.282277
H 2.030619 2.719637 -0.057361
5
Structure 2484 | Energy: -10.834475 Hartree
N 1.772343 4.081603 0.360594
N 1.920413 2.995704 0.299983
O 2.623473 0.077314 -0.104093
H 2.403994 0.721467 -0.779675
H 2.805626 -0.752067 -0.554759
5
Structure 2485 | Energy: -10.836037 Hartree
N 1.772343 4.081603 0.360594
N 1.920413 2.995704 0.299983
O 2.672482 0.048209 -0.133631
H 2.273370 -0.417190 -0.870943
H 2.158380 0.848543 0.005352
5
Structure 2486 | Energy: -10.836068 Hartree
N 1.772343 4.081603 0.360594
N 1.920413 2.995704 0.299983
O 3.060538 0.225195 -0.461977
H 2.729244 -0.200639 -1.254709
H 2.458870 0.946612 -0.257760
5
Structure 2487 | Energy: -10.836034 Hartree
N 1.772343 4.081603 0.360594
N 1.920413 2.995704 0.299983
O 2.870563 0.143944 -0.382357
H 2.520043 -0.278964 -1.168360
H 2.310636 0.903322 -0.198029
5
Structure 2488 | Energy: -10.835953 Hartree
N 1.744923 4.077394 0.355967
N 1.947833 2.999913 0.304610
O 2.870563 0.143944 -0.382357
H 2.520043 -0.278964 -1.168360
H 2.310636 0.903322 -0.198029
5
Structure 2489 | Energy: -10.835961 Hartree
N 1.727816 4.073794 0.350184
N 1.934795 2.997030 0.300048
O 2.870563 0.143944 -0.382357
H 2.520043 -0.278964 -1.168360
H 2.310636 0.903322 -0.198029
5
Structure 2490 | Energy: -10.836132 Hartree
N 1.240356 3.962663 -0.039249
N 1.580840 2.920722 0.017366
O 2.870563 0.143944 -0.382357
H 2.520043 -0.278964 -1.168360
H 2.310636 0.903322 -0.198029
5
Structure 2491 | Energy: -10.836097 Hartree
N 1.227539 3.958053 -0.043415
N 1.593656 2.925331 0.021532
O 2.870563 0.143944 -0.382357
H 2.520043 -0.278964 -1.168360
H 2.310636 0.903322 -0.198029
5
Structure 2492 | Energy: -10.835068 Hartree
N 1.227539 3.958053 -0.043415
N 1.593656 2.925331 0.021532
O 2.870363 0.143919 -0.382069
H 2.047968 -0.337071 -0.490838
H 2.785895 0.961821 -0.880119
5
Structure 2493 | Energy: -10.835087 Hartree
N 1.227539 3.958053 -0.043415
N 1.593656 2.925331 0.021532
O 2.880230 0.120956 -0.384906
H 2.057836 -0.360034 -0.493675
H 2.795763 0.938858 -0.882956
5
Structure 2494 | Energy: -10.835087 Hartree
N 1.227539 3.958053 -0.043415
N 1.593656 2.925331 0.021532
O 2.880230 0.193971 0.776106
H 2.057836 -0.269603 0.944277
H 2.795763 1.067825 1.167763
5
Structure 2495 | Energy: -10.835087 Hartree
N 1.227539 3.958053 -0.043415
N 1.593656 2.925331 0.021532
O 2.880230 0.120956 -0.384906
H 2.057836 -0.360034 -0.493675
H 2.795763 0.938858 -0.882956
5
Structure 2496 | Energy: -10.834991 Hartree
N 1.227539 3.958053 -0.043415
N 1.593656 2.925331 0.021532
O 3.311095 0.379865 -0.495959
H 2.488700 -0.101125 -0.604728
H 3.226628 1.197767 -0.994008
5
Structure 2497 | Energy: -10.833949 Hartree
N 3.077295 0.915078 -0.562386
N 3.443412 -0.117644 -0.497439
O 1.461340 3.422841 0.023012
H 0.638945 2.941851 -0.085757
H 1.376872 4.240743 -0.475037
5
Structure 2498 | Energy: -10.834020 Hartree
N 3.534082 0.741279 -0.056584
N 3.900199 -0.291443 0.008363
O 1.461340 3.422841 0.023012
H 0.638945 2.941851 -0.085757
H 1.376872 4.240743 -0.475037
5
Structure 2499 | Energy: -10.834023 Hartree
N 3.534082 0.741279 -0.056584
N 3.900199 -0.291443 0.008363
O 1.453680 3.417038 0.044357
H 0.631436 2.933840 -0.055397
H 1.361859 4.234333 -0.453386
5
Structure 2500 | Energy: -10.834002 Hartree
N 3.511214 0.773002 -0.056238
N 3.877331 -0.259720 0.008709
O 1.453680 3.417038 0.044357
H 0.631436 2.933840 -0.055397
H 1.361859 4.234333 -0.453386
5
Structure 2501 | Energy: -10.834551 Hartree
N 3.511214 0.773002 -0.056238
N 3.877331 -0.259720 0.008709
O 1.457811 3.466131 0.021093
H 1.352353 2.575353 -0.317889
H 0.575378 3.813602 0.178343
5
Structure 2502 | Energy: -10.834545 Hartree
N 3.511214 0.773002 -0.056238
N 3.877331 -0.259720 0.008709
O 1.457826 3.465032 0.023859
H 1.352230 2.584108 -0.339923
H 0.575256 3.822291 0.156474
5
Structure 2503 | Energy: -10.834453 Hartree
N 3.662428 0.900794 0.101155
N 4.086374 -0.104643 0.220075
O 1.457826 3.465032 0.023859
H 1.352230 2.584108 -0.339923
H 0.575256 3.822291 0.156474
5
Structure 2504 | Energy: -10.833871 Hartree
N 3.662428 0.900794 0.101155
N 4.086374 -0.104643 0.220075
O 1.290538 2.614703 0.612811
H 1.184942 1.733779 0.249028
H 0.407968 2.971962 0.745425
5
Structure 2505 | Energy: -10.836094 Hartree
N 1.023274 3.088121 0.540416
N 1.447220 2.082684 0.659336
O 3.929693 0.427376 0.173550
H 3.824096 -0.453548 -0.190233
H 3.047122 0.784635 0.306165
5
Structure 2506 | Energy: -10.836067 Hartree
N 1.024331 3.086976 0.528235
N 1.446163 2.083829 0.671517
O 3.929693 0.427376 0.173550
H 3.824096 -0.453548 -0.190233
H 3.047122 0.784635 0.306165
5
Structure 2507 | Energy: -10.836030 Hartree
N 0.939728 2.996915 0.509838
N 1.398668 2.013119 0.671993
O 3.929693 0.427376 0.173550
H 3.824096 -0.453548 -0.190233
H 3.047122 0.784635 0.306165
5
Structure 2508 | Energy: -10.836090 Hartree
N 0.841922 2.901987 0.311365
N 1.311231 1.923932 0.478495
O 3.929693 0.427376 0.173550
H 3.824096 -0.453548 -0.190233
H 3.047122 0.784635 0.306165
5
Structure 2509 | Energy: -10.836100 Hartree
N 0.889201 2.955206 0.355284
N 1.341250 1.966845 0.508806
O 3.929693 0.427376 0.173550
H 3.824096 -0.453548 -0.190233
H 3.047122 0.784635 0.306165
5
Structure 2510 | Energy: -10.836155 Hartree
N 0.985382 3.068040 0.046216
N 1.398912 2.085955 0.309420
O 3.929693 0.427376 0.173550
H 3.824096 -0.453548 -0.190233
H 3.047122 0.784635 0.306165
5
Structure 2511 | Energy: -10.834828 Hartree
N 0.985382 3.068040 0.046216
N 1.398912 2.085955 0.309420
O 3.901779 0.341073 0.151443
H 3.406525 0.845279 -0.496642
H 3.907739 0.855620 0.963451
5
Structure 2512 | Energy: -10.834734 Hartree
N 0.985382 3.068040 0.046216
N 1.398912 2.085955 0.309420
O 3.852679 0.380959 0.151758
H 3.357425 0.885165 -0.496328
H 3.858639 0.895506 0.963766
5
Structure 2513 | Energy: -10.834932 Hartree
N 0.985382 3.068040 0.046216
N 1.398912 2.085955 0.309420
O 0.055623 2.855884 -3.067522
H 0.032861 3.390270 -2.271640
H 0.034524 1.935917 -2.789375
5
Structure 2514 | Energy: -10.834932 Hartree
N 0.985382 3.068040 0.046216
N 1.398912 2.085955 0.309420
O 0.082724 2.849762 -2.991731
H 0.059962 3.384148 -2.195849
H 0.061625 1.929794 -2.713583
5
Structure 2515 | Energy: -10.834618 Hartree
N 0.985382 3.068040 0.046216
N 1.398912 2.085955 0.309420
O 0.070817 2.415061 -3.482765
H 0.048055 2.949447 -2.686883
H 0.049717 1.495094 -3.204617
5
Structure 2516 | Energy: -10.834619 Hartree
N 1.044396 3.128756 0.017658
N 1.474563 2.155436 0.286692
O 0.070817 2.415061 -3.482765
H 0.048055 2.949447 -2.686883
H 0.049717 1.495094 -3.204617
5
Structure 2517 | Energy: -10.834253 Hartree
N 1.044396 3.128756 0.017658
N 1.474563 2.155436 0.286692
O 0.071111 2.414884 -3.482816
H 0.739583 2.533488 -2.805621
H -0.646475 1.913858 -3.085079
5
Structure 2518 | Energy: -10.834212 Hartree
N 1.012020 3.121998 -0.079511
N 1.442187 2.148678 0.189524
O 0.071111 2.414884 -3.482816
H 0.739583 2.533488 -2.805621
H -0.646475 1.913858 -3.085079
5
Structure 2519 | Energy: -10.834227 Hartree
N 1.026493 3.123030 -0.097000
N 1.427714 2.147647 0.207013
O 0.071111 2.414884 -3.482816
H 0.739583 2.533488 -2.805621
H -0.646475 1.913858 -3.085079
5
Structure 2520 | Energy: -10.834217 Hartree
N 0.798818 3.310379 -0.085595
N 1.184828 2.356709 0.296876
O 0.071111 2.414884 -3.482816
H 0.739583 2.533488 -2.805621
H -0.646475 1.913858 -3.085079
5
Structure 2521 | Energy: -10.834299 Hartree
N 0.904222 3.211499 -0.058074
N 1.290232 2.257829 0.324397
O 0.043508 2.484013 -3.552505
H 0.711980 2.602617 -2.875310
H -0.674078 1.982986 -3.154768
5
Structure 2522 | Energy: -10.834293 Hartree
N 0.904222 3.211499 -0.058074
N 1.290232 2.257829 0.324397
O 0.046658 2.481193 -3.553211
H 0.719920 2.539032 -2.872852
H -0.732023 2.091326 -3.146013
5
Structure 2523 | Energy: -10.834246 Hartree
N 1.114099 3.267151 0.001377
N 1.080355 2.202178 0.264946
O 0.046658 2.481193 -3.553211
H 0.719920 2.539032 -2.872852
H -0.732023 2.091326 -3.146013
5
Structure 2524 | Energy: -10.835771 Hartree
N 1.377759 2.780039 0.602668
N 0.816695 2.689290 -0.336346
O 0.046658 2.481193 -3.553211
H 0.719920 2.539032 -2.872852
H -0.732023 2.091326 -3.146013
5
Structure 2525 | Energy: -10.835749 Hartree
N -1.699525 -0.547636 -0.929671
N -1.087863 0.229320 -1.406099
O 0.046658 2.481193 -3.553211
H 0.719920 2.539032 -2.872852
H -0.732023 2.091326 -3.146013
5
Structure 2526 | Energy: -10.835783 Hartree
N -1.681047 -0.539672 -0.896166
N -1.106341 0.221356 -1.439604
O 0.046658 2.481193 -3.553211
H 0.719920 2.539032 -2.872852
H -0.732023 2.091326 -3.146013
5
Structure 2527 | Energy: -10.835801 Hartree
N -1.675966 -0.547143 -0.901457
N -1.111422 0.228827 -1.434312
O 0.046658 2.481193 -3.553211
H 0.719920 2.539032 -2.872852
H -0.732023 2.091326 -3.146013
5
Structure 2528 | Energy: -10.836045 Hartree
N -1.675966 -0.547143 -0.901457
N -1.111422 0.228827 -1.434312
O 0.046411 2.481404 -3.553170
H 0.137059 3.035385 -2.775736
H -0.145231 1.591626 -3.243784
5
Structure 2529 | Energy: -10.836094 Hartree
N -1.675966 -0.547143 -0.901457
N -1.111422 0.228827 -1.434312
O 0.100629 2.525437 -3.446158
H 0.191278 3.079418 -2.668724
H -0.091013 1.635659 -3.136772
5
Structure 2530 | Energy: -10.836154 Hartree
N -1.667292 -0.454136 -0.915572
N -1.102748 0.321834 -1.448427
O 0.110155 2.573771 -3.384972
H 0.200803 3.127752 -2.607538
H -0.081487 1.683993 -3.075585
5
Structure 2531 | Energy: -10.836078 Hartree
N -1.661023 -0.407389 -0.829115
N -1.096479 0.368581 -1.361971
O 0.161532 2.588890 -3.400973
H 0.252181 3.142871 -2.623539
H -0.030110 1.699112 -3.091586
5
Structure 2532 | Energy: -10.836078 Hartree
N -0.795423 4.017812 0.593170
N -0.475956 3.540876 -0.342377
O 0.161532 2.588890 -3.400973
H 0.252181 3.142871 -2.623539
H -0.030110 1.699112 -3.091586
5
Structure 2533 | Energy: -10.836136 Hartree
N -0.795423 4.017812 0.593170
N -0.475956 3.540876 -0.342377
O 0.135076 2.629305 -3.285147
H 0.225725 3.183286 -2.507713
H -0.056566 1.739527 -2.975761
5
Structure 2534 | Energy: -10.836155 Hartree
N -0.792633 3.996725 0.604258
N -0.478746 3.561963 -0.353465
O 0.135076 2.629305 -3.285147
H 0.225725 3.183286 -2.507713
H -0.056566 1.739527 -2.975761
5
Structure 2535 | Energy: -10.836158 Hartree
N -0.785634 4.017433 0.555260
N -0.471747 3.582672 -0.402462
O 0.135076 2.629305 -3.285147
H 0.225725 3.183286 -2.507713
H -0.056566 1.739527 -2.975761
5
Structure 2536 | Energy: -10.836182 Hartree
N -0.785634 4.017433 0.555260
N -0.471747 3.582672 -0.402462
O -0.444785 2.611687 -3.359870
H -0.198828 3.145479 -2.602186
H -0.668869 1.737892 -3.027575
5
Structure 2537 | Energy: -10.836172 Hartree
N -0.785634 4.017433 0.555260
N -0.471747 3.582672 -0.402462
O -0.446664 2.623945 -3.325603
H -0.200708 3.157737 -2.567918
H -0.670749 1.750150 -2.993307
5
Structure 2538 | Energy: -10.836137 Hartree
N -0.785634 4.017433 0.555260
N -0.471747 3.582672 -0.402462
O -0.424010 2.646436 -3.284025
H -0.178053 3.180228 -2.526340
H -0.648094 1.772641 -2.951729
5
Structure 2539 | Energy: -10.836103 Hartree
N -0.785634 4.017433 0.555260
N -0.471747 3.582672 -0.402462
O -0.309691 2.822042 -3.330493
H -0.118145 3.343608 -2.548960
H -0.445932 1.916499 -3.037948
5
Structure 2540 | Energy: -10.836115 Hartree
N -0.773850 4.005033 0.564359
N -0.483531 3.595072 -0.411562
O -0.309691 2.822042 -3.330493
H -0.118145 3.343608 -2.548960
H -0.445932 1.916499 -3.037948
5
Structure 2541 | Energy: -10.836103 Hartree
N -0.773850 4.005033 0.564359
N -0.483531 3.595072 -0.411562
O -0.309942 2.821045 -3.330826
H -0.097752 3.351931 -2.560988
H -0.462354 1.923997 -3.020623
5
Structure 2542 | Energy: -10.836107 Hartree
N -0.773850 4.005033 0.564359
N -0.483531 3.595072 -0.411562
O -0.309965 2.821049 -3.330824
H -0.152590 3.361681 -2.554637
H -0.407146 1.914181 -3.027017
5
Structure 2543 | Energy: -10.836107 Hartree
N -0.773850 4.005033 0.564359
N -0.483531 3.595072 -0.411562
O -0.309965 2.052156 -3.007830
H -0.152590 2.228008 -2.078409
H -0.407146 2.903930 -3.442786
5
Structure 2544 | Energy: -10.836097 Hartree
N -0.794044 3.994125 0.562390
N -0.463336 3.605980 -0.409592
O -0.309965 2.052156 -3.007830
H -0.152590 2.228008 -2.078409
H -0.407146 2.903930 -3.442786
5
Structure 2545 | Energy: -10.836103 Hartree
N -0.771785 3.963914 0.581275
N -0.446117 3.582410 -0.395030
O -0.309965 2.052156 -3.007830
H -0.152590 2.228008 -2.078409
H -0.407146 2.903930 -3.442786
5
Structure 2546 | Energy: -10.836089 Hartree
N -1.436498 3.876669 0.475196
N -0.936832 3.526673 -0.437280
O -0.309965 2.052156 -3.007830
H -0.152590 2.228008 -2.078409
H -0.407146 2.903930 -3.442786
5
Structure 2547 | Energy: -10.836090 Hartree
N -1.494424 3.739117 0.523041
N -0.986990 3.437563 -0.402351
O -0.309965 2.052156 -3.007830
H -0.152590 2.228008 -2.078409
H -0.407146 2.903930 -3.442786
5
Structure 2548 | Energy: -10.836093 Hartree
N -1.494424 3.739117 0.523041
N -0.986990 3.437563 -0.402351
O -0.308551 2.052282 -3.008225
H -0.157068 2.225486 -2.077328
H -0.425118 2.904454 -3.437603
5
Structure 2549 | Energy: -10.836101 Hartree
N -1.494424 3.739117 0.523041
N -0.986990 3.437563 -0.402351
O -0.307910 2.051991 -3.007660
H -0.160846 2.235860 -2.078102
H -0.431508 2.898698 -3.445794
5
Structure 2550 | Energy: -10.836110 Hartree
N -1.460020 3.710041 0.547853
N -0.961112 3.415321 -0.384352
O -0.307910 2.051991 -3.007660
H -0.160846 2.235860 -2.078102
H -0.431508 2.898698 -3.445794
5
Structure 2551 | Energy: -10.836128 Hartree
N -1.380677 3.769158 0.648532
N -0.881770 3.474438 -0.283673
O -0.385553 2.064228 -2.929454
H -0.238488 2.248097 -1.999895
H -0.509151 2.910935 -3.367588
5
Structure 2552 | Energy: -10.836133 Hartree
N -1.258548 3.751185 0.733461
N -0.759640 3.456465 -0.198744
O -0.312735 1.997251 -2.861689
H -0.165671 2.181121 -1.932130
H -0.436333 2.843959 -3.299823
5
Structure 2553 | Energy: -10.833700 Hartree
N -0.560876 2.202276 -2.368089
N -0.061968 1.907556 -3.300294
O -1.010407 3.546160 0.239861
H -0.863343 3.730030 1.169420
H -1.134005 4.392868 -0.198273
5
Structure 2554 | Energy: -10.835620 Hartree
N -0.274386 2.599710 -2.779223
N -0.348459 1.510122 -2.889160
O -1.010407 3.546160 0.239861
H -0.863343 3.730030 1.169420
H -1.134005 4.392868 -0.198273
5
Structure 2555 | Energy: -10.835617 Hartree
N 0.473570 0.757900 0.996829
N 0.273296 -0.020924 0.249770
O -1.010407 3.546160 0.239861
H -0.863343 3.730030 1.169420
H -1.134005 4.392868 -0.198273
5
Structure 2556 | Energy: -10.834523 Hartree
N -0.908957 3.993237 0.640888
N -1.109231 3.214412 -0.106171
O 0.372120 0.310824 0.595803
H 0.519184 0.494693 1.525361
H 0.248522 1.157531 0.157669
5
Structure 2557 | Energy: -10.835617 Hartree
N 0.473570 0.757900 0.996829
N 0.273296 -0.020924 0.249770
O -1.010407 3.546160 0.239861
H -0.863343 3.730030 1.169420
H -1.134005 4.392868 -0.198273
5
Structure 2558 | Energy: -10.835363 Hartree
N 0.473570 0.757900 0.996829
N 0.273296 -0.020924 0.249770
O -2.268484 3.040491 0.438733
H -2.121419 3.224361 1.368292
H -2.392082 3.887198 0.000599
5
Structure 2559 | Energy: -10.835362 Hartree
N 0.481146 0.759117 0.961853
N 0.273800 -0.017893 0.214834
O -2.268484 3.040491 0.438733
H -2.121419 3.224361 1.368292
H -2.392082 3.887198 0.000599
5
Structure 2560 | Energy: -10.835362 Hartree
N 0.573015 0.952650 1.240913
N 0.446603 0.121553 0.535171
O -2.268484 3.040491 0.438733
H -2.121419 3.224361 1.368292
H -2.392082 3.887198 0.000599
5
Structure 2561 | Energy: -10.833996 Hartree
N 0.138780 0.905769 0.721865
N 0.880839 0.168433 1.054219
O -2.268484 3.040491 0.438733
H -2.121419 3.224361 1.368292
H -2.392082 3.887198 0.000599
5
Structure 2562 | Energy: -10.833951 Hartree
N 0.097316 0.944008 0.715566
N 0.839376 0.206673 1.047921
O -2.268484 3.040491 0.438733
H -2.121419 3.224361 1.368292
H -2.392082 3.887198 0.000599
5
Structure 2563 | Energy: -10.834189 Hartree
N 0.507402 1.345793 0.417212
N 1.249461 0.608458 0.749566
O -2.268484 3.040491 0.438733
H -2.121419 3.224361 1.368292
H -2.392082 3.887198 0.000599
5
Structure 2564 | Energy: -10.834854 Hartree
N -2.638200 3.466823 0.300053
N -1.896141 2.729488 0.632408
O 0.877118 0.919461 0.555892
H 1.024183 1.103331 1.485451
H 0.753520 1.766168 0.117758
5
Structure 2565 | Energy: -10.834191 Hartree
N -2.801831 2.599072 -0.420490
N -2.059772 1.861736 -0.088135
O 0.877118 0.919461 0.555892
H 1.024183 1.103331 1.485451
H 0.753520 1.766168 0.117758
5
Structure 2566 | Energy: -10.834258 Hartree
N -2.621231 2.784613 -0.708186
N -1.953548 2.024861 -0.281862
O 0.877118 0.919461 0.555892
H 1.024183 1.103331 1.485451
H 0.753520 1.766168 0.117758
5
Structure 2567 | Energy: -10.834258 Hartree
N -2.621373 2.784574 -0.708031
N -1.953406 2.024900 -0.282017
O 0.877118 0.919461 0.555892
H 1.024183 1.103331 1.485451
H 0.753520 1.766168 0.117758
5
Structure 2568 | Energy: -10.834718 Hartree
N 0.544447 1.356963 0.370382
N 1.212415 0.597288 0.796396
O -2.288703 2.347073 -0.522521
H -2.141638 2.530943 0.407038
H -2.412301 3.193780 -0.960655
5
Structure 2569 | Energy: -10.834258 Hartree
N -2.621373 2.784574 -0.708031
N -1.953406 2.024900 -0.282017
O 0.877118 0.919461 0.555892
H 1.024183 1.103331 1.485451
H 0.753520 1.766168 0.117758
5
Structure 2570 | Energy: -10.834294 Hartree
N -2.621373 2.784574 -0.708031
N -1.953406 2.024900 -0.282017
O 0.915427 0.902186 0.568942
H 1.062492 1.086056 1.498501
H 0.791829 1.748893 0.130808
5
Structure 2571 | Energy: -10.834726 Hartree
N 0.582757 1.339687 0.383431
N 1.250724 0.580013 0.809446
O -2.288703 2.347073 -0.522521
H -2.141638 2.530943 0.407038
H -2.412301 3.193780 -0.960655
5
Structure 2572 | Energy: -10.834757 Hartree
N 0.619219 1.401094 0.374591
N 1.287186 0.641419 0.800606
O -2.288703 2.347073 -0.522521
H -2.141638 2.530943 0.407038
H -2.412301 3.193780 -0.960655
5
Structure 2573 | Energy: -10.834812 Hartree
N 0.489270 1.327764 0.663507
N 1.088337 0.556387 1.164377
O -2.288703 2.347073 -0.522521
H -2.141638 2.530943 0.407038
H -2.412301 3.193780 -0.960655
5
Structure 2574 | Energy: -10.834928 Hartree
N 0.373260 0.641406 1.109172
N 1.204348 1.242745 0.718711
O -2.288703 2.347073 -0.522521
H -2.141638 2.530943 0.407038
H -2.412301 3.193780 -0.960655
5
Structure 2575 | Energy: -10.835122 Hartree
N -2.702934 2.104068 -0.299794
N -1.871845 2.705406 -0.690254
O 0.787491 0.884411 0.886445
H 0.934555 1.068281 1.816003
H 0.663893 1.731119 0.448311
5
Structure 2576 | Energy: -10.834908 Hartree
N -2.702934 2.104068 -0.299794
N -1.871845 2.705406 -0.690254
O 0.787715 0.884619 0.886003
H 1.462362 1.557365 0.777467
H 0.132526 1.238737 1.493851
5
Structure 2577 | Energy: -10.834914 Hartree
N 0.373260 0.641406 1.109172
N 1.204348 1.242745 0.718711
O -2.288478 2.347281 -0.522962
H -1.613831 3.020026 -0.631499
H -2.943667 2.701398 0.084886
5
Structure 2578 | Energy: -10.835045 Hartree
N 0.215606 0.086300 0.964561
N 1.046694 0.687639 0.574101
O -2.288478 2.347281 -0.522962
H -1.613831 3.020026 -0.631499
H -2.943667 2.701398 0.084886
5
Structure 2579 | Energy: -10.835088 Hartree
N 0.215606 0.086300 0.964561
N 1.046694 0.687639 0.574101
O -2.131556 2.360300 -0.815123
H -1.449288 3.033494 -0.844031
H -2.848910 2.709627 -0.278909
5
Structure 2580 | Energy: -10.834694 Hartree
N 1.059777 -0.380959 0.953556
N 1.890865 0.220380 0.563095
O -2.131556 2.360300 -0.815123
H -1.449288 3.033494 -0.844031
H -2.848910 2.709627 -0.278909
5
Structure 2581 | Energy: -10.834503 Hartree
N 1.959331 0.162095 0.848755
N 0.991311 -0.322674 0.667896
O -2.131556 2.360300 -0.815123
H -1.449288 3.033494 -0.844031
H -2.848910 2.709627 -0.278909
5
Structure 2582 | Energy: -10.834503 Hartree
N 1.959331 0.162095 0.848755
N 0.991311 -0.322674 0.667896
O 0.915353 -2.980566 -2.807710
H 1.810433 -2.680405 -2.975791
H 0.944777 -3.940251 -2.759868
5
Structure 2583 | Energy: -10.834496 Hartree
N 1.959331 0.162095 0.848755
N 0.991311 -0.322674 0.667896
O 0.914924 -2.980903 -2.809396
H 1.814208 -2.674474 -2.939412
H 0.947812 -3.940839 -2.769492
5
Structure 2584 | Energy: -10.834496 Hartree
N 1.959331 0.162095 0.848755
N 0.991311 -0.322674 0.667896
O 0.915894 -2.982527 -2.811090
H 1.815179 -2.676098 -2.941107
H 0.948783 -3.942463 -2.771186
5
Structure 2585 | Energy: -10.834505 Hartree
N 1.950219 0.109306 0.784548
N 0.982199 -0.375464 0.603689
O 0.915894 -2.982527 -2.811090
H 1.815179 -2.676098 -2.941107
H 0.948783 -3.942463 -2.771186
5
Structure 2586 | Energy: -10.834437 Hartree
N 1.950219 0.109306 0.784548
N 0.982199 -0.375464 0.603689
O 0.922644 -3.063350 -2.808243
H 0.792945 -2.113631 -2.835198
H 1.863892 -3.222092 -2.922278
5
Structure 2587 | Energy: -10.834453 Hartree
N 2.242072 0.114240 0.687513
N 1.233600 -0.286392 0.522427
O 0.922644 -3.063350 -2.808243
H 0.792945 -2.113631 -2.835198
H 1.863892 -3.222092 -2.922278
5
Structure 2588 | Energy: -10.834482 Hartree
N 2.242072 0.114240 0.687513
N 1.233600 -0.286392 0.522427
O 0.570038 -3.445323 -2.315721
H 0.464306 -2.502797 -2.457077
H 1.494399 -3.652406 -2.479506
5
Structure 2589 | Energy: -10.834478 Hartree
N 2.251987 0.143560 0.713472
N 1.243515 -0.257072 0.548387
O 0.570038 -3.445323 -2.315721
H 0.464306 -2.502797 -2.457077
H 1.494399 -3.652406 -2.479506
5
Structure 2590 | Energy: -10.834525 Hartree
N 1.550306 -0.565866 -0.045089
N 0.541834 -0.966498 -0.210175
O 0.570038 -3.445323 -2.315721
H 0.464306 -2.502797 -2.457077
H 1.494399 -3.652406 -2.479506
5
Structure 2591 | Energy: -10.834525 Hartree
N 1.550186 -0.565503 -0.045239
N 0.541954 -0.966862 -0.210025
O 0.570038 -3.445323 -2.315721
H 0.464306 -2.502797 -2.457077
H 1.494399 -3.652406 -2.479506
5
Structure 2592 | Energy: -10.834523 Hartree
N 1.529567 -0.571475 -0.029560
N 0.523813 -0.977059 -0.199079
O 0.570038 -3.445323 -2.315721
H 0.464306 -2.502797 -2.457077
H 1.494399 -3.652406 -2.479506
5
Structure 2593 | Energy: -10.834560 Hartree
N 1.529567 -0.571475 -0.029560
N 0.523813 -0.977059 -0.199079
O 0.775575 -3.432880 -2.363310
H 0.595493 -2.499228 -2.487331
H 1.712902 -3.563456 -2.532187
5
Structure 2594 | Energy: -10.834559 Hartree
N 1.529567 -0.571475 -0.029560
N 0.523813 -0.977059 -0.199079
O 0.775573 -3.432885 -2.363330
H 0.595478 -2.499215 -2.487189
H 1.712944 -3.563384 -2.532024
5
Structure 2595 | Energy: -10.834574 Hartree
N 1.529567 -0.571475 -0.029560
N 0.523813 -0.977059 -0.199079
O 0.775566 -3.432896 -2.363378
H 0.578939 -2.524750 -2.600284
H 1.729595 -3.537677 -2.418167
5
Structure 2596 | Energy: -10.834476 Hartree
N 0.580033 0.450189 -0.758181
N -0.425720 0.044606 -0.927700
O 0.775566 -3.432896 -2.363378
H 0.578939 -2.524750 -2.600284
H 1.729595 -3.537677 -2.418167
5
Structure 2597 | Energy: -10.834471 Hartree
N 0.579668 0.522603 -0.763640
N -0.426086 0.117019 -0.933158
O 0.775566 -3.432896 -2.363378
H 0.578939 -2.524750 -2.600284
H 1.729595 -3.537677 -2.418167
5
Structure 2598 | Energy: -10.834473 Hartree
N 0.589937 0.471229 -0.784857
N -0.415817 0.065646 -0.954375
O 0.775566 -3.432896 -2.363378
H 0.578939 -2.524750 -2.600284
H 1.729595 -3.537677 -2.418167
5
Structure 2599 | Energy: -10.834441 Hartree
N 0.317393 0.504832 -0.935932
N -0.651675 -0.005475 -1.008525
O 0.775566 -3.432896 -2.363378
H 0.578939 -2.524750 -2.600284
H 1.729595 -3.537677 -2.418167
5
Structure 2600 | Energy: -10.834424 Hartree
N 0.021562 0.534770 -1.168577
N -0.914462 -0.019205 -1.316044
O 0.775566 -3.432896 -2.363378
H 0.578939 -2.524750 -2.600284
H 1.729595 -3.537677 -2.418167
5
Structure 2601 | Energy: -10.834424 Hartree
N 0.021562 0.534770 -1.168577
N -0.914462 -0.019205 -1.316044
O 0.770922 -3.436110 -2.367797
H 0.574294 -2.527965 -2.604703
H 1.724950 -3.540891 -2.422586
5
Structure 2602 | Energy: -10.834260 Hartree
N 0.021562 0.534770 -1.168577
N -0.914462 -0.019205 -1.316044
O 0.929698 -2.630964 -2.277181
H 0.733071 -1.722819 -2.514087
H 1.883726 -2.735745 -2.331970
5
Structure 2603 | Energy: -10.835364 Hartree
N 1.440089 -2.309026 -2.219769
N 0.504065 -2.863001 -2.367236
O -0.488829 0.212831 -1.225989
H -0.685457 1.120977 -1.462895
H 0.465199 0.108050 -1.280778
5
Structure 2604 | Energy: -10.835320 Hartree
N 1.440089 -2.309026 -2.219769
N 0.504065 -2.863001 -2.367236
O -0.571430 0.238498 -1.429162
H -0.753385 1.137095 -1.710109
H 0.384401 0.137400 -1.411363
5
Structure 2605 | Energy: -10.835320 Hartree
N 1.440089 -2.309026 -2.219769
N 0.504065 -2.863001 -2.367236
O -0.955871 0.010971 -1.489729
H -1.582316 0.646502 -1.840703
H -1.307299 -0.863813 -1.677883
5
Structure 2606 | Energy: -10.834279 Hartree
N -0.542574 0.274572 -1.446162
N -1.478598 -0.279403 -1.593629
O 1.026792 -2.572626 -2.263336
H 0.400347 -1.937096 -2.614311
H 0.675364 -3.447411 -2.451491
5
Structure 2607 | Energy: -10.835171 Hartree
N -0.542574 0.274572 -1.446162
N -1.478598 -0.279403 -1.593629
O 1.006876 -2.574085 -2.241256
H 1.215078 -2.303913 -3.137456
H 0.176753 -3.057444 -2.278814
5
Structure 2608 | Energy: -10.835179 Hartree
N -0.542574 0.274572 -1.446162
N -1.478598 -0.279403 -1.593629
O 0.996555 -2.585221 -2.230175
H 1.233772 -2.301499 -3.114904
H 0.162245 -3.057598 -2.300447
5
Structure 2609 | Energy: -10.835148 Hartree
N -0.568717 0.302239 -1.563630
N -1.504741 -0.251736 -1.711097
O 0.996555 -2.585221 -2.230175
H 1.233772 -2.301499 -3.114904
H 0.162245 -3.057598 -2.300447
5
Structure 2610 | Energy: -10.835088 Hartree
N -0.568717 0.302239 -1.563630
N -1.504741 -0.251736 -1.711097
O 0.999178 -2.589996 -2.231158
H 1.212878 -2.263459 -3.107070
H 0.141508 -3.019845 -2.292673
5
Structure 2611 | Energy: -10.835328 Hartree
N 1.431157 -2.318789 -2.209877
N 0.495134 -2.872764 -2.357344
O -1.000696 0.031032 -1.584911
H -0.786997 0.357569 -2.460823
H -1.858366 -0.398817 -1.646426
5
Structure 2612 | Energy: -10.835215 Hartree
N 1.317933 -1.839036 -2.603675
N 0.381909 -2.393011 -2.751142
O -1.000696 0.031032 -1.584911
H -0.786997 0.357569 -2.460823
H -1.858366 -0.398817 -1.646426
5
Structure 2613 | Energy: -10.834886 Hartree
N 1.912270 -2.875996 -2.512663
N 0.976246 -3.429971 -2.660130
O -1.000696 0.031032 -1.584911
H -0.786997 0.357569 -2.460823
H -1.858366 -0.398817 -1.646426
5
Structure 2614 | Energy: -10.834885 Hartree
N 1.912023 -2.872833 -2.523902
N 0.976493 -3.433134 -2.648892
O -1.000696 0.031032 -1.584911
H -0.786997 0.357569 -2.460823
H -1.858366 -0.398817 -1.646426
5
Structure 2615 | Energy: -10.834947 Hartree
N 1.909513 -2.851313 -2.474615
N 0.973983 -3.411613 -2.599605
O -0.940466 -0.018393 -1.645475
H -0.726766 0.308144 -2.521387
H -1.798135 -0.448242 -1.706989
5
Structure 2616 | Energy: -10.834978 Hartree
N 2.132465 -2.685313 -2.119481
N 1.246872 -3.308912 -2.297317
O -0.940466 -0.018393 -1.645475
H -0.726766 0.308144 -2.521387
H -1.798135 -0.448242 -1.706989
5
Structure 2617 | Energy: -10.834700 Hartree
N 2.132465 -2.685313 -2.119481
N 1.246872 -3.308912 -2.297317
O -1.032236 -0.055409 -1.697138
H -0.505496 0.149010 -2.471911
H -0.562827 0.298409 -0.936467
5
Structure 2618 | Energy: -10.834676 Hartree
N 2.132465 -2.685313 -2.119481
N 1.246872 -3.308912 -2.297317
O -1.032332 -0.055234 -1.697095
H -0.732840 0.558837 -2.369951
H -0.333949 -0.114182 -1.039115
5
Structure 2619 | Energy: -10.834783 Hartree
N 2.132465 -2.685313 -2.119481
N 1.246872 -3.308912 -2.297317
O -0.618974 0.216675 -1.391630
H -0.337708 0.799885 -2.098929
H 0.142629 0.078119 -0.821617
5
Structure 2620 | Energy: -10.834773 Hartree
N 2.119044 -2.808341 -2.147821
N 1.233452 -3.431940 -2.325657
O -0.618974 0.216675 -1.391630
H -0.337708 0.799885 -2.098929
H 0.142629 0.078119 -0.821617
5
Structure 2621 | Energy: -10.834835 Hartree
N -0.117825 0.553354 -1.310394
N -1.003418 -0.070245 -1.488230
O 1.617896 -3.145020 -2.229057
H 1.899161 -2.561811 -2.936356
H 2.379498 -3.283576 -1.659044
5
Structure 2622 | Energy: -10.834605 Hartree
N -0.117825 0.553354 -1.310394
N -1.003418 -0.070245 -1.488230
O 1.645532 -3.170675 -2.260941
H 2.093715 -2.484953 -2.759372
H 1.746310 -2.953246 -1.329964
5
Structure 2623 | Energy: -10.834616 Hartree
N -0.221004 0.509294 -1.342860
N -1.084917 -0.118896 -1.595463
O 1.645532 -3.170675 -2.260941
H 2.093715 -2.484953 -2.759372
H 1.746310 -2.953246 -1.329964
5
Structure 2624 | Energy: -10.834616 Hartree
N -0.221004 0.509294 -1.342860
N -1.084917 -0.118896 -1.595463
O 2.116958 -2.827880 -2.123099
H 1.572640 -2.863850 -2.911731
H 1.559723 -3.088921 -1.384521
5
Structure 2625 | Energy: -10.834615 Hartree
N -0.221089 0.503547 -1.318882
N -1.086774 -0.130066 -1.551044
O 2.116958 -2.827880 -2.123099
H 1.572640 -2.863850 -2.911731
H 1.559723 -3.088921 -1.384521
5
Structure 2626 | Energy: -10.834603 Hartree
N -0.311680 0.419942 -1.240767
N -1.159665 -0.230939 -1.489867
O 2.116958 -2.827880 -2.123099
H 1.572640 -2.863850 -2.911731
H 1.559723 -3.088921 -1.384521
5
Structure 2627 | Energy: -10.834592 Hartree
N -0.435925 0.328278 -1.248453
N -1.246403 -0.311891 -1.620048
O 2.116958 -2.827880 -2.123099
H 1.572640 -2.863850 -2.911731
H 1.559723 -3.088921 -1.384521
5
Structure 2628 | Energy: -10.834592 Hartree
N -0.435896 0.328219 -1.248414
N -1.246432 -0.311833 -1.620087
O 2.116958 -2.827880 -2.123099
H 1.572640 -2.863850 -2.911731
H 1.559723 -3.088921 -1.384521
5
Structure 2629 | Energy: -10.834624 Hartree
N -0.247884 0.552050 -1.677581
N -1.054582 -0.033770 -2.136740
O 2.116958 -2.827880 -2.123099
H 1.572640 -2.863850 -2.911731
H 1.559723 -3.088921 -1.384521
5
Structure 2630 | Energy: -10.834547 Hartree
N -0.247884 0.552050 -1.677581
N -1.054582 -0.033770 -2.136740
O 1.964013 -3.635342 -0.982518
H 1.419696 -3.671312 -1.771150
H 1.406778 -3.896384 -0.243940
5
Structure 2631 | Energy: -10.834704 Hartree
N 2.305727 -3.359051 -0.755739
N 1.499028 -3.944871 -1.214899
O -0.589597 0.275759 -1.904360
H -1.133915 0.239789 -2.692992
H -1.146832 0.014718 -1.165781
5
Structure 2632 | Energy: -10.834559 Hartree
N 2.305727 -3.359051 -0.755739
N 1.499028 -3.944871 -1.214899
O -0.704855 0.264786 -1.872871
H -0.625962 -0.124461 -2.745670
H 0.174588 0.553130 -1.612892
5
Structure 2633 | Energy: -10.834554 Hartree
N 2.360503 -3.336889 -0.830726
N 1.543312 -3.929429 -1.261853
O -0.704855 0.264786 -1.872871
H -0.625962 -0.124461 -2.745670
H 0.174588 0.553130 -1.612892
5
Structure 2634 | Energy: -10.834745 Hartree
N -0.242638 0.555410 -1.691597
N -1.059828 -0.037130 -2.122724
O 1.898285 -3.627513 -1.012000
H 1.977179 -4.016761 -1.884799
H 2.777728 -3.339169 -0.752021
5
Structure 2635 | Energy: -10.834577 Hartree
N -0.838915 1.372427 -1.650766
N -1.656106 0.779887 -2.081894
O 1.898285 -3.627513 -1.012000
H 1.977179 -4.016761 -1.884799
H 2.777728 -3.339169 -0.752021
5
Structure 2636 | Energy: -10.834578 Hartree
N -0.817283 1.372759 -1.635672
N -1.634474 0.780220 -2.066800
O 1.898285 -3.627513 -1.012000
H 1.977179 -4.016761 -1.884799
H 2.777728 -3.339169 -0.752021
5
Structure 2637 | Energy: -10.834577 Hartree
N -0.830232 1.383334 -1.626503
N -1.621524 0.769646 -2.075968
O 1.898285 -3.627513 -1.012000
H 1.977179 -4.016761 -1.884799
H 2.777728 -3.339169 -0.752021
5
Structure 2638 | Energy: -10.834577 Hartree
N -0.817413 1.382523 -1.649510
N -1.634343 0.770456 -2.052962
O 1.898285 -3.627513 -1.012000
H 1.977179 -4.016761 -1.884799
H 2.777728 -3.339169 -0.752021
5
Structure 2639 | Energy: -10.834581 Hartree
N -1.002458 1.294152 -1.474559
N -1.797396 0.666271 -1.897186
O 1.898285 -3.627513 -1.012000
H 1.977179 -4.016761 -1.884799
H 2.777728 -3.339169 -0.752021
5
Structure 2640 | Energy: -10.834575 Hartree
N -1.002458 1.294152 -1.474559
N -1.797396 0.666271 -1.897186
O 1.943073 -3.655752 -0.921739
H 2.021966 -4.044999 -1.794538
H 2.822516 -3.367408 -0.661760
5
Structure 2641 | Energy: -10.834645 Hartree
N -1.002458 1.294152 -1.474559
N -1.797396 0.666271 -1.897186
O 2.199303 -2.788166 -0.939906
H 2.278196 -3.177414 -1.812705
H 3.078746 -2.499822 -0.679927
5
Structure 2642 | Energy: -10.834659 Hartree
N -0.944379 1.234146 -1.463243
N -1.739317 0.606266 -1.885871
O 2.199303 -2.788166 -0.939906
H 2.278196 -3.177414 -1.812705
H 3.078746 -2.499822 -0.679927
5
Structure 2643 | Energy: -10.834660 Hartree
N -0.941753 1.237692 -1.451033
N -1.737075 0.611625 -1.875624
O 2.199303 -2.788166 -0.939906
H 2.278196 -3.177414 -1.812705
H 3.078746 -2.499822 -0.679927
5
Structure 2644 | Energy: -10.834468 Hartree
N 2.650586 -2.480779 -0.761900
N 1.855264 -3.106846 -1.186491
O -1.393036 0.930305 -1.629039
H -1.314142 0.541057 -2.501838
H -0.513593 1.218649 -1.369060
5
Structure 2645 | Energy: -10.834464 Hartree
N 2.622839 -2.549375 -0.914114
N 1.788908 -3.167517 -1.270812
O -1.393036 0.930305 -1.629039
H -1.314142 0.541057 -2.501838
H -0.513593 1.218649 -1.369060
5
Structure 2646 | Energy: -10.834465 Hartree
N 2.622551 -2.540879 -0.874303
N 1.793929 -3.160643 -1.240436
O -1.393036 0.930305 -1.629039
H -1.314142 0.541057 -2.501838
H -0.513593 1.218649 -1.369060
5
Structure 2647 | Energy: -10.834444 Hartree
N 3.094536 -1.973471 -1.143121
N 2.339808 -2.696835 -1.477645
O -1.393036 0.930305 -1.629039
H -1.314142 0.541057 -2.501838
H -0.513593 1.218649 -1.369060
5
Structure 2648 | Energy: -10.834450 Hartree
N 3.094536 -1.973471 -1.143121
N 2.339808 -2.696835 -1.477645
O -1.392230 0.929917 -1.627751
H -1.325619 0.514186 -2.489288
H -0.514910 1.251668 -1.402059
5
Structure 2649 | Energy: -10.834452 Hartree
N 3.094536 -1.973471 -1.143121
N 2.339808 -2.696835 -1.477645
O -1.382942 0.937487 -1.667424
H -1.333679 0.491865 -2.515074
H -0.500299 1.262464 -1.468723
5
Structure 2650 | Energy: -10.834467 Hartree
N 2.905757 -2.212801 -0.995172
N 2.168241 -2.862921 -1.483218
O -1.382942 0.937487 -1.667424
H -1.333679 0.491865 -2.515074
H -0.500299 1.262464 -1.468723
5
Structure 2651 | Energy: -10.834473 Hartree
N 2.853099 -2.047296 -1.020520
N 2.115583 -2.697416 -1.508567
O -1.382942 0.937487 -1.667424
H -1.333679 0.491865 -2.515074
H -0.500299 1.262464 -1.468723
5
Structure 2652 | Energy: -10.834475 Hartree
N 2.773607 -2.162361 -1.056162
N 2.036091 -2.812482 -1.544209
O -1.382942 0.937487 -1.667424
H -1.333679 0.491865 -2.515074
H -0.500299 1.262464 -1.468723
5
Structure 2653 | Energy: -10.834469 Hartree
N 2.773607 -2.162361 -1.056162
N 2.036091 -2.812482 -1.544209
O -1.460329 0.993463 -1.638698
H -1.411066 0.547841 -2.486348
H -0.577686 1.318440 -1.439997
5
Structure 2654 | Energy: -10.834470 Hartree
N 2.773607 -2.162361 -1.056162
N 2.036091 -2.812482 -1.544209
O -1.433652 1.024315 -1.623247
H -1.406594 0.562405 -2.463142
H -0.543965 1.344273 -1.449361
5
Structure 2655 | Energy: -10.834438 Hartree
N 3.748256 -2.503745 -1.482900
N 3.010741 -3.153865 -1.970946
O -1.433652 1.024315 -1.623247
H -1.406594 0.562405 -2.463142
H -0.543965 1.344273 -1.449361
5
Structure 2656 | Energy: -10.834441 Hartree
N 3.748256 -2.503745 -1.482900
N 3.010741 -3.153865 -1.970946
O -1.628422 0.756167 -2.030897
H -1.568148 0.216287 -2.821094
H -0.758549 1.138188 -1.884161
5
Structure 2657 | Energy: -10.834441 Hartree
N 3.742886 -2.376254 -1.566254
N 3.005371 -3.026374 -2.054300
O -1.628422 0.756167 -2.030897
H -1.568148 0.216287 -2.821094
H -0.758549 1.138188 -1.884161
5
Structure 2658 | Energy: -10.834441 Hartree
N 3.742886 -2.376254 -1.566254
N 3.005371 -3.026374 -2.054300
O -1.651480 0.700962 -2.253156
H -1.553368 0.157790 -3.037283
H -0.792386 1.093058 -2.073242
5
Structure 2659 | Energy: -10.834441 Hartree
N 3.742886 -2.376254 -1.566254
N 3.005371 -3.026374 -2.054300
O -1.406472 1.023654 -2.356935
H -1.364988 0.431157 -3.109757
H -0.517874 1.362400 -2.216236
5
Structure 2660 | Energy: -10.834441 Hartree
N 3.742886 -2.376254 -1.566254
N 3.005371 -3.026374 -2.054300
O -1.406331 1.023580 -2.356691
H -1.366250 0.426267 -3.105775
H -0.518851 1.368470 -2.224092
5
Structure 2661 | Energy: -10.834442 Hartree
N 3.742886 -2.376254 -1.566254
N 3.005371 -3.026374 -2.054300
O -1.340473 0.971898 -2.348600
H -1.300393 0.374585 -3.097684
H -0.452993 1.316788 -2.216001
5
Structure 2662 | Energy: -10.834444 Hartree
N 3.749951 -2.388675 -1.560861
N 2.998306 -3.013952 -2.059693
O -1.340473 0.971898 -2.348600
H -1.300393 0.374585 -3.097684
H -0.452993 1.316788 -2.216001
5
Structure 2663 | Energy: -10.834443 Hartree
N 3.760809 -2.383527 -1.563949
N 3.009164 -3.008804 -2.062781
O -1.363616 0.967647 -2.353189
H -1.323535 0.370334 -3.102273
H -0.476136 1.312537 -2.220590
5
Structure 2664 | Energy: -10.834443 Hartree
N 3.760809 -2.383527 -1.563949
N 3.009164 -3.008804 -2.062781
O -1.319695 0.977228 -2.271486
H -1.279615 0.379915 -3.020570
H -0.432216 1.322118 -2.138887
5
Structure 2665 | Energy: -10.834453 Hartree
N 3.152605 -2.626105 -1.294463
N 2.400960 -3.251382 -1.793295
O -1.319695 0.977228 -2.271486
H -1.279615 0.379915 -3.020570
H -0.432216 1.322118 -2.138887
5
Structure 2666 | Energy: -10.835701 Hartree
N 0.616504 -2.472773 1.909578
N 0.223176 -1.607635 1.359651
O 1.456951 -0.177280 -0.514463
H 1.898728 0.612827 -0.832180
H 0.525059 0.035200 -0.423762
5
Structure 2667 | Energy: -10.835662 Hartree
N 0.616504 -2.472773 1.909578
N 0.223176 -1.607635 1.359651
O 1.454376 -0.177631 -0.511150
H 1.938930 0.588975 -0.824044
H 0.525719 0.064612 -0.484483
5
Structure 2668 | Energy: -10.835821 Hartree
N -0.044607 -1.949856 1.356183
N 0.884287 -2.130551 1.913046
O 1.454376 -0.177631 -0.511150
H 1.938930 0.588975 -0.824044
H 0.525719 0.064612 -0.484483
5
Structure 2669 | Energy: -10.835179 Hartree
N -0.043904 -1.778492 2.632782
N 0.884991 -1.959186 3.189645
O 1.454376 -0.177631 -0.511150
H 1.938930 0.588975 -0.824044
H 0.525719 0.064612 -0.484483
5
Structure 2670 | Energy: -10.835533 Hartree
N -0.043904 -1.778492 2.632782
N 0.884991 -1.959186 3.189645
O 1.346968 -0.596546 -0.228295
H 1.831523 0.170060 -0.541190
H 0.418312 -0.354303 -0.201629
5
Structure 2671 | Energy: -10.835533 Hartree
N -0.043904 -1.778492 2.632782
N 0.884991 -1.959186 3.189645
O 1.346968 -1.055366 -0.377176
H 1.831523 -1.492200 -1.080571
H 0.418312 -1.267113 -0.497823
5
Structure 2672 | Energy: -10.835659 Hartree
N 0.494718 -2.327031 2.430876
N 1.423613 -2.507725 2.987738
O 1.346968 -1.055366 -0.377176
H 1.831523 -1.492200 -1.080571
H 0.418312 -1.267113 -0.497823
5
Structure 2673 | Energy: -10.835383 Hartree
N 0.528916 -2.082337 2.772796
N 1.389415 -2.752419 2.645818
O 1.346968 -1.055366 -0.377176
H 1.831523 -1.492200 -1.080571
H 0.418312 -1.267113 -0.497823
5
Structure 2674 | Energy: -10.835396 Hartree
N 0.528916 -2.082337 2.772796
N 1.389415 -2.752419 2.645818
O 1.346969 -1.055370 -0.377174
H 1.834735 -1.521718 -1.059071
H 0.415093 -1.237535 -0.519367
5
Structure 2675 | Energy: -10.835372 Hartree
N 0.399059 -2.242400 2.683048
N 1.292547 -2.871981 2.578651
O 1.346969 -1.055370 -0.377174
H 1.834735 -1.521718 -1.059071
H 0.415093 -1.237535 -0.519367
5
Structure 2676 | Energy: -10.834959 Hartree
N 0.399059 -2.242400 2.683048
N 1.292547 -2.871981 2.578651
O 1.285751 -1.124746 -0.463816
H 0.978058 -0.599393 0.277609
H 2.243428 -1.058723 -0.480862
5
Structure 2677 | Energy: -10.835339 Hartree
N 0.875376 -0.776866 -0.371086
N 1.768863 -1.406447 -0.475483
O 0.809434 -2.590280 2.590318
H 0.501741 -2.064927 3.331743
H 1.767112 -2.524257 2.573272
5
Structure 2678 | Energy: -10.834959 Hartree
N 0.399059 -2.242400 2.683048
N 1.292547 -2.871981 2.578651
O 1.285751 -1.124746 -0.463816
H 0.978058 -0.599393 0.277609
H 2.243428 -1.058723 -0.480862
5
Structure 2679 | Energy: -10.834878 Hartree
N 0.630500 -2.056173 2.804242
N 1.586617 -2.589135 2.718315
O 1.285751 -1.124746 -0.463816
H 0.978058 -0.599393 0.277609
H 2.243428 -1.058723 -0.480862
5
Structure 2680 | Energy: -10.835097 Hartree
N 0.832774 -2.791302 2.685721
N 1.384344 -1.854005 2.836836
O 1.285751 -1.124746 -0.463816
H 0.978058 -0.599393 0.277609
H 2.243428 -1.058723 -0.480862
5
Structure 2681 | Energy: -10.835363 Hartree
N 1.547125 -2.112350 2.506661
N 0.669992 -2.532957 3.015895
O 1.285751 -1.124746 -0.463816
H 0.978058 -0.599393 0.277609
H 2.243428 -1.058723 -0.480862
5
Structure 2682 | Energy: -10.835408 Hartree
N 1.486524 -2.178284 2.368426
N 0.609391 -2.598891 2.877660
O 1.285751 -1.124746 -0.463816
H 0.978058 -0.599393 0.277609
H 2.243428 -1.058723 -0.480862
5
Structure 2683 | Energy: -10.835408 Hartree
N 1.486524 -2.178284 2.368426
N 0.609391 -2.598891 2.877660
O 1.285730 -1.124496 -0.464000
H 0.978278 -0.602060 0.279582
H 2.243532 -1.060012 -0.479916
5
Structure 2684 | Energy: -10.834349 Hartree
N 1.486524 -2.178284 2.368426
N 0.609391 -2.598891 2.877660
O 0.710646 -1.907301 -0.244627
H 0.403194 -1.384864 0.498955
H 1.668448 -1.842816 -0.260543
5
Structure 2685 | Energy: -10.834504 Hartree
N 1.486524 -2.178284 2.368426
N 0.609391 -2.598891 2.877660
O 0.712829 -1.910288 -0.243995
H 0.369200 -1.369008 0.469669
H 1.667806 -1.811258 -0.241289
5
Structure 2686 | Energy: -10.834504 Hartree
N 1.486524 -2.178284 2.368426
N 0.609391 -2.598891 2.877660
O -1.276619 -2.864278 0.911011
H -0.984127 -2.017963 1.255365
H -1.599105 -3.377824 1.655369
5
Structure 2687 | Energy: -10.834568 Hartree
N 1.486524 -2.178284 2.368426
N 0.609391 -2.598891 2.877660
O -1.275294 -2.864069 0.910998
H -1.003589 -2.013684 1.262286
H -1.600663 -3.385417 1.648648
5
Structure 2688 | Energy: -10.835066 Hartree
N -0.839731 -2.635355 0.717311
N -1.716863 -3.055962 1.226545
O 1.050960 -2.406998 2.562113
H 1.322665 -1.556614 2.913401
H 0.725591 -2.928347 3.299762
5
Structure 2689 | Energy: -10.834560 Hartree
N -0.839731 -2.635355 0.717311
N -1.716863 -3.055962 1.226545
O 1.050848 -2.407023 2.562115
H 0.453954 -1.752588 2.930641
H 1.596071 -2.731974 3.282487
5
Structure 2690 | Energy: -10.834490 Hartree
N -0.825888 -2.657426 0.724355
N -1.730706 -3.033890 1.219501
O 1.050848 -2.407023 2.562115
H 0.453954 -1.752588 2.930641
H 1.596071 -2.731974 3.282487
5
Structure 2691 | Energy: -10.834519 Hartree
N -0.825888 -2.657426 0.724355
N -1.730706 -3.033890 1.219501
O 1.049764 -2.405624 2.561668
H 0.456080 -1.763766 2.956558
H 1.611157 -2.743002 3.263672
5
Structure 2692 | Energy: -10.834519 Hartree
N 0.624831 -1.070923 0.326674
N 0.998909 -0.048789 0.471241
O 1.049764 -2.405624 2.561668
H 0.456080 -1.763766 2.956558
H 1.611157 -2.743002 3.263672
5
Structure 2693 | Energy: -10.835502 Hartree
N 0.624831 -1.070923 0.326674
N 0.998909 -0.048789 0.471241
O -0.097443 -1.534609 3.057204
H -0.691128 -0.892751 3.452094
H 0.463950 -1.871986 3.759208
5
Structure 2694 | Energy: -10.834413 Hartree
N -0.286289 -2.028639 3.046295
N 0.087789 -1.006505 3.190862
O 0.813677 -0.576893 0.337582
H 0.219993 0.064965 0.732473
H 1.375070 -0.914270 1.039587
5
Structure 2695 | Energy: -10.835502 Hartree
N 0.624831 -1.070923 0.326674
N 0.998909 -0.048789 0.471241
O -0.097443 -1.534609 3.057204
H -0.691128 -0.892751 3.452094
H 0.463950 -1.871986 3.759208
5
Structure 2696 | Energy: -10.835640 Hartree
N 0.624831 -1.070923 0.326674
N 0.998909 -0.048789 0.471241
O 0.035061 -1.208482 3.195226
H -0.434299 -0.466372 3.581690
H 0.611589 -1.565231 3.875036
5
Structure 2697 | Energy: -10.835648 Hartree
N 0.624831 -1.070923 0.326674
N 0.998909 -0.048789 0.471241
O 0.033154 -1.207188 3.194995
H -0.389225 -0.446064 3.598314
H 0.596794 -1.606072 3.862076
5
Structure 2698 | Energy: -10.835681 Hartree
N 0.624831 -1.070923 0.326674
N 0.998909 -0.048789 0.471241
O -0.178902 -1.063110 3.157285
H -0.527236 -0.250567 3.529867
H 0.298637 -1.514798 3.857092
5
Structure 2699 | Energy: -10.834089 Hartree
N -0.358712 -1.553986 3.145005
N 0.015366 -0.531852 3.289573
O 0.804641 -0.580047 0.338954
H 0.456307 0.232496 0.711536
H 1.282180 -1.031735 1.038760
5
Structure 2700 | Energy: -10.834073 Hartree
N -0.358712 -1.553986 3.145005
N 0.015366 -0.531852 3.289573
O 0.807020 -0.582082 0.339435
H 0.393297 0.211132 0.685885
H 1.307432 -0.978081 1.056769
5
Structure 2701 | Energy: -10.834060 Hartree
N -0.358712 -1.553986 3.145005
N 0.015366 -0.531852 3.289573
O 0.807920 -0.583956 0.340102
H 0.382526 0.215345 0.657180
H 1.303916 -0.952549 1.074896
5
Structure 2702 | Energy: -10.834510 Hartree
N -0.400431 -1.632984 4.170524
N -0.026353 -0.610850 4.315091
O 0.807920 -0.583956 0.340102
H 0.382526 0.215345 0.657180
H 1.303916 -0.952549 1.074896
5
Structure 2703 | Energy: -10.834523 Hartree
N -0.400431 -1.632984 4.170524
N -0.026353 -0.610850 4.315091
O 0.887471 -0.418408 0.204174
H 0.462077 0.380893 0.521253
H 1.383467 -0.787001 0.938968
5
Structure 2704 | Energy: -10.834545 Hartree
N -0.400431 -1.632984 4.170524
N -0.026353 -0.610850 4.315091
O 0.832402 -0.448902 0.385581
H 0.407008 0.350399 0.702659
H 1.328398 -0.817496 1.120375
5
Structure 2705 | Energy: -10.834633 Hartree
N 1.162980 3.553361 -0.525405
N 0.217888 3.228722 -0.980378
O 0.832402 -0.448902 0.385581
H 0.407008 0.350399 0.702659
H 1.328398 -0.817496 1.120375
5
Structure 2706 | Energy: -10.834609 Hartree
N 0.509146 3.503806 -0.709702
N -0.385106 3.014474 -1.117695
O 0.832402 -0.448902 0.385581
H 0.407008 0.350399 0.702659
H 1.328398 -0.817496 1.120375
5
Structure 2707 | Energy: -10.834820 Hartree
N 1.283478 -0.180137 0.648434
N 0.389226 -0.669468 0.240440
O 0.058070 3.235040 -0.972555
H -0.367324 4.034341 -0.655476
H 0.554066 2.866446 -0.237760
5
Structure 2708 | Energy: -10.834834 Hartree
N 1.283478 -0.180137 0.648434
N 0.389226 -0.669468 0.240440
O 0.047880 3.234231 -0.920336
H -0.377514 4.033532 -0.603258
H 0.543876 2.865637 -0.185542
5
Structure 2709 | Energy: -10.834603 Hartree
N 0.498957 3.502996 -0.657484
N -0.395295 3.013665 -1.065477
O 0.832402 -0.448902 0.385581
H 0.407008 0.350399 0.702659
H 1.328398 -0.817496 1.120375
5
Structure 2710 | Energy: -10.834578 Hartree
N 0.498957 3.502996 -0.657484
N -0.395295 3.013665 -1.065477
O 0.638014 -0.501536 0.333432
H 0.310563 0.329739 0.682915
H 1.167849 -0.910243 1.021930
5
Structure 2711 | Energy: -10.834567 Hartree
N 0.478960 3.515137 -0.631244
N -0.375299 3.001523 -1.091716
O 0.638014 -0.501536 0.333432
H 0.310563 0.329739 0.682915
H 1.167849 -0.910243 1.021930
5
Structure 2712 | Energy: -10.835159 Hartree
N -0.977279 -3.652432 -1.681109
N 0.105171 -3.813478 -1.591901
O 0.638014 -0.501536 0.333432
H 0.310563 0.329739 0.682915
H 1.167849 -0.910243 1.021930
5
Structure 2713 | Energy: -10.834554 Hartree
N 0.108113 -0.397369 0.346907
N 1.190563 -0.558415 0.436115
O -0.447378 -3.756599 -1.694584
H -0.774829 -2.925324 -1.345101
H 0.082457 -4.165305 -1.006086
5
Structure 2714 | Energy: -10.835159 Hartree
N -0.977279 -3.652432 -1.681109
N 0.105171 -3.813478 -1.591901
O 0.638014 -0.501536 0.333432
H 0.310563 0.329739 0.682915
H 1.167849 -0.910243 1.021930
5
Structure 2715 | Energy: -10.834992 Hartree
N -0.977279 -3.652432 -1.681109
N 0.105171 -3.813478 -1.591901
O 0.760829 -0.033363 -0.065983
H 0.433378 0.797912 0.283500
H 1.290664 -0.442069 0.622515
5
Structure 2716 | Energy: -10.834463 Hartree
N -0.977279 -3.652432 -1.681109
N 0.105171 -3.813478 -1.591901
O 0.747306 0.047047 0.006952
H 0.438971 -0.546383 -0.680908
H 1.499714 -0.374032 0.429292
5
Structure 2717 | Energy: -10.834397 Hartree
N -0.977279 -3.652432 -1.681109
N 0.105171 -3.813478 -1.591901
O 0.304382 0.996902 0.848704
H -0.003953 0.403472 0.160844
H 1.056790 0.575823 1.271044
5
Structure 2718 | Energy: -10.834398 Hartree
N -0.977279 -3.652432 -1.681109
N 0.105171 -3.813478 -1.591901
O 0.361449 0.895259 0.813911
H 0.053114 0.301829 0.126051
H 1.113857 0.474181 1.236251
5
Structure 2719 | Energy: -10.834401 Hartree
N -0.977279 -3.652432 -1.681109
N 0.105171 -3.813478 -1.591901
O 0.359599 0.893847 0.815898
H 0.067813 0.313050 0.110266
H 1.128523 0.485376 1.220501
5
Structure 2720 | Energy: -10.834415 Hartree
N -0.977279 -3.652432 -1.681109
N 0.105171 -3.813478 -1.591901
O 0.624412 0.285581 1.215960
H 0.332626 -0.295216 0.510328
H 1.393335 -0.122890 1.620563
5
Structure 2721 | Energy: -10.834383 Hartree
N -0.977279 -3.652432 -1.681109
N 0.105171 -3.813478 -1.591901
O 0.177300 -0.251126 1.128004
H -0.114486 -0.831923 0.422371
H 0.946223 -0.659597 1.532607
5
Structure 2722 | Energy: -10.834377 Hartree
N -0.977279 -3.652432 -1.681109
N 0.105171 -3.813478 -1.591901
O 0.100677 -0.249709 1.142120
H -0.170815 -0.830576 0.428492
H 0.856064 -0.659435 1.570269
5
Structure 2723 | Energy: -10.834376 Hartree
N -0.264486 -2.929966 -2.149669
N 0.817963 -3.091011 -2.060461
O 0.100677 -0.249709 1.142120
H -0.170815 -0.830576 0.428492
H 0.856064 -0.659435 1.570269
5
Structure 2724 | Energy: -10.834389 Hartree
N -0.264486 -2.929966 -2.149669
N 0.817963 -3.091011 -2.060461
O -0.034142 0.496003 0.658557
H -0.305634 -0.084864 -0.055071
H 0.721245 0.086277 1.086706
5
Structure 2725 | Energy: -10.834388 Hartree
N -0.265297 -2.934250 -2.147296
N 0.818774 -3.086727 -2.062834
O -0.034142 0.496003 0.658557
H -0.305634 -0.084864 -0.055071
H 0.721245 0.086277 1.086706
5
Structure 2726 | Energy: -10.834390 Hartree
N -0.265297 -2.934250 -2.147296
N 0.818774 -3.086727 -2.062834
O -0.033478 0.496108 0.659290
H -0.315958 -0.075190 -0.057791
H 0.721031 0.074951 1.077787
5
Structure 2727 | Energy: -10.834383 Hartree
N -0.375359 -2.968803 -2.259144
N 0.708712 -3.121280 -2.174683
O -0.033478 0.496108 0.659290
H -0.315958 -0.075190 -0.057791
H 0.721031 0.074951 1.077787
5
Structure 2728 | Energy: -10.834382 Hartree
N -0.380085 -2.926824 -2.305493
N 0.703985 -3.079301 -2.221032
O -0.033478 0.496108 0.659290
H -0.315958 -0.075190 -0.057791
H 0.721031 0.074951 1.077787
5
Structure 2729 | Energy: -10.834916 Hartree
N -0.549101 0.516815 0.600353
N 0.534969 0.364338 0.684814
O 0.135538 -2.947531 -2.246556
H -0.146941 -3.518828 -2.963637
H 0.890047 -3.368688 -1.828059
5
Structure 2730 | Energy: -10.834919 Hartree
N -0.768721 0.567282 0.472047
N 0.325288 0.502422 0.539341
O 0.135538 -2.947531 -2.246556
H -0.146941 -3.518828 -2.963637
H 0.890047 -3.368688 -1.828059
5
Structure 2731 | Energy: -10.834915 Hartree
N -0.653670 0.467328 0.632697
N 0.437955 0.366079 0.693491
O 0.135538 -2.947531 -2.246556
H -0.146941 -3.518828 -2.963637
H 0.890047 -3.368688 -1.828059
5
Structure 2732 | Energy: -10.834912 Hartree
N -0.630343 0.398235 0.719835
N 0.461351 0.293170 0.772342
O 0.135538 -2.947531 -2.246556
H -0.146941 -3.518828 -2.963637
H 0.890047 -3.368688 -1.828059
5
Structure 2733 | Energy: -10.834918 Hartree
N -0.626615 0.425024 0.711250
N 0.457622 0.266381 0.780927
O 0.135538 -2.947531 -2.246556
H -0.146941 -3.518828 -2.963637
H 0.890047 -3.368688 -1.828059
5
Structure 2734 | Energy: -10.834911 Hartree
N -0.626615 0.425024 0.711250
N 0.457622 0.266381 0.780927
O -0.061288 -2.744886 -2.462875
H -0.388890 -3.267128 -3.197940
H 0.713472 -3.194749 -2.117670
5
Structure 2735 | Energy: -10.834385 Hartree
N -0.578386 -2.719958 -2.519527
N 0.505851 -2.878600 -2.449851
O -0.109516 0.400095 0.767902
H -0.437119 -0.122147 0.032837
H 0.665244 -0.049768 1.113107
5
Structure 2736 | Energy: -10.834911 Hartree
N -0.626615 0.425024 0.711250
N 0.457622 0.266381 0.780927
O -0.061288 -2.744886 -2.462875
H -0.388890 -3.267128 -3.197940
H 0.713472 -3.194749 -2.117670
5
Structure 2737 | Energy: -10.834385 Hartree
N -0.578386 -2.719958 -2.519527
N 0.505851 -2.878600 -2.449851
O -0.109516 0.400095 0.767902
H -0.437119 -0.122147 0.032837
H 0.665244 -0.049768 1.113107
5
Structure 2738 | Energy: -10.834385 Hartree
N -0.578386 -2.719958 -2.519527
N 0.505851 -2.878600 -2.449851
O 0.248659 -0.332501 1.188060
H -0.078943 -0.854743 0.452995
H 1.023419 -0.782363 1.533265
5
Structure 2739 | Energy: -10.834894 Hartree
N -0.268439 -0.307572 1.131408
N 0.815797 -0.466214 1.201085
O -0.061288 -2.744886 -2.462875
H -0.388890 -3.267128 -3.197940
H 0.713472 -3.194749 -2.117670
5
Structure 2740 | Energy: -10.834894 Hartree
N -0.266839 -0.299605 1.126008
N 0.814197 -0.474181 1.206485
O -0.061288 -2.744886 -2.462875
H -0.388890 -3.267128 -3.197940
H 0.713472 -3.194749 -2.117670
5
Structure 2741 | Energy: -10.834385 Hartree
N -0.576786 -2.711991 -2.524927
N 0.504250 -2.886566 -2.444451
O 0.248659 -0.332501 1.188060
H -0.078943 -0.854743 0.452995
H 1.023419 -0.782363 1.533265
5
Structure 2742 | Energy: -10.834387 Hartree
N -0.577206 -2.716342 -2.528337
N 0.504671 -2.882215 -2.441041
O 0.248659 -0.332501 1.188060
H -0.078943 -0.854743 0.452995
H 1.023419 -0.782363 1.533265
5
Structure 2743 | Energy: -10.834449 Hartree
N -1.241984 -2.362747 -2.475137
N -0.160107 -2.528620 -2.387842
O 0.248659 -0.332501 1.188060
H -0.078943 -0.854743 0.452995
H 1.023419 -0.782363 1.533265
5
Structure 2744 | Energy: -10.834420 Hartree
N -1.241089 -2.348335 -2.448041
N -0.161002 -2.543031 -2.414938
O 0.248659 -0.332501 1.188060
H -0.078943 -0.854743 0.452995
H 1.023419 -0.782363 1.533265
5
Structure 2745 | Energy: -10.834341 Hartree
N -0.785759 -2.980431 -2.340568
N -0.616333 -1.910936 -2.522411
O 0.248659 -0.332501 1.188060
H -0.078943 -0.854743 0.452995
H 1.023419 -0.782363 1.533265
5
Structure 2746 | Energy: -10.834339 Hartree
N -0.736100 -2.987465 -2.349996
N -0.665992 -1.903901 -2.512983
O 0.248659 -0.332501 1.188060
H -0.078943 -0.854743 0.452995
H 1.023419 -0.782363 1.533265
5
Structure 2747 | Energy: -10.834983 Hartree
N 0.238625 -0.928675 1.247740
N 0.308733 0.154889 1.084753
O -0.726066 -2.391291 -2.409675
H -1.053668 -2.913533 -3.144741
H 0.048694 -2.841154 -2.064471
5
Structure 2748 | Energy: -10.834996 Hartree
N 0.238625 -0.928675 1.247740
N 0.308733 0.154889 1.084753
O -0.720475 -2.379482 -2.389039
H -1.048077 -2.901724 -3.124105
H 0.054285 -2.829345 -2.043835
5
Structure 2749 | Energy: -10.835300 Hartree
N 0.493151 -1.903915 0.775797
N 0.563260 -0.820351 0.612811
O -0.720475 -2.379482 -2.389039
H -1.048077 -2.901724 -3.124105
H 0.054285 -2.829345 -2.043835
5
Structure 2750 | Energy: -10.833996 Hartree
N -0.730509 -2.975657 -2.329360
N -0.660401 -1.892092 -2.492347
O 0.503185 -1.307740 0.716118
H 0.175583 -1.829982 -0.018947
H 1.277945 -1.757603 1.061323
5
Structure 2751 | Energy: -10.834610 Hartree
N -0.651827 -2.140116 -2.801337
N -0.581719 -1.056552 -2.964324
O 0.503185 -1.307740 0.716118
H 0.175583 -1.829982 -0.018947
H 1.277945 -1.757603 1.061323
5
Structure 2752 | Energy: -10.834858 Hartree
N 0.493151 -1.903915 0.775797
N 0.563260 -0.820351 0.612811
O -0.641793 -1.543941 -2.861016
H -0.969396 -2.066183 -3.596081
H 0.132967 -1.993804 -2.515812
5
Structure 2753 | Energy: -10.834767 Hartree
N 0.493151 -1.903915 0.775797
N 0.563260 -0.820351 0.612811
O -0.876043 -1.062247 -2.766969
H -1.283040 -1.475944 -3.530899
H -0.111487 -1.592545 -2.530253
5
Structure 2754 | Energy: -10.835337 Hartree
N 0.493151 -1.903915 0.775797
N 0.563260 -0.820351 0.612811
O -0.864628 -1.117846 -2.733390
H -1.355500 -1.607559 -3.396419
H -0.220201 -0.578467 -3.197696
5
Structure 2755 | Energy: -10.835328 Hartree
N 0.526308 -1.907486 0.757425
N 0.530103 -0.816780 0.631184
O -0.864628 -1.117846 -2.733390
H -1.355500 -1.607559 -3.396419
H -0.220201 -0.578467 -3.197696
5
Structure 2756 | Energy: -10.835396 Hartree
N 0.490579 -1.934983 0.672870
N 0.494374 -0.844277 0.546629
O -0.864628 -1.117846 -2.733390
H -1.355500 -1.607559 -3.396419
H -0.220201 -0.578467 -3.197696
5
Structure 2757 | Energy: -10.835401 Hartree
N 0.490579 -1.934983 0.672870
N 0.494374 -0.844277 0.546629
O -1.107793 -1.329460 -2.634892
H -1.655344 -1.854667 -3.222026
H -0.491209 -0.839401 -3.183948
5
Structure 2758 | Energy: -10.835478 Hartree
N 0.490579 -1.934983 0.672870
N 0.494374 -0.844277 0.546629
O -1.066947 -1.330949 -2.550249
H -1.614498 -1.856156 -3.137383
H -0.450364 -0.840890 -3.099305
5
Structure 2759 | Energy: -10.835293 Hartree
N 0.569088 -0.977229 0.634497
N 0.572883 0.113477 0.508256
O -1.066947 -1.330949 -2.550249
H -1.614498 -1.856156 -3.137383
H -0.450364 -0.840890 -3.099305
5
Structure 2760 | Energy: -10.835188 Hartree
N 0.569088 -0.977229 0.634497
N 0.572883 0.113477 0.508256
O -1.030810 -1.281618 -2.633504
H -0.765446 -2.197054 -2.742779
H -1.872984 -1.282969 -2.172485
5
Structure 2761 | Energy: -10.834990 Hartree
N 0.569088 -0.977229 0.634497
N 0.572883 0.113477 0.508256
O -1.116603 -1.350176 -2.583851
H -0.834861 -0.452901 -2.773322
H -0.441868 -1.938977 -2.930032
5
Structure 2762 | Energy: -10.835019 Hartree
N 0.542603 -0.991833 0.582872
N 0.546398 0.098874 0.456631
O -1.116603 -1.350176 -2.583851
H -0.834861 -0.452901 -2.773322
H -0.441868 -1.938977 -2.930032
5
Structure 2763 | Energy: -10.835019 Hartree
N 0.542603 -0.991833 0.582872
N 0.546398 0.098874 0.456631
O -1.112824 -0.264221 -2.709542
H -0.837401 -1.182967 -2.688822
H -0.434337 0.225290 -3.180529
5
Structure 2764 | Energy: -10.835015 Hartree
N 0.542603 -0.991833 0.582872
N 0.546398 0.098874 0.456631
O -1.335079 -0.187701 -2.580006
H -1.049872 -1.103308 -2.606519
H -0.695825 0.323701 -3.081622
5
Structure 2765 | Energy: -10.835008 Hartree
N 0.542603 -0.991833 0.582872
N 0.546398 0.098874 0.456631
O -1.335390 -0.187541 -2.580684
H -1.049460 -1.103135 -2.598348
H -0.691293 0.320974 -3.079028
5
Structure 2766 | Energy: -10.835008 Hartree
N 0.545608 -0.987361 0.569195
N 0.549403 0.103346 0.442954
O -1.327377 -0.185147 -2.600734
H -1.041446 -1.100741 -2.618398
H -0.683280 0.323368 -3.099079
5
Structure 2767 | Energy: -10.835236 Hartree
N 0.545608 -0.987361 0.569195
N 0.549403 0.103346 0.442954
O -1.310571 -0.238174 -2.585972
H -1.474468 0.637539 -2.941845
H -0.516998 -0.573262 -3.009944
5
Structure 2768 | Energy: -10.835245 Hartree
N 0.545608 -0.987361 0.569195
N 0.549403 0.103346 0.442954
O -1.015107 -0.150126 -2.738582
H -1.200579 0.735428 -3.057602
H -0.164524 -0.410087 -3.100140
5
Structure 2769 | Energy: -10.835205 Hartree
N 0.545608 -0.987361 0.569195
N 0.549403 0.103346 0.442954
O -1.457567 0.567345 -2.171385
H -1.643038 1.452899 -2.490406
H -0.606984 0.307384 -2.532943
5
Structure 2770 | Energy: -10.834833 Hartree
N 1.578200 -0.913520 0.536820
N 1.581995 0.177187 0.410579
O -1.457567 0.567345 -2.171385
H -1.643038 1.452899 -2.490406
H -0.606984 0.307384 -2.532943
5
Structure 2771 | Energy: -10.834826 Hartree
N 1.578200 -0.913520 0.536820
N 1.581995 0.177187 0.410579
O -1.458070 0.567629 -2.171620
H -1.642713 1.447693 -2.505947
H -0.599332 0.308080 -2.513672
5
Structure 2772 | Energy: -10.834817 Hartree
N 1.578200 -0.913520 0.536820
N 1.581995 0.177187 0.410579
O -1.457596 0.568641 -2.170260
H -1.660595 1.425600 -2.550778
H -0.588973 0.314110 -2.490424
5
Structure 2773 | Energy: -10.834529 Hartree
N -1.422249 0.056996 -2.146345
N -1.418454 1.147702 -2.272586
O 1.542853 -0.401874 0.512905
H 1.339854 0.455084 0.132387
H 2.411476 -0.656405 0.192741
5
Structure 2774 | Energy: -10.834525 Hartree
N -1.422249 0.056996 -2.146345
N -1.418454 1.147702 -2.272586
O 1.574405 -0.412080 0.541120
H 1.371405 0.444879 0.160602
H 2.443027 -0.666610 0.220956
5
Structure 2775 | Energy: -10.834537 Hartree
N -1.422249 0.056996 -2.146345
N -1.418454 1.147702 -2.272586
O 1.604955 -0.363089 0.541074
H 1.401956 0.493870 0.160555
H 2.473578 -0.617619 0.220910
5
Structure 2776 | Energy: -10.834536 Hartree
N -1.422764 0.057175 -2.144830
N -1.417939 1.147522 -2.274101
O 1.604955 -0.363089 0.541074
H 1.401956 0.493870 0.160555
H 2.473578 -0.617619 0.220910
5
Structure 2777 | Energy: -10.834543 Hartree
N -1.422764 0.057175 -2.144830
N -1.417939 1.147522 -2.274101
O 1.252497 -0.354803 0.887268
H 1.150620 0.482731 0.430607
H 2.125977 -0.690865 0.673048
5
Structure 2778 | Energy: -10.834776 Hartree
N 1.293258 -0.871917 0.914366
N 1.298083 0.218430 0.785095
O -1.463526 0.574290 -2.171928
H -1.565402 1.411823 -2.628589
H -0.590045 0.238228 -2.386148
5
Structure 2779 | Energy: -10.834801 Hartree
N 1.240263 -0.853789 0.854674
N 1.245087 0.236558 0.725404
O -1.463526 0.574290 -2.171928
H -1.565402 1.411823 -2.628589
H -0.590045 0.238228 -2.386148
5
Structure 2780 | Energy: -10.835016 Hartree
N 1.240263 -0.853789 0.854674
N 1.245087 0.236558 0.725404
O -1.433213 0.551817 -2.172839
H -2.016331 1.294485 -2.342539
H -0.620232 0.712258 -2.657726
5
Structure 2781 | Energy: -10.835263 Hartree
N 1.170291 -1.047792 0.253724
N 1.175116 0.042555 0.124453
O -1.433213 0.551817 -2.172839
H -2.016331 1.294485 -2.342539
H -0.620232 0.712258 -2.657726
5
Structure 2782 | Energy: -10.835187 Hartree
N 1.170291 -1.047792 0.253724
N 1.175116 0.042555 0.124453
O -1.530795 0.556281 -2.236605
H -2.113912 1.298950 -2.406305
H -0.717813 0.716723 -2.721491
5
Structure 2783 | Energy: -10.835187 Hartree
N 1.170291 -1.047792 0.253724
N 1.175116 0.042555 0.124453
O -2.233403 -1.686298 1.334295
H -2.628099 -2.381950 1.864073
H -2.171770 -2.014806 0.434250
5
Structure 2784 | Energy: -10.835388 Hartree
N 1.170291 -1.047792 0.253724
N 1.175116 0.042555 0.124453
O -2.233280 -1.686306 1.334203
H -1.666462 -2.437983 1.149595
H -3.135364 -1.958659 1.150183
5
Structure 2785 | Energy: -10.835072 Hartree
N 0.930232 -0.160568 -0.445255
N 0.935056 0.929779 -0.574526
O -2.233280 -1.686306 1.334203
H -1.666462 -2.437983 1.149595
H -3.135364 -1.958659 1.150183
5
Structure 2786 | Energy: -10.834988 Hartree
N 1.201379 -0.090816 -0.453729
N 0.663909 0.860026 -0.566053
O -2.233280 -1.686306 1.334203
H -1.666462 -2.437983 1.149595
H -3.135364 -1.958659 1.150183
5
Structure 2787 | Energy: -10.834988 Hartree
N 1.201379 -0.090816 -0.453729
N 0.663909 0.860026 -0.566053
O -2.180310 -0.560405 2.160109
H -2.569636 0.223356 1.767011
H -2.884000 -1.205037 2.265301
5
Structure 2788 | Energy: -10.834992 Hartree
N 1.192354 -0.098372 -0.483784
N 0.672934 0.867583 -0.535997
O -2.180310 -0.560405 2.160109
H -2.569636 0.223356 1.767011
H -2.884000 -1.205037 2.265301
5
Structure 2789 | Energy: -10.835220 Hartree
N 0.921804 0.011628 -0.111357
N 0.402384 0.977582 -0.163570
O -2.180310 -0.560405 2.160109
H -2.569636 0.223356 1.767011
H -2.884000 -1.205037 2.265301
5
Structure 2790 | Energy: -10.835221 Hartree
N 0.917180 0.008688 -0.122853
N 0.407008 0.980522 -0.152073
O -2.180310 -0.560405 2.160109
H -2.569636 0.223356 1.767011
H -2.884000 -1.205037 2.265301
5
Structure 2791 | Energy: -10.835225 Hartree
N 0.931756 0.008186 -0.102528
N 0.392250 0.961213 -0.181670
O -2.180310 -0.560405 2.160109
H -2.569636 0.223356 1.767011
H -2.884000 -1.205037 2.265301
5
Structure 2792 | Energy: -10.834526 Hartree
N -1.971715 -1.029134 2.183571
N -2.511221 -0.076106 2.104429
O 0.723161 0.476915 -0.125990
H 0.333835 1.260675 -0.519087
H 0.019472 -0.167718 -0.020798
5
Structure 2793 | Energy: -10.834453 Hartree
N -2.600627 -1.927872 2.718056
N -3.140132 -0.974845 2.638914
O 0.723161 0.476915 -0.125990
H 0.333835 1.260675 -0.519087
H 0.019472 -0.167718 -0.020798
5
Structure 2794 | Energy: -10.834457 Hartree
N -2.529340 -1.888801 2.661134
N -3.068846 -0.935773 2.581992
O 0.723161 0.476915 -0.125990
H 0.333835 1.260675 -0.519087
H 0.019472 -0.167718 -0.020798
5
Structure 2795 | Energy: -10.834457 Hartree
N -2.529340 -1.888801 2.661134
N -3.068846 -0.935773 2.581992
O 0.828441 0.290940 -0.110546
H 1.323470 -0.487497 -0.373915
H -0.092765 0.030545 -0.037262
5
Structure 2796 | Energy: -10.834458 Hartree
N -2.529340 -1.888801 2.661134
N -3.068846 -0.935773 2.581992
O 0.885964 0.285886 -0.035686
H 1.391228 -0.492227 -0.279877
H -0.035447 0.021320 0.017267
5
Structure 2797 | Energy: -10.834466 Hartree
N -2.544377 -1.772231 2.830808
N -3.083883 -0.819203 2.751666
O 0.885964 0.285886 -0.035686
H 1.391228 -0.492227 -0.279877
H -0.035447 0.021320 0.017267
5
Structure 2798 | Energy: -10.834457 Hartree
N -2.562450 -1.778847 2.859356
N -3.065810 -0.812586 2.723119
O 0.885964 0.285886 -0.035686
H 1.391228 -0.492227 -0.279877
H -0.035447 0.021320 0.017267
5
Structure 2799 | Energy: -10.834688 Hartree
N -2.562450 -1.778847 2.859356
N -3.065810 -0.812586 2.723119
O 0.816007 0.268153 -0.031117
H 1.750331 0.475022 -0.099123
H 0.715798 -0.664465 -0.236004
5
Structure 2800 | Energy: -10.834449 Hartree
N 1.114359 -0.255586 0.021732
N 0.610999 0.710675 -0.114505
O -2.860802 -1.255109 2.806506
H -1.926478 -1.048240 2.738501
H -2.961011 -2.187726 2.601620
5
Structure 2801 | Energy: -10.834452 Hartree
N 1.114359 -0.255586 0.021732
N 0.610999 0.710675 -0.114505
O -2.812865 -1.235249 2.769510
H -1.878541 -1.028380 2.701505
H -2.913074 -2.167866 2.564624
5
Structure 2802 | Energy: -10.834430 Hartree
N 1.114359 -0.255586 0.021732
N 0.610999 0.710675 -0.114505
O -3.067843 -1.050171 2.502554
H -2.122354 -0.887603 2.500879
H -3.197049 -1.977869 2.291655
5
Structure 2803 | Energy: -10.834544 Hartree
N 0.773883 -0.303804 -0.152129
N 0.951474 0.758894 0.059357
O -3.067843 -1.050171 2.502554
H -2.122354 -0.887603 2.500879
H -3.197049 -1.977869 2.291655
5
Structure 2804 | Energy: -10.834547 Hartree
N 0.773883 -0.303804 -0.152129
N 0.951474 0.758894 0.059357
O -3.049621 -1.077881 2.516509
H -2.103645 -0.918338 2.509082
H -3.183771 -2.001694 2.292078
5
Structure 2805 | Energy: -10.834510 Hartree
N 1.396944 0.322802 0.036588
N 0.328414 0.132287 -0.129361
O -3.049621 -1.077881 2.516509
H -2.103645 -0.918338 2.509082
H -3.183771 -2.001694 2.292078
5
Structure 2806 | Energy: -10.834509 Hartree
N 1.396944 0.322802 0.036588
N 0.328414 0.132287 -0.129361
O -3.051795 -1.079840 2.514930
H -2.115715 -0.870672 2.495373
H -3.137191 -2.018254 2.330854
5
Structure 2807 | Energy: -10.834610 Hartree
N 0.811272 0.447192 0.848250
N -0.257258 0.256677 0.682301
O -3.051795 -1.079840 2.514930
H -2.115715 -0.870672 2.495373
H -3.137191 -2.018254 2.330854
5
Structure 2808 | Energy: -10.835237 Hartree
N 0.811272 0.447192 0.848250
N -0.257258 0.256677 0.682301
O -2.981493 -1.170531 2.536035
H -3.151153 -1.135945 1.592425
H -3.217600 -0.313536 2.898815
5
Structure 2809 | Energy: -10.835205 Hartree
N 0.859636 0.422421 0.816289
N -0.208894 0.231906 0.650340
O -2.989565 -1.193041 2.460196
H -3.159226 -1.158454 1.516586
H -3.225672 -0.336046 2.822975
5
Structure 2810 | Energy: -10.835221 Hartree
N 0.859636 0.422421 0.816289
N -0.208894 0.231906 0.650340
O -2.987927 -1.192892 2.459224
H -3.130031 -1.133984 1.512273
H -3.280863 -0.362880 2.842713
5
Structure 2811 | Energy: -10.834359 Hartree
N -2.478004 -1.047896 2.510671
N -3.546534 -1.238412 2.344722
O 0.349713 0.277426 0.764842
H 0.207610 0.336334 -0.182110
H 0.056777 1.107438 1.148331
5
Structure 2812 | Energy: -10.834348 Hartree
N -2.478004 -1.047896 2.510671
N -3.546534 -1.238412 2.344722
O 0.347907 0.276549 0.764789
H 0.167492 0.327206 -0.176096
H 0.125555 1.130479 1.143153
5
Structure 2813 | Energy: -10.834408 Hartree
N -2.478004 -1.047896 2.510671
N -3.546534 -1.238412 2.344722
O 0.067005 0.990816 0.450291
H -0.113410 1.041473 -0.490594
H -0.155348 1.844745 0.828655
5
Structure 2814 | Energy: -10.834754 Hartree
N -2.478004 -1.047896 2.510671
N -3.546534 -1.238412 2.344722
O -0.697295 0.112943 -0.229088
H -0.877711 0.163600 -1.169973
H -0.919648 0.966873 0.149276
5
Structure 2815 | Energy: -10.834576 Hartree
N -2.478004 -1.047896 2.510671
N -3.546534 -1.238412 2.344722
O 0.283493 -0.405586 -0.195331
H 0.103078 -0.354929 -1.136216
H 0.061140 0.448344 0.183033
5
Structure 2816 | Energy: -10.834588 Hartree
N -2.478004 -1.047896 2.510671
N -3.546534 -1.238412 2.344722
O 0.224683 -0.419747 -0.147637
H 0.044268 -0.369090 -1.088523
H 0.002331 0.434183 0.230727
5
Structure 2817 | Energy: -10.835105 Hartree
N -2.478004 -1.047896 2.510671
N -3.546534 -1.238412 2.344722
O 0.179462 -0.374598 -0.238408
H 0.210215 0.427412 0.287155
H 0.554133 -1.078931 0.295757
5
Structure 2818 | Energy: -10.835068 Hartree
N -2.478004 -1.047896 2.510671
N -3.546534 -1.238412 2.344722
O 0.094231 0.407009 -0.129452
H 0.124984 1.209019 0.396111
H 0.468902 -0.297325 0.404713
5
Structure 2819 | Energy: -10.835040 Hartree
N -2.206605 -0.817076 2.909859
N -3.275135 -1.007591 2.743910
O 0.094231 0.407009 -0.129452
H 0.124984 1.209019 0.396111
H 0.468902 -0.297325 0.404713
5
Structure 2820 | Energy: -10.835039 Hartree
N -2.206605 -0.817076 2.909859
N -3.275135 -1.007591 2.743910
O 0.095503 0.404003 -0.129571
H 0.087273 1.225224 0.366321
H 0.486419 -0.265814 0.436402
5
Structure 2821 | Energy: -10.835040 Hartree
N -2.198640 -0.840788 2.906179
N -3.265590 -1.039171 2.739283
O 0.095503 0.404003 -0.129571
H 0.087273 1.225224 0.366321
H 0.486419 -0.265814 0.436402
5
Structure 2822 | Energy: -10.835042 Hartree
N -2.198640 -0.840788 2.906179
N -3.265590 -1.039171 2.739283
O 0.094165 0.405186 -0.129230
H 0.119322 1.221649 0.373897
H 0.475613 -0.281025 0.423406
5
Structure 2823 | Energy: -10.835080 Hartree
N -2.153754 -0.819480 2.860602
N -3.220704 -1.017863 2.693706
O 0.094165 0.405186 -0.129230
H 0.119322 1.221649 0.373897
H 0.475613 -0.281025 0.423406
5
Structure 2824 | Energy: -10.835012 Hartree
N -3.054959 -0.088367 2.182512
N -4.121908 -0.286750 2.015616
O 0.094165 0.405186 -0.129230
H 0.119322 1.221649 0.373897
H 0.475613 -0.281025 0.423406
5
Structure 2825 | Energy: -10.834286 Hartree
N 0.650391 0.511666 0.013292
N -0.416559 0.313283 -0.153604
O -3.611184 -0.194846 2.039991
H -3.586028 0.621616 2.543118
H -3.229737 -0.881058 2.592627
5
Structure 2826 | Energy: -10.834285 Hartree
N 0.650391 0.511666 0.013292
N -0.416559 0.313283 -0.153604
O -3.568967 -0.755944 1.871327
H -3.692407 0.055307 2.368332
H -3.113345 -1.375075 2.446550
5
Structure 2827 | Energy: -10.834285 Hartree
N 0.415339 1.091865 -0.018882
N -0.482844 0.476901 -0.162677
O -3.568967 -0.755944 1.871327
H -3.692407 0.055307 2.368332
H -3.113345 -1.375075 2.446550
5
Structure 2828 | Energy: -10.834990 Hartree
N -3.101288 -0.437713 2.003219
N -3.999472 -1.052676 1.859424
O -0.052339 0.773633 -0.150774
H -0.175779 1.584885 0.346231
H 0.403283 0.154502 0.424448
5
Structure 2829 | Energy: -10.835306 Hartree
N -3.101288 -0.437713 2.003219
N -3.999472 -1.052676 1.859424
O -0.052384 0.773497 -0.150736
H -0.524727 0.523408 0.645962
H 0.752942 1.218140 0.124107
5
Structure 2830 | Energy: -10.835669 Hartree
N -3.101288 -0.437713 2.003219
N -3.999472 -1.052676 1.859424
O -1.133335 0.232198 -0.315692
H -1.605678 -0.017891 0.481006
H -0.328009 0.676841 -0.040850
5
Structure 2831 | Energy: -10.835666 Hartree
N -3.083773 -0.456546 2.012780
N -3.978767 -1.076951 1.872510
O -1.133335 0.232198 -0.315692
H -1.605678 -0.017891 0.481006
H -0.328009 0.676841 -0.040850
5
Structure 2832 | Energy: -10.835445 Hartree
N -3.083773 -0.456546 2.012780
N -3.978767 -1.076951 1.872510
O -1.217085 0.239057 -0.545584
H -1.689429 -0.011032 0.251115
H -0.411760 0.683700 -0.270741
5
Structure 2833 | Energy: -10.835355 Hartree
N -3.083773 -0.456546 2.012780
N -3.978767 -1.076951 1.872510
O 0.056118 0.020686 0.157563
H -0.416225 -0.229402 0.954262
H 0.861444 0.465330 0.432406
5
Structure 2834 | Energy: -10.835356 Hartree
N -3.083773 -0.456546 2.012780
N -3.978767 -1.076951 1.872510
O 0.054983 0.020474 0.157967
H -0.405259 -0.221013 0.964343
H 0.868491 0.460318 0.415916
5
Structure 2835 | Energy: -10.835344 Hartree
N -3.151878 -0.541474 1.860073
N -4.020222 -1.189014 1.680459
O 0.054983 0.020474 0.157967
H -0.405259 -0.221013 0.964343
H 0.868491 0.460318 0.415916
5
Structure 2836 | Energy: -10.835412 Hartree
N -3.151878 -0.541474 1.860073
N -4.020222 -1.189014 1.680459
O -0.014577 0.003433 0.187471
H -0.474819 -0.238054 0.993847
H 0.798931 0.443277 0.445420
5
Structure 2837 | Energy: -10.835430 Hartree
N -3.154737 -0.587759 1.837700
N -4.023043 -1.229290 1.637511
O -0.014577 0.003433 0.187471
H -0.474819 -0.238054 0.993847
H 0.798931 0.443277 0.445420
5
Structure 2838 | Energy: -10.834867 Hartree
N -3.945204 -1.265216 1.954882
N -3.232575 -0.551833 1.520329
O -0.014577 0.003433 0.187471
H -0.474819 -0.238054 0.993847
H 0.798931 0.443277 0.445420
5
Structure 2839 | Energy: -10.835620 Hartree
N -3.945204 -1.265216 1.954882
N -3.232575 -0.551833 1.520329
O 0.033657 -0.040974 0.260030
H -0.689441 0.355945 0.749894
H 0.247991 0.554102 -0.462286
5
Structure 2840 | Energy: -10.834324 Hartree
N -3.917434 -0.484002 1.852656
N -3.260345 -1.333048 1.622555
O 0.033657 -0.040974 0.260030
H -0.689441 0.355945 0.749894
H 0.247991 0.554102 -0.462286
5
Structure 2841 | Energy: -10.834386 Hartree
N -3.828514 -0.727905 2.439986
N -3.171425 -1.576951 2.209885
O 0.033657 -0.040974 0.260030
H -0.689441 0.355945 0.749894
H 0.247991 0.554102 -0.462286
5
Structure 2842 | Energy: -10.834321 Hartree
N -3.825081 -0.304737 2.626690
N -3.167992 -1.153783 2.396590
O 0.033657 -0.040974 0.260030
H -0.689441 0.355945 0.749894
H 0.247991 0.554102 -0.462286
5
Structure 2843 | Energy: -10.834225 Hartree
N -3.825081 -0.304737 2.626690
N -3.167992 -1.153783 2.396590
O -0.474256 -0.252710 0.224030
H -1.197353 0.144209 0.713893
H -0.259922 0.342366 -0.498287
5
Structure 2844 | Energy: -10.834251 Hartree
N -3.825081 -0.304737 2.626690
N -3.167992 -1.153783 2.396590
O -0.587933 -0.681789 -0.190447
H -1.311031 -0.284871 0.299416
H -0.373599 -0.086714 -0.912763
5
Structure 2845 | Energy: -10.834262 Hartree
N -3.825081 -0.304737 2.626690
N -3.167992 -1.153783 2.396590
O -0.556602 -0.680669 -0.219982
H -1.279700 -0.283750 0.269881
H -0.342268 -0.085593 -0.942299
5
Structure 2846 | Energy: -10.834273 Hartree
N -3.825081 -0.304737 2.626690
N -3.167992 -1.153783 2.396590
O -0.326014 -0.784177 0.051538
H -1.093870 -0.372318 0.452973
H -0.054464 -0.225956 -0.680887
5
Structure 2847 | Energy: -10.834270 Hartree
N -3.825081 -0.304737 2.626690
N -3.167992 -1.153783 2.396590
O -0.327331 -0.784867 0.051430
H -1.098512 -0.366592 0.439640
H -0.028916 -0.220731 -0.665852
5
Structure 2848 | Energy: -10.834707 Hartree
N -3.405383 2.278495 0.804451
N -3.026237 1.434809 1.396087
O -0.327331 -0.784867 0.051430
H -1.098512 -0.366592 0.439640
H -0.028916 -0.220731 -0.665852
5
Structure 2849 | Energy: -10.834743 Hartree
N -3.409988 2.285078 0.817172
N -3.021632 1.428226 1.383367
O -0.327331 -0.784867 0.051430
H -1.098512 -0.366592 0.439640
H -0.028916 -0.220731 -0.665852
5
Structure 2850 | Energy: -10.834668 Hartree
N -3.409988 2.285078 0.817172
N -3.021632 1.428226 1.383367
O -0.439403 -0.795631 -0.195090
H -1.189709 -0.381848 0.236425
H -0.130001 -0.188300 -0.871267
5
Structure 2851 | Energy: -10.835238 Hartree
N -3.409988 2.285078 0.817172
N -3.021632 1.428226 1.383367
O -0.504165 -0.700257 -0.240256
H -0.675164 -1.139600 0.595278
H 0.383367 -0.944318 -0.513235
5
Structure 2852 | Energy: -10.834611 Hartree
N -0.658250 -0.310070 -0.491877
N -0.269895 -1.166922 0.074318
O -3.255903 1.894891 1.068792
H -3.426902 1.455548 1.904327
H -2.368371 1.650830 0.795814
5
Structure 2853 | Energy: -10.834607 Hartree
N -0.658250 -0.310070 -0.491877
N -0.269895 -1.166922 0.074318
O -3.268298 1.890550 1.075130
H -3.439297 1.451207 1.910665
H -2.380766 1.646489 0.802152
5
Structure 2854 | Energy: -10.834496 Hartree
N -0.591662 -0.733624 -0.742722
N -0.336483 -0.743368 0.325163
O -3.268298 1.890550 1.075130
H -3.439297 1.451207 1.910665
H -2.380766 1.646489 0.802152
5
Structure 2855 | Energy: -10.834976 Hartree
N -3.355795 1.857183 0.572664
N -3.100616 1.847439 1.640550
O -0.504165 -0.700257 -0.240256
H -0.675164 -1.139600 0.595278
H 0.383367 -0.944318 -0.513235
5
Structure 2856 | Energy: -10.834496 Hartree
N -0.591662 -0.733624 -0.742722
N -0.336483 -0.743368 0.325163
O -3.268298 1.890550 1.075130
H -3.439297 1.451207 1.910665
H -2.380766 1.646489 0.802152
5
Structure 2857 | Energy: -10.834496 Hartree
N -0.591662 -0.733624 -0.742722
N -0.336483 -0.743368 0.325163
O 2.908223 1.500557 -0.404351
H 3.384310 1.020356 0.276185
H 1.971064 1.371709 -0.240256
5
Structure 2858 | Energy: -10.834319 Hartree
N -0.099030 -0.987458 -0.534601
N -0.829115 -0.489534 0.117042
O 2.908223 1.500557 -0.404351
H 3.384310 1.020356 0.276185
H 1.971064 1.371709 -0.240256
5
Structure 2859 | Energy: -10.834316 Hartree
N -0.248516 -0.800150 -0.401766
N -0.939485 -0.228413 0.231692
O 2.908223 1.500557 -0.404351
H 3.384310 1.020356 0.276185
H 1.971064 1.371709 -0.240256
5
Structure 2860 | Energy: -10.834502 Hartree
N -0.379959 -0.526171 0.682247
N -1.070928 0.045566 1.315706
O 2.908223 1.500557 -0.404351
H 3.384310 1.020356 0.276185
H 1.971064 1.371709 -0.240256
5
Structure 2861 | Energy: -10.834507 Hartree
N -0.316253 -0.547539 0.828751
N -0.979115 0.018079 1.496794
O 2.908223 1.500557 -0.404351
H 3.384310 1.020356 0.276185
H 1.971064 1.371709 -0.240256
5
Structure 2862 | Energy: -10.834521 Hartree
N -0.220329 -0.419302 0.726884
N -0.883192 0.146315 1.394926
O 2.908223 1.500557 -0.404351
H 3.384310 1.020356 0.276185
H 1.971064 1.371709 -0.240256
5
Structure 2863 | Energy: -10.834446 Hartree
N -0.932453 -0.927878 0.779386
N -1.595315 -0.362260 1.447428
O 2.908223 1.500557 -0.404351
H 3.384310 1.020356 0.276185
H 1.971064 1.371709 -0.240256
5
Structure 2864 | Energy: -10.834699 Hartree
N -0.932453 -0.927878 0.779386
N -1.595315 -0.362260 1.447428
O 2.859596 1.461122 -0.297841
H 3.770661 1.333668 -0.570046
H 2.356531 1.684304 -1.084551
5
Structure 2865 | Energy: -10.834581 Hartree
N -0.932453 -0.927878 0.779386
N -1.595315 -0.362260 1.447428
O 3.636196 0.592462 -0.534944
H 4.547261 0.465008 -0.807149
H 3.133131 0.815645 -1.321653
5
Structure 2866 | Energy: -10.834598 Hartree
N -0.932453 -0.927878 0.779386
N -1.595315 -0.362260 1.447428
O 2.795265 0.467452 -1.179779
H 3.706331 0.339998 -1.451984
H 2.292201 0.690635 -1.966489
5
Structure 2867 | Energy: -10.834595 Hartree
N -1.110462 -0.821634 0.491112
N -1.816221 -0.230343 1.089335
O 2.795265 0.467452 -1.179779
H 3.706331 0.339998 -1.451984
H 2.292201 0.690635 -1.966489
5
Structure 2868 | Energy: -10.834609 Hartree
N -1.110462 -0.821634 0.491112
N -1.816221 -0.230343 1.089335
O 2.720812 0.866771 -1.095684
H 3.630150 0.808381 -1.395808
H 2.195418 1.172785 -1.838727
5
Structure 2869 | Energy: -10.834493 Hartree
N 3.095174 0.584981 -1.453164
N 2.389415 1.176272 -0.854942
O -1.484824 -0.539844 0.848592
H -0.575486 -0.598233 0.548468
H -2.010218 -0.233829 0.105550
5
Structure 2870 | Energy: -10.836172 Hartree
N 0.338746 -2.499723 1.571512
N 0.038975 -1.607590 1.005978
O 2.367115 -0.325492 0.074968
H 2.874895 -0.085896 -0.702936
H 1.524684 0.131294 0.016219
5
Structure 2871 | Energy: -10.836165 Hartree
N 0.338746 -2.499723 1.571512
N 0.038975 -1.607590 1.005978
O 2.399609 -0.266581 0.228766
H 2.939126 0.002299 -0.517562
H 1.555495 0.183315 0.145931
5
Structure 2872 | Energy: -10.836165 Hartree
N 0.320726 -2.508462 1.574827
N 0.020955 -1.616329 1.009294
O 2.399609 -0.266581 0.228766
H 2.939126 0.002299 -0.517562
H 1.555495 0.183315 0.145931
5
Structure 2873 | Energy: -10.834354 Hartree
N 0.320726 -2.508462 1.574827
N 0.020955 -1.616329 1.009294
O 2.377937 -0.271842 0.137980
H 2.001905 -0.297760 1.020198
H 2.836695 0.566874 0.049137
5
Structure 2874 | Energy: -10.833089 Hartree
N 2.532451 -0.672430 0.465139
N 2.232680 0.219703 -0.100395
O 0.166211 -2.107874 1.247668
H -0.209820 -2.133792 2.129887
H 0.624969 -1.269159 1.158826
5
Structure 2875 | Energy: -10.832575 Hartree
N 2.445125 -0.676173 0.463244
N 2.145354 0.215959 -0.102289
O 0.166211 -2.107874 1.247668
H -0.209820 -2.133792 2.129887
H 0.624969 -1.269159 1.158826
5
Structure 2876 | Energy: -10.832520 Hartree
N 2.444497 -0.688422 0.443284
N 2.145981 0.228208 -0.082328
O 0.166211 -2.107874 1.247668
H -0.209820 -2.133792 2.129887
H 0.624969 -1.269159 1.158826
5
Structure 2877 | Energy: -10.832620 Hartree
N 2.503180 -0.781425 0.457165
N 2.244007 0.119440 -0.114555
O 0.166211 -2.107874 1.247668
H -0.209820 -2.133792 2.129887
H 0.624969 -1.269159 1.158826
5
Structure 2878 | Energy: -10.832754 Hartree
N 2.631736 -0.980614 0.549441
N 2.469991 -0.076497 -0.052226
O 0.166211 -2.107874 1.247668
H -0.209820 -2.133792 2.129887
H 0.624969 -1.269159 1.158826
5
Structure 2879 | Energy: -10.832724 Hartree
N 2.631736 -0.980614 0.549441
N 2.469991 -0.076497 -0.052226
O 0.165254 -2.107894 1.247799
H -0.204114 -2.127072 2.133000
H 0.634463 -1.275565 1.153639
5
Structure 2880 | Energy: -10.832712 Hartree
N 2.668510 -0.983708 0.532144
N 2.433216 -0.073402 -0.034929
O 0.165254 -2.107894 1.247799
H -0.204114 -2.127072 2.133000
H 0.634463 -1.275565 1.153639
5
Structure 2881 | Energy: -10.832714 Hartree
N 2.668510 -0.983708 0.532144
N 2.433216 -0.073402 -0.034929
O 0.058677 -1.867076 1.335437
H -0.289320 -1.835417 2.228900
H 0.597939 -1.082291 1.212537
5
Structure 2882 | Energy: -10.834528 Hartree
N 2.668510 -0.983708 0.532144
N 2.433216 -0.073402 -0.034929
O -0.193246 -1.569434 2.257647
H -0.541243 -1.537776 3.151110
H 0.346017 -0.784649 2.134746
5
Structure 2883 | Energy: -10.834539 Hartree
N 2.668510 -0.983708 0.532144
N 2.433216 -0.073402 -0.034929
O -0.225038 -1.581009 2.281516
H -0.573036 -1.549351 3.174979
H 0.314224 -0.796224 2.158615
5
Structure 2884 | Energy: -10.834546 Hartree
N 2.668510 -0.983708 0.532144
N 2.433216 -0.073402 -0.034929
O -0.223042 -1.654705 2.244414
H -0.571597 -1.653190 3.138219
H 0.314009 -0.864782 2.147493
5
Structure 2885 | Energy: -10.834500 Hartree
N 2.668510 -0.983708 0.532144
N 2.433216 -0.073402 -0.034929
O -0.123488 -1.615729 2.170906
H -0.472044 -1.614215 3.064711
H 0.413563 -0.825806 2.073985
5
Structure 2886 | Energy: -10.834503 Hartree
N 2.668510 -0.983708 0.532144
N 2.433216 -0.073402 -0.034929
O -0.203815 -1.630752 2.044782
H -0.595659 -1.627469 2.920469
H 0.329786 -0.836170 1.969249
5
Structure 2887 | Energy: -10.834497 Hartree
N 2.668510 -0.983708 0.532144
N 2.433216 -0.073402 -0.034929
O -0.190091 -1.680271 2.034680
H -0.584899 -1.684498 2.909031
H 0.329715 -0.876381 1.961480
5
Structure 2888 | Energy: -10.834612 Hartree
N -0.065450 -2.090680 2.363044
N -0.300744 -1.180374 1.795970
O 2.543869 -0.573299 0.203780
H 2.149061 -0.577526 1.078131
H 3.063675 0.230591 0.130581
5
Structure 2889 | Energy: -10.834897 Hartree
N -0.065450 -2.090680 2.363044
N -0.300744 -1.180374 1.795970
O 3.222681 -1.115414 1.369783
H 2.827873 -1.119641 2.244133
H 3.742487 -0.311524 1.296583
5
Structure 2890 | Energy: -10.835730 Hartree
N 0.193138 -1.267638 2.236040
N -0.559332 -2.003416 1.922974
O 3.222681 -1.115414 1.369783
H 2.827873 -1.119641 2.244133
H 3.742487 -0.311524 1.296583
5
Structure 2891 | Energy: -10.835807 Hartree
N 0.193138 -1.267638 2.236040
N -0.559332 -2.003416 1.922974
O 3.222973 -1.133897 1.418841
H 4.020130 -0.661821 1.169709
H 2.545592 -0.475988 1.592353
5
Structure 2892 | Energy: -10.835736 Hartree
N 0.201219 -1.287733 2.260445
N -0.567413 -1.983321 1.898569
O 3.222973 -1.133897 1.418841
H 4.020130 -0.661821 1.169709
H 2.545592 -0.475988 1.592353
5
Structure 2893 | Energy: -10.835828 Hartree
N 0.003073 -1.119149 2.069901
N -0.369267 -2.151905 2.089113
O 3.222973 -1.133897 1.418841
H 4.020130 -0.661821 1.169709
H 2.545592 -0.475988 1.592353
5
Structure 2894 | Energy: -10.834445 Hartree
N 0.003073 -1.119149 2.069901
N -0.369267 -2.151905 2.089113
O 3.265503 -1.019426 1.402330
H 2.344381 -1.018441 1.670500
H 3.546312 -1.936252 1.353625
5
Structure 2895 | Energy: -10.835102 Hartree
N 0.003073 -1.119149 2.069901
N -0.369267 -2.151905 2.089113
O 2.857805 0.120363 2.712560
H 1.990865 -0.195852 2.450255
H 3.428223 -0.647759 2.792609
5
Structure 2896 | Energy: -10.835492 Hartree
N 3.027383 0.576069 2.692757
N 2.655044 -0.456688 2.711968
O -0.166506 -1.574855 2.089705
H -1.033445 -1.891070 1.827399
H 0.403912 -2.342977 2.169754
5
Structure 2897 | Energy: -10.835102 Hartree
N 0.003073 -1.119149 2.069901
N -0.369267 -2.151905 2.089113
O 2.857805 0.120363 2.712560
H 1.990865 -0.195852 2.450255
H 3.428223 -0.647759 2.792609
5
Structure 2898 | Energy: -10.835152 Hartree
N 0.003073 -1.119149 2.069901
N -0.369267 -2.151905 2.089113
O 2.853574 0.117395 2.726401
H 2.024483 -0.172270 2.340288
H 3.461764 -0.624231 2.682894
5
Structure 2899 | Energy: -10.835140 Hartree
N 0.003073 -1.119149 2.069901
N -0.369267 -2.151905 2.089113
O 2.854799 0.118476 2.722859
H 2.022620 -0.174304 2.345845
H 3.444180 -0.639357 2.733551
5
Structure 2900 | Energy: -10.835135 Hartree
N -0.009117 -1.118780 2.083096
N -0.381456 -2.151536 2.102307
O 2.854799 0.118476 2.722859
H 2.022620 -0.174304 2.345845
H 3.444180 -0.639357 2.733551
5
Structure 2901 | Energy: -10.835473 Hartree
N 3.027383 0.576069 2.692757
N 2.655044 -0.456688 2.711968
O -0.181701 -1.576372 2.113199
H -1.013880 -1.869152 1.736185
H 0.407681 -2.334205 2.123891
5
Structure 2902 | Energy: -10.835422 Hartree
N 3.027383 0.576069 2.692757
N 2.655044 -0.456688 2.711968
O -0.181707 -1.576382 2.113231
H -1.057729 -1.946928 1.988088
H 0.451619 -2.256271 1.871475
5
Structure 2903 | Energy: -10.835160 Hartree
N 3.027383 0.576069 2.692757
N 2.655044 -0.456688 2.711968
O -0.567677 -1.821041 2.475536
H -1.443700 -2.191587 2.350392
H 0.065649 -2.500929 2.233780
5
Structure 2904 | Energy: -10.835527 Hartree
N 3.027383 0.576069 2.692757
N 2.655044 -0.456688 2.711968
O -0.246783 -1.412428 2.064414
H -1.122805 -1.782974 1.939271
H 0.386543 -2.092317 1.822658
5
Structure 2905 | Energy: -10.835564 Hartree
N 3.027383 0.576069 2.692757
N 2.655044 -0.456688 2.711968
O -0.246554 -1.411346 2.060817
H -1.123629 -1.777870 1.931286
H 0.383731 -2.114609 1.887734
5
Structure 2906 | Energy: -10.835054 Hartree
N 3.027383 0.576069 2.692757
N 2.655044 -0.456688 2.711968
O -0.210165 -1.436845 2.024908
H -0.279324 -1.941734 2.837733
H -1.038130 -1.546013 1.551248
5
Structure 2907 | Energy: -10.835114 Hartree
N 3.027383 0.576069 2.692757
N 2.655044 -0.456688 2.711968
O -0.117875 -1.493994 1.786208
H -0.181406 -2.084834 2.539369
H -0.928408 -1.589924 1.280610
5
Structure 2908 | Energy: -10.835165 Hartree
N 2.924998 0.521877 2.662044
N 2.552658 -0.510880 2.681256
O -0.117875 -1.493994 1.786208
H -0.181406 -2.084834 2.539369
H -0.928408 -1.589924 1.280610
5
Structure 2909 | Energy: -10.835134 Hartree
N 2.412352 0.925469 3.256173
N 2.040012 -0.107288 3.275385
O -0.117875 -1.493994 1.786208
H -0.181406 -2.084834 2.539369
H -0.928408 -1.589924 1.280610
5
Structure 2910 | Energy: -10.835136 Hartree
N 2.412352 0.925469 3.256173
N 2.040012 -0.107288 3.275385
O -0.094286 -1.481162 1.801877
H -0.157817 -2.072003 2.555039
H -0.904819 -1.577092 1.296279
5
Structure 2911 | Energy: -10.835191 Hartree
N 2.412352 0.925469 3.256173
N 2.040012 -0.107288 3.275385
O -0.105900 -1.467951 1.813967
H -0.065543 -2.176968 2.458984
H -0.812757 -1.681818 1.200444
5
Structure 2912 | Energy: -10.835136 Hartree
N 2.412352 0.925469 3.256173
N 2.040012 -0.107288 3.275385
O -0.053462 -1.370139 1.974750
H -0.013105 -2.079157 2.619766
H -0.760318 -1.584006 1.361226
5
Structure 2913 | Energy: -10.835148 Hartree
N 2.442814 0.949541 3.273125
N 2.070475 -0.083216 3.292336
O -0.053462 -1.370139 1.974750
H -0.013105 -2.079157 2.619766
H -0.760318 -1.584006 1.361226
5
Structure 2914 | Energy: -10.835179 Hartree
N 2.460475 0.901361 3.249921
N 2.088136 -0.131395 3.269133
O -0.053462 -1.370139 1.974750
H -0.013105 -2.079157 2.619766
H -0.760318 -1.584006 1.361226
5
Structure 2915 | Energy: -10.835139 Hartree
N 2.460475 0.901361 3.249921
N 2.088136 -0.131395 3.269133
O 0.123550 -1.487525 1.839115
H 0.206897 -2.220421 2.452546
H -0.550410 -1.727971 1.198990
5
Structure 2916 | Energy: -10.835115 Hartree
N 0.276673 -1.025609 1.828016
N -0.095667 -2.058365 1.847227
O 2.307352 0.439445 3.261021
H 2.390700 -0.293451 3.874451
H 1.633392 0.198999 2.620896
5
Structure 2917 | Energy: -10.835115 Hartree
N 0.257766 -1.014569 1.843775
N -0.325508 -1.924154 2.038804
O 2.307352 0.439445 3.261021
H 2.390700 -0.293451 3.874451
H 1.633392 0.198999 2.620896
5
Structure 2918 | Energy: -10.835120 Hartree
N 0.250566 -1.004722 1.873435
N -0.318307 -1.934001 2.009144
O 2.307352 0.439445 3.261021
H 2.390700 -0.293451 3.874451
H 1.633392 0.198999 2.620896
5
Structure 2919 | Energy: -10.834200 Hartree
N 0.250566 -1.004722 1.873435
N -0.318307 -1.934001 2.009144
O 2.168883 0.356270 3.304709
H 2.252231 -0.376626 3.918140
H 1.494924 0.115824 2.664585
5
Structure 2920 | Energy: -10.835028 Hartree
N 2.420273 0.766447 3.235362
N 1.851400 -0.162831 3.371070
O -0.000824 -1.414900 1.942783
H 0.082524 -2.147796 2.556214
H -0.674784 -1.655346 1.302658
5
Structure 2921 | Energy: -10.834200 Hartree
N 0.250566 -1.004722 1.873435
N -0.318307 -1.934001 2.009144
O 2.168883 0.356270 3.304709
H 2.252231 -0.376626 3.918140
H 1.494924 0.115824 2.664585
5
Structure 2922 | Energy: -10.833657 Hartree
N 0.250566 -1.004722 1.873435
N -0.318307 -1.934001 2.009144
O 2.076696 0.317964 3.320587
H 2.396180 -0.569952 3.147624
H 2.814177 0.917141 3.183095
5
Structure 2923 | Energy: -10.833613 Hartree
N 0.265841 -0.998814 1.869899
N -0.303031 -1.928093 2.005607
O 2.076696 0.317964 3.320587
H 2.396180 -0.569952 3.147624
H 2.814177 0.917141 3.183095
5
Structure 2924 | Energy: -10.832853 Hartree
N 0.352810 -0.927555 1.925019
N -0.216063 -1.856834 2.060727
O 2.076696 0.317964 3.320587
H 2.396180 -0.569952 3.147624
H 2.814177 0.917141 3.183095
5
Structure 2925 | Energy: -10.832870 Hartree
N 0.352810 -0.927555 1.925019
N -0.216063 -1.856834 2.060727
O 2.076841 0.318096 3.320952
H 2.396238 -0.571526 3.156820
H 2.811824 0.916622 3.168108
5
Structure 2926 | Energy: -10.834648 Hartree
N 0.352810 -0.927555 1.925019
N -0.216063 -1.856834 2.060727
O 2.319949 1.569012 3.287268
H 2.639346 0.679390 3.123136
H 3.054932 2.167538 3.134424
5
Structure 2927 | Energy: -10.834997 Hartree
N 0.352810 -0.927555 1.925019
N -0.216063 -1.856834 2.060727
O 2.437376 1.573661 3.255117
H 1.686259 2.113706 3.509197
H 2.144209 0.659421 3.258674
5
Structure 2928 | Energy: -10.834887 Hartree
N 0.352810 -0.927555 1.925019
N -0.216063 -1.856834 2.060727
O 2.432048 1.672833 3.410400
H 1.680931 2.212877 3.664480
H 2.138881 0.758592 3.413957
5
Structure 2929 | Energy: -10.834886 Hartree
N 0.330978 -0.914618 1.926863
N -0.194231 -1.869771 2.058883
O 2.432048 1.672833 3.410400
H 1.680931 2.212877 3.664480
H 2.138881 0.758592 3.413957
5
Structure 2930 | Energy: -10.834850 Hartree
N 0.330978 -0.914618 1.926863
N -0.194231 -1.869771 2.058883
O 2.431096 1.674938 3.409798
H 1.656035 2.188908 3.645374
H 2.178885 0.749137 3.442616
5
Structure 2931 | Energy: -10.834846 Hartree
N 0.322952 -0.910373 1.926277
N -0.186205 -1.874017 2.059470
O 2.431096 1.674938 3.409798
H 1.656035 2.188908 3.645374
H 2.178885 0.749137 3.442616
5
Structure 2932 | Energy: -10.834684 Hartree
N -0.433858 -1.838143 1.911350
N -0.943015 -2.801787 2.044543
O 2.431096 1.674938 3.409798
H 1.656035 2.188908 3.645374
H 2.178885 0.749137 3.442616
5
Structure 2933 | Energy: -10.834688 Hartree
N -0.433858 -1.838143 1.911350
N -0.943015 -2.801787 2.044543
O 2.431554 1.673232 3.409056
H 1.681106 2.208581 3.674780
H 2.146544 0.756547 3.425001
5
Structure 2934 | Energy: -10.834920 Hartree
N -0.433858 -1.838143 1.911350
N -0.943015 -2.801787 2.044543
O 1.849898 1.557207 3.023801
H 1.099450 2.092556 3.289525
H 1.564888 0.640522 3.039747
5
Structure 2935 | Energy: -10.834399 Hartree
N 2.046540 2.017692 2.972965
N 1.537382 1.054048 3.106158
O -0.630499 -2.298628 1.962187
H -1.380948 -1.763278 2.227911
H -0.915510 -3.215312 1.978132
5
Structure 2936 | Energy: -10.834576 Hartree
N 2.046540 2.017692 2.972965
N 1.537382 1.054048 3.106158
O -0.650419 -2.299643 1.931021
H -1.222687 -1.755212 2.475524
H -0.757612 -3.207264 2.225179
5
Structure 2937 | Energy: -10.834617 Hartree
N -0.433858 -1.838143 1.911350
N -0.943015 -2.801787 2.044543
O 1.829979 1.556192 2.992636
H 1.257710 2.100623 3.537139
H 1.722786 0.648570 3.286794
5
Structure 2938 | Energy: -10.834706 Hartree
N -0.433858 -1.838143 1.911350
N -0.943015 -2.801787 2.044543
O 1.576725 1.799574 2.521124
H 1.017884 2.327751 3.094803
H 1.578471 0.905428 2.870832
5
Structure 2939 | Energy: -10.834551 Hartree
N 1.123725 -0.820653 -0.668098
N 1.266593 -1.358362 -1.614697
O 1.576725 1.799574 2.521124
H 1.017884 2.327751 3.094803
H 1.578471 0.905428 2.870832
5
Structure 2940 | Energy: -10.834506 Hartree
N 1.725072 -0.881444 -0.717087
N 1.867940 -1.419153 -1.663685
O 1.576725 1.799574 2.521124
H 1.017884 2.327751 3.094803
H 1.578471 0.905428 2.870832
5
Structure 2941 | Energy: -10.834855 Hartree
N 1.474119 2.047952 3.046090
N 1.616987 1.510243 2.099492
O 1.827677 -1.129821 -1.242052
H 1.268837 -0.601644 -0.668374
H 1.829424 -2.023967 -0.892345
5
Structure 2942 | Energy: -10.834832 Hartree
N 1.474119 2.047952 3.046090
N 1.616987 1.510243 2.099492
O 1.737570 -1.220018 -1.177258
H 1.192311 -0.678721 -0.602741
H 1.749193 -2.105541 -0.806435
5
Structure 2943 | Energy: -10.834828 Hartree
N 1.651145 1.702149 3.302592
N 1.756018 1.241524 2.311422
O 1.737570 -1.220018 -1.177258
H 1.192311 -0.678721 -0.602741
H 1.749193 -2.105541 -0.806435
5
Structure 2944 | Energy: -10.834694 Hartree
N 0.729323 2.446919 3.610302
N 0.834196 1.986294 2.619132
O 1.737570 -1.220018 -1.177258
H 1.192311 -0.678721 -0.602741
H 1.749193 -2.105541 -0.806435
5
Structure 2945 | Energy: -10.834708 Hartree
N 0.623180 2.234578 3.745797
N 0.731776 1.811601 2.738381
O 1.737570 -1.220018 -1.177258
H 1.192311 -0.678721 -0.602741
H 1.749193 -2.105541 -0.806435
5
Structure 2946 | Energy: -10.834560 Hartree
N 0.623180 2.234578 3.745797
N 0.731776 1.811601 2.738381
O 1.737519 -1.220086 -1.177312
H 0.790726 -1.211662 -1.022737
H 2.151596 -1.571514 -0.385583
5
Structure 2947 | Energy: -10.834547 Hartree
N 1.332894 2.264255 3.830142
N 1.316426 1.842547 2.816493
O 1.737519 -1.220086 -1.177312
H 0.790726 -1.211662 -1.022737
H 2.151596 -1.571514 -0.385583
5
Structure 2948 | Energy: -10.834545 Hartree
N 1.364831 2.421488 3.717493
N 1.318560 1.959198 2.722637
O 1.737519 -1.220086 -1.177312
H 0.790726 -1.211662 -1.022737
H 2.151596 -1.571514 -0.385583
5
Structure 2949 | Energy: -10.834601 Hartree
N 1.143962 1.680656 3.270255
N 1.539429 2.700029 3.169875
O 1.737519 -1.220086 -1.177312
H 0.790726 -1.211662 -1.022737
H 2.151596 -1.571514 -0.385583
5
Structure 2950 | Energy: -10.834474 Hartree
N 1.509978 -1.748965 -1.074173
N 1.905445 -0.729592 -1.174553
O 1.371503 2.209535 3.167116
H 0.424710 2.217959 3.321691
H 1.785580 1.858107 3.958845
5
Structure 2951 | Energy: -10.834601 Hartree
N 1.143962 1.680656 3.270255
N 1.539429 2.700029 3.169875
O 1.737519 -1.220086 -1.177312
H 0.790726 -1.211662 -1.022737
H 2.151596 -1.571514 -0.385583
5
Structure 2952 | Energy: -10.834526 Hartree
N -1.038856 -0.860505 3.399949
N -1.046602 0.153320 3.821481
O 1.737519 -1.220086 -1.177312
H 0.790726 -1.211662 -1.022737
H 2.151596 -1.571514 -0.385583
5
Structure 2953 | Energy: -10.834534 Hartree
N 1.711584 -1.746191 -1.335129
N 1.703839 -0.732366 -0.913597
O -1.012921 -0.334400 3.557766
H -1.959714 -0.325976 3.712341
H -0.598845 -0.685829 4.349495
5
Structure 2954 | Energy: -10.834529 Hartree
N 1.708445 -1.819097 -1.307330
N 1.700700 -0.805271 -0.885798
O -1.012921 -0.334400 3.557766
H -1.959714 -0.325976 3.712341
H -0.598845 -0.685829 4.349495
5
Structure 2955 | Energy: -10.834533 Hartree
N -1.038856 -0.860505 3.399949
N -1.046602 0.153320 3.821481
O 1.734380 -1.292992 -1.149513
H 0.787587 -1.284568 -0.994938
H 2.148457 -1.644420 -0.357784
5
Structure 2956 | Energy: -10.834533 Hartree
N -1.017168 -0.865341 3.413592
N -1.068289 0.158156 3.807839
O 1.734380 -1.292992 -1.149513
H 0.787587 -1.284568 -0.994938
H 2.148457 -1.644420 -0.357784
5
Structure 2957 | Energy: -10.834532 Hartree
N -1.017168 -0.865341 3.413592
N -1.068289 0.158156 3.807839
O 1.758536 -1.330406 -1.067993
H 0.971417 -1.864952 -1.190809
H 1.581220 -0.470197 -1.455801
5
Structure 2958 | Energy: -10.834565 Hartree
N 1.730133 -1.823933 -1.293688
N 1.679012 -0.800435 -0.899441
O -0.988765 -0.371815 3.639286
H -1.775885 -0.906361 3.516471
H -1.166082 0.488394 3.251478
5
Structure 2959 | Energy: -10.834564 Hartree
N 1.730133 -1.823933 -1.293688
N 1.679012 -0.800435 -0.899441
O -0.831023 -0.655413 3.772322
H -1.586263 -1.238157 3.670330
H -1.081176 0.199370 3.413759
5
Structure 2960 | Energy: -10.834561 Hartree
N 1.306608 -1.991509 -1.451227
N 1.284808 -0.955324 -1.088684
O -0.831023 -0.655413 3.772322
H -1.586263 -1.238157 3.670330
H -1.081176 0.199370 3.413759
5
Structure 2961 | Energy: -10.834536 Hartree
N -0.876378 -1.158283 3.565280
N -0.898178 -0.122099 3.927824
O 1.351963 -1.488638 -1.244186
H 0.596723 -2.071382 -1.346177
H 1.101811 -0.633856 -1.602748
5
Structure 2962 | Energy: -10.834530 Hartree
N -0.876378 -1.158283 3.565280
N -0.898178 -0.122099 3.927824
O 1.325707 -1.583537 -1.297136
H 0.570467 -2.166281 -1.399127
H 1.075555 -0.728755 -1.655698
5
Structure 2963 | Energy: -10.834554 Hartree
N 1.280352 -2.086407 -1.504177
N 1.258552 -1.050223 -1.141633
O -0.831023 -0.655413 3.772322
H -1.586263 -1.238157 3.670330
H -1.081176 0.199370 3.413759
5
Structure 2964 | Energy: -10.834548 Hartree
N 1.280352 -2.086407 -1.504177
N 1.258552 -1.050223 -1.141633
O -0.780247 -0.615637 3.862925
H -1.535488 -1.198381 3.760933
H -1.030400 0.239146 3.504362
5
Structure 2965 | Energy: -10.834524 Hartree
N -0.825602 -1.118507 3.655883
N -0.847403 -0.082323 4.018427
O 1.325707 -1.583537 -1.297136
H 0.570467 -2.166281 -1.399127
H 1.075555 -0.728755 -1.655698
5
Structure 2966 | Energy: -10.834548 Hartree
N 1.280352 -2.086407 -1.504177
N 1.258552 -1.050223 -1.141633
O -0.780247 -0.615637 3.862925
H -1.535488 -1.198381 3.760933
H -1.030400 0.239146 3.504362
5
Structure 2967 | Energy: -10.834432 Hartree
N 1.417140 -1.646306 -1.845881
N 1.121765 -1.490324 -0.799929
O -0.780247 -0.615637 3.862925
H -1.535488 -1.198381 3.760933
H -1.030400 0.239146 3.504362
5
Structure 2968 | Energy: -10.834494 Hartree
N 1.428035 -2.000703 -1.024090
N 1.110870 -1.135928 -1.621720
O -0.780247 -0.615637 3.862925
H -1.535488 -1.198381 3.760933
H -1.030400 0.239146 3.504362
5
Structure 2969 | Energy: -10.834491 Hartree
N 1.697604 -1.535010 -1.002832
N 1.304393 -0.684144 -1.574675
O -0.780247 -0.615637 3.862925
H -1.535488 -1.198381 3.760933
H -1.030400 0.239146 3.504362
5
Structure 2970 | Energy: -10.834490 Hartree
N 1.698251 -1.533264 -1.000694
N 1.303746 -0.685889 -1.576813
O -0.780247 -0.615637 3.862925
H -1.535488 -1.198381 3.760933
H -1.030400 0.239146 3.504362
5
Structure 2971 | Energy: -10.834564 Hartree
N -0.639250 -1.024103 4.125214
N -1.033755 -0.176728 3.549096
O 1.557254 -1.124798 -1.262984
H 0.802014 -1.707542 -1.364975
H 1.307101 -0.270016 -1.621546
5
Structure 2972 | Energy: -10.834490 Hartree
N 1.698251 -1.533264 -1.000694
N 1.303746 -0.685889 -1.576813
O -0.780247 -0.615637 3.862925
H -1.535488 -1.198381 3.760933
H -1.030400 0.239146 3.504362
5
Structure 2973 | Energy: -10.834564 Hartree
N 0.805537 -1.293315 -1.409136
N 1.793482 -0.817524 -1.352745
O -0.780247 -0.615637 3.862925
H -1.535488 -1.198381 3.760933
H -1.030400 0.239146 3.504362
5
Structure 2974 | Energy: -10.834490 Hartree
N -1.330475 -0.838311 3.808960
N -0.342530 -0.362520 3.865350
O 1.355765 -1.070641 -1.355171
H 0.600524 -1.653385 -1.457162
H 1.105612 -0.215858 -1.713733
5
Structure 2975 | Energy: -10.834484 Hartree
N -1.426429 -0.921743 3.729165
N -0.438484 -0.445952 3.785555
O 1.355765 -1.070641 -1.355171
H 0.600524 -1.653385 -1.457162
H 1.105612 -0.215858 -1.713733
5
Structure 2976 | Energy: -10.834484 Hartree
N -1.426429 -0.921743 3.729165
N -0.438484 -0.445952 3.785555
O 1.355986 -1.068779 -1.354628
H 0.621438 -1.676143 -1.463849
H 1.081187 -0.222649 -1.715663
5
Structure 2977 | Energy: -10.834475 Hartree
N -1.461871 -0.990847 4.242024
N -0.473927 -0.515056 4.298415
O 1.355986 -1.068779 -1.354628
H 0.621438 -1.676143 -1.463849
H 1.081187 -0.222649 -1.715663
5
Structure 2978 | Energy: -10.834516 Hartree
N -1.461871 -0.990847 4.242024
N -0.473927 -0.515056 4.298415
O 1.335597 -1.057807 -1.328477
H 0.783432 -1.763318 -1.671622
H 1.242811 -0.309625 -1.922961
5
Structure 2979 | Energy: -10.834520 Hartree
N -1.464976 -0.981771 4.226011
N -0.470822 -0.524133 4.314428
O 1.335597 -1.057807 -1.328477
H 0.783432 -1.763318 -1.671622
H 1.242811 -0.309625 -1.922961
5
Structure 2980 | Energy: -10.834516 Hartree
N -1.464976 -0.981771 4.226011
N -0.470822 -0.524133 4.314428
O 1.381387 -1.131327 -1.403507
H 0.829222 -1.836838 -1.746652
H 1.288601 -0.383145 -1.997991
5
Structure 2981 | Energy: -10.834512 Hartree
N -1.521154 -0.885105 4.324188
N -0.527000 -0.427467 4.412606
O 1.381387 -1.131327 -1.403507
H 0.829222 -1.836838 -1.746652
H 1.288601 -0.383145 -1.997991
5
Structure 2982 | Energy: -10.834512 Hartree
N -1.521154 -0.885105 4.324188
N -0.527000 -0.427467 4.412606
O -1.362392 -2.394369 -1.647533
H -0.426704 -2.414978 -1.858351
H -1.781050 -1.796196 -2.270999
5
Structure 2983 | Energy: -10.834482 Hartree
N -1.830539 -2.590871 -1.738423
N -0.836385 -2.133233 -1.650005
O -1.053006 -0.688603 4.415078
H -0.117319 -0.709212 4.204260
H -1.471665 -0.090430 3.791612
5
Structure 2984 | Energy: -10.834481 Hartree
N -1.830539 -2.590871 -1.738423
N -0.836385 -2.133233 -1.650005
O -1.052205 -0.688141 4.415879
H -0.121808 -0.717817 4.183798
H -1.479903 -0.089159 3.799364
5
Structure 2985 | Energy: -10.834514 Hartree
N -1.521154 -0.885105 4.324188
N -0.527000 -0.427467 4.412606
O -1.361590 -2.393907 -1.646732
H -0.431193 -2.423583 -1.878813
H -1.789289 -1.794925 -2.263247
5
Structure 2986 | Energy: -10.834521 Hartree
N -1.559569 -1.000469 4.253407
N -0.565416 -0.542831 4.341825
O -1.361590 -2.393907 -1.646732
H -0.431193 -2.423583 -1.878813
H -1.789289 -1.794925 -2.263247
5
Structure 2987 | Energy: -10.834521 Hartree
N -1.559569 -1.000469 4.253407
N -0.565416 -0.542831 4.341825
O -1.377339 -2.391207 -1.625120
H -0.446942 -2.420883 -1.857202
H -1.805038 -1.792225 -2.241636
5
Structure 2988 | Energy: -10.834521 Hartree
N -1.559569 -1.000469 4.253407
N -0.565416 -0.542831 4.341825
O -1.377340 -2.391211 -1.625124
H -0.456137 -2.454748 -1.885370
H -1.795824 -1.758292 -2.213410
5
Structure 2989 | Energy: -10.834559 Hartree
N -1.559569 -1.000469 4.253407
N -0.565416 -0.542831 4.341825
O -1.744905 -2.220641 -0.766611
H -0.823701 -2.284178 -1.026857
H -2.163389 -1.587722 -1.354897
5
Structure 2990 | Energy: -10.834566 Hartree
N -1.559569 -1.000469 4.253407
N -0.565416 -0.542831 4.341825
O -1.689596 -2.185324 -0.758961
H -0.768393 -2.248861 -1.019207
H -2.108081 -1.552405 -1.347246
5
Structure 2991 | Energy: -10.834566 Hartree
N -1.559569 -1.000469 4.253407
N -0.565416 -0.542831 4.341825
O -1.689628 -2.185306 -0.758968
H -0.769303 -2.252302 -1.021445
H -2.106658 -1.549245 -1.344893
5
Structure 2992 | Energy: -10.834546 Hartree
N -2.158544 -2.382284 -0.850648
N -1.164391 -1.924646 -0.762230
O -1.090653 -0.803491 4.345087
H -0.170328 -0.870486 4.082610
H -1.507683 -0.167430 3.759161
5
Structure 2993 | Energy: -10.834566 Hartree
N -1.559569 -1.000469 4.253407
N -0.565416 -0.542831 4.341825
O -1.689628 -2.185306 -0.758968
H -0.769303 -2.252302 -1.021445
H -2.106658 -1.549245 -1.344893
5
Structure 2994 | Energy: -10.834573 Hartree
N -1.559569 -1.000469 4.253407
N -0.565416 -0.542831 4.341825
O -1.221628 -1.842141 -1.207547
H -0.301303 -1.909136 -1.470024
H -1.638658 -1.206080 -1.793473
5
Structure 2995 | Energy: -10.834578 Hartree
N -1.909618 -1.170393 4.241367
N -0.971819 -0.618776 4.389158
O -1.221628 -1.842141 -1.207547
H -0.301303 -1.909136 -1.470024
H -1.638658 -1.206080 -1.793473
5
Structure 2996 | Energy: -10.834583 Hartree
N -1.909618 -1.170393 4.241367
N -0.971819 -0.618776 4.389158
O -0.862807 -2.677622 -0.817739
H 0.057518 -2.744617 -1.080216
H -1.279836 -2.041561 -1.403664
5
Structure 2997 | Energy: -10.834504 Hartree
N -1.303545 -2.921589 -0.939105
N -0.365746 -2.369972 -0.791315
O -1.468879 -0.926426 4.362734
H -0.548554 -0.993421 4.100256
H -1.885909 -0.290365 3.776808
5
Structure 2998 | Energy: -10.834583 Hartree
N -1.909618 -1.170393 4.241367
N -0.971819 -0.618776 4.389158
O -0.862807 -2.677622 -0.817739
H 0.057518 -2.744617 -1.080216
H -1.279836 -2.041561 -1.403664
5
Structure 2999 | Energy: -10.834632 Hartree
N -1.909618 -1.170393 4.241367
N -0.971819 -0.618776 4.389158
O -1.524987 -2.428617 -0.285894
H -0.604662 -2.495612 -0.548371
H -1.942016 -1.792556 -0.871820
5
Structure 3000 | Energy: -10.834632 Hartree
N -1.909618 -1.170393 4.241367
N -0.971819 -0.618776 4.389158
O -1.524758 -2.429197 -0.286153
H -0.604059 -2.487759 -0.549333
H -1.946247 -1.791197 -0.866755
5
Structure 3001 | Energy: -10.834633 Hartree
N -1.911717 -1.167035 4.242267
N -0.969719 -0.622134 4.388258
O -1.524758 -2.429197 -0.286153
H -0.604059 -2.487759 -0.549333
H -1.946247 -1.791197 -0.866755
5
Structure 3002 | Energy: -10.834606 Hartree
N -1.911717 -1.167035 4.242267
N -0.969719 -0.622134 4.388258
O -1.557492 -2.403131 -0.471182
H -0.636793 -2.461693 -0.734362
H -1.978981 -1.765131 -1.051784
5
Structure 3003 | Energy: -10.834601 Hartree
N -1.730041 -1.273583 4.278990
N -0.809417 -0.685514 4.389527
O -1.557492 -2.403131 -0.471182
H -0.636793 -2.461693 -0.734362
H -1.978981 -1.765131 -1.051784
5
Structure 3004 | Energy: -10.834826 Hartree
N -1.730041 -1.273583 4.278990
N -0.809417 -0.685514 4.389527
O -1.379554 -2.681126 0.704854
H -0.458855 -2.739688 0.441674
H -1.801043 -2.043125 0.124252
5
Structure 3005 | Energy: -10.834569 Hartree
N -1.730041 -1.273583 4.278990
N -0.809417 -0.685514 4.389527
O -1.480770 -3.560530 0.342530
H -0.560070 -3.619092 0.079350
H -1.902258 -2.922530 -0.238072
5
Structure 3006 | Energy: -10.834694 Hartree
N -1.730041 -1.273583 4.278990
N -0.809417 -0.685514 4.389527
O -1.470932 -3.490548 0.343507
H -1.962893 -3.657845 -0.462947
H -0.655584 -3.994535 0.288723
5
Structure 3007 | Energy: -10.834686 Hartree
N -1.730041 -1.273583 4.278990
N -0.809417 -0.685514 4.389527
O -1.548909 -3.539843 0.410165
H -2.040871 -3.707140 -0.396288
H -0.733562 -4.043830 0.355382
5
Structure 3008 | Energy: -10.834470 Hartree
N -1.730041 -1.273583 4.278990
N -0.809417 -0.685514 4.389527
O -1.528199 -3.640660 0.354757
H -1.514679 -2.987006 -0.347335
H -1.588467 -3.163786 1.185873
5
Structure 3009 | Energy: -10.834470 Hartree
N -1.730041 -1.273583 4.278990
N -0.809417 -0.685514 4.389527
O 1.897058 -1.452703 0.766018
H 1.423026 -1.110483 0.005387
H 1.352925 -1.284908 1.539038
5
Structure 3010 | Energy: -10.834455 Hartree
N -1.688323 -1.221240 4.343078
N -0.767699 -0.633172 4.453614
O 1.897058 -1.452703 0.766018
H 1.423026 -1.110483 0.005387
H 1.352925 -1.284908 1.539038
5
Structure 3011 | Energy: -10.834452 Hartree
N -1.688323 -1.221240 4.343078
N -0.767699 -0.633172 4.453614
O 1.898022 -1.450700 0.766558
H 1.409008 -1.148027 -0.001318
H 1.351642 -1.279158 1.537167
5
Structure 3012 | Energy: -10.834448 Hartree
N -1.688323 -1.221240 4.343078
N -0.767699 -0.633172 4.453614
O 1.912832 -1.588218 0.900710
H 1.423818 -1.285544 0.132833
H 1.366451 -1.416676 1.671318
5
Structure 3013 | Energy: -10.834448 Hartree
N -0.989089 0.304558 4.499201
N -0.835413 -0.780932 4.438495
O 1.912832 -1.588218 0.900710
H 1.423818 -1.285544 0.132833
H 1.366451 -1.416676 1.671318
5
Structure 3014 | Energy: -10.834457 Hartree
N -0.989089 0.304558 4.499201
N -0.835413 -0.780932 4.438495
O 1.701356 -1.387581 1.675519
H 1.212341 -1.084908 0.907642
H 1.154975 -1.216039 2.446128
5
Structure 3015 | Energy: -10.834486 Hartree
N -0.876870 0.356971 4.508409
N -0.723194 -0.728520 4.447704
O 1.701356 -1.387581 1.675519
H 1.212341 -1.084908 0.907642
H 1.154975 -1.216039 2.446128
5
Structure 3016 | Energy: -10.834476 Hartree
N -0.876870 0.356971 4.508409
N -0.723194 -0.728520 4.447704
O 1.741079 -1.353648 1.801540
H 1.252065 -1.050975 1.033663
H 1.194699 -1.182107 2.572149
5
Structure 3017 | Energy: -10.834476 Hartree
N -0.876870 0.356971 4.508409
N -0.723194 -0.728520 4.447704
O 1.276913 1.925000 1.984896
H 0.878933 1.584650 1.181059
H 0.811335 1.525787 2.723586
5
Structure 3018 | Energy: -10.834444 Hartree
N -0.944973 0.392251 4.538415
N -0.791298 -0.693240 4.477710
O 1.276913 1.925000 1.984896
H 0.878933 1.584650 1.181059
H 0.811335 1.525787 2.723586
5
Structure 3019 | Energy: -10.834378 Hartree
N -1.148706 0.666514 4.502117
N -1.110020 -0.429885 4.457348
O 1.276913 1.925000 1.984896
H 0.878933 1.584650 1.181059
H 0.811335 1.525787 2.723586
5
Structure 3020 | Energy: -10.834441 Hartree
N -0.964108 0.394199 4.523169
N -0.846021 -0.693615 4.432028
O 1.276913 1.925000 1.984896
H 0.878933 1.584650 1.181059
H 0.811335 1.525787 2.723586
5
Structure 3021 | Energy: -10.834440 Hartree
N -0.956011 0.394379 4.530237
N -0.854118 -0.693796 4.424960
O 1.276913 1.925000 1.984896
H 0.878933 1.584650 1.181059
H 0.811335 1.525787 2.723586
5
Structure 3022 | Energy: -10.834323 Hartree
N -0.956011 0.394379 4.530237
N -0.854118 -0.693796 4.424960
O 1.482286 1.458829 1.833327
H 1.069806 1.067543 1.060581
H 0.973290 1.180970 2.598516
5
Structure 3023 | Energy: -10.834323 Hartree
N -0.956011 0.394379 4.530237
N -0.854118 -0.693796 4.424960
O 1.689983 -0.759302 1.618730
H 1.198883 -0.310961 0.927215
H 1.152262 -0.730385 2.413598
5
Structure 3024 | Energy: -10.834331 Hartree
N -0.946700 0.393286 4.547032
N -0.863429 -0.692703 4.408165
O 1.689983 -0.759302 1.618730
H 1.198883 -0.310961 0.927215
H 1.152262 -0.730385 2.413598
5
Structure 3025 | Energy: -10.835140 Hartree
N -0.131473 1.418903 4.416650
N -0.048201 0.332914 4.277784
O 1.689983 -0.759302 1.618730
H 1.198883 -0.310961 0.927215
H 1.152262 -0.730385 2.413598
5
Structure 3026 | Energy: -10.835178 Hartree
N -0.078634 1.369554 4.333118
N 0.004637 0.283565 4.194251
O 1.689983 -0.759302 1.618730
H 1.198883 -0.310961 0.927215
H 1.152262 -0.730385 2.413598
5
Structure 3027 | Energy: -10.835248 Hartree
N -0.078634 1.369554 4.333118
N 0.004637 0.283565 4.194251
O 1.762285 -0.771208 1.814724
H 1.271186 -0.322867 1.123209
H 1.224564 -0.742291 2.609592
5
Structure 3028 | Energy: -10.835431 Hartree
N 0.073701 1.838156 3.972820
N 0.081660 0.740484 3.998202
O 1.762285 -0.771208 1.814724
H 1.271186 -0.322867 1.123209
H 1.224564 -0.742291 2.609592
5
Structure 3029 | Energy: -10.835434 Hartree
N 0.073701 1.838156 3.972820
N 0.081660 0.740484 3.998202
O 1.752904 -0.778405 1.814307
H 1.263670 -0.327861 1.122902
H 1.215436 -0.747192 2.609260
5
Structure 3030 | Energy: -10.835383 Hartree
N 0.067512 1.837325 3.954133
N 0.087849 0.741315 4.016889
O 1.752904 -0.778405 1.814307
H 1.263670 -0.327861 1.122902
H 1.215436 -0.747192 2.609260
5
Structure 3031 | Energy: -10.835497 Hartree
N 0.067512 1.837325 3.954133
N 0.087849 0.741315 4.016889
O 1.793167 -0.930500 2.004225
H 1.356154 -0.498196 1.267669
H 1.216316 -0.844800 2.766914
5
Structure 3032 | Energy: -10.835417 Hartree
N 0.067512 1.837325 3.954133
N 0.087849 0.741315 4.016889
O 1.791230 -0.933978 2.003606
H 1.353966 -0.508088 1.263472
H 1.249235 -0.779699 2.780932
5
Structure 3033 | Energy: -10.835500 Hartree
N 0.067525 1.838206 3.981227
N 0.087836 0.740434 3.989795
O 1.791230 -0.933978 2.003606
H 1.353966 -0.508088 1.263472
H 1.249235 -0.779699 2.780932
5
Structure 3034 | Energy: -10.835509 Hartree
N 0.068781 1.869829 3.937700
N 0.090753 0.772403 3.965352
O 1.791230 -0.933978 2.003606
H 1.353966 -0.508088 1.263472
H 1.249235 -0.779699 2.780932
5
Structure 3035 | Energy: -10.835202 Hartree
N 0.068781 1.869829 3.937700
N 0.090753 0.772403 3.965352
O 1.791183 -0.934068 2.003757
H 0.980981 -1.208953 2.437799
H 1.622980 -0.077406 1.604214
5
Structure 3036 | Energy: -10.835203 Hartree
N 0.068781 1.869829 3.937700
N 0.090753 0.772403 3.965352
O 1.790410 -0.937597 2.007170
H 0.979984 -1.211477 2.441429
H 1.622721 -0.081396 1.606425
5
Structure 3037 | Energy: -10.835174 Hartree
N 0.198394 1.965272 3.905417
N 0.183589 0.868561 3.956375
O 1.790410 -0.937597 2.007170
H 0.979984 -1.211477 2.441429
H 1.622721 -0.081396 1.606425
5
Structure 3038 | Energy: -10.833744 Hartree
N 0.472083 2.249244 2.855261
N 0.457278 1.152533 2.906219
O 1.790410 -0.937597 2.007170
H 0.979984 -1.211477 2.441429
H 1.622721 -0.081396 1.606425
5
Structure 3039 | Energy: -10.833487 Hartree
N 0.465297 2.159343 2.952428
N 0.450491 1.062631 3.003386
O 1.790410 -0.937597 2.007170
H 0.979984 -1.211477 2.441429
H 1.622721 -0.081396 1.606425
5
Structure 3040 | Energy: -10.833776 Hartree
N 0.495698 2.157438 2.941028
N 0.420090 1.064536 3.014786
O 1.790410 -0.937597 2.007170
H 0.979984 -1.211477 2.441429
H 1.622721 -0.081396 1.606425
5
Structure 3041 | Energy: -10.833259 Hartree
N 0.495698 2.157438 2.941028
N 0.420090 1.064536 3.014786
O 1.770267 -0.897935 2.022443
H 0.959842 -1.171815 2.456702
H 1.602578 -0.041735 1.621698
5
Structure 3042 | Energy: -10.833330 Hartree
N 0.495698 2.157438 2.941028
N 0.420090 1.064536 3.014786
O 1.805503 -0.879484 2.023218
H 0.997892 -1.164470 2.455569
H 1.627274 -0.025264 1.622795
5
Structure 3043 | Energy: -10.833909 Hartree
N 0.103073 1.731609 3.379093
N 0.812715 1.490365 2.576721
O 1.805503 -0.879484 2.023218
H 0.997892 -1.164470 2.455569
H 1.627274 -0.025264 1.622795
5
Structure 3044 | Energy: -10.834245 Hartree
N 0.103073 1.731609 3.379093
N 0.812715 1.490365 2.576721
O 1.821029 -0.909018 2.011771
H 1.013418 -1.194004 2.444122
H 1.642800 -0.054798 1.611349
5
Structure 3045 | Energy: -10.834210 Hartree
N 0.136143 1.827243 3.224115
N 0.807876 1.521815 2.411047
O 1.821029 -0.909018 2.011771
H 1.013418 -1.194004 2.444122
H 1.642800 -0.054798 1.611349
5
Structure 3046 | Energy: -10.835503 Hartree
N -0.911098 1.679453 2.826460
N -0.239365 1.374025 2.013391
O 1.821029 -0.909018 2.011771
H 1.013418 -1.194004 2.444122
H 1.642800 -0.054798 1.611349
5
Structure 3047 | Energy: -10.835405 Hartree
N -0.911098 1.679453 2.826460
N -0.239365 1.374025 2.013391
O 1.902065 -0.786647 2.132446
H 1.094454 -1.071633 2.564797
H 1.723836 0.067573 1.732024
5
Structure 3048 | Energy: -10.835355 Hartree
N -0.885545 1.694363 2.840645
N -0.264917 1.359115 1.999206
O 1.902065 -0.786647 2.132446
H 1.094454 -1.071633 2.564797
H 1.723836 0.067573 1.732024
5
Structure 3049 | Energy: -10.835149 Hartree
N -0.227584 1.740124 3.700594
N 0.393044 1.404876 2.859154
O 1.902065 -0.786647 2.132446
H 1.094454 -1.071633 2.564797
H 1.723836 0.067573 1.732024
5
Structure 3050 | Energy: -10.835149 Hartree
N -0.227584 1.740124 3.700594
N 0.393044 1.404876 2.859154
O 2.989147 1.654865 1.961502
H 2.681016 2.491678 2.315310
H 2.216660 1.174422 1.654527
5
Structure 3051 | Energy: -10.835687 Hartree
N -0.227584 1.740124 3.700594
N 0.393044 1.404876 2.859154
O 3.456045 1.208866 2.162324
H 3.147914 2.045679 2.516132
H 2.683558 0.728424 1.855349
5
Structure 3052 | Energy: -10.834401 Hartree
N 3.085267 1.396431 2.585665
N 3.705895 1.061182 1.744225
O 0.143195 1.552560 3.277254
H -0.164936 2.389373 3.631062
H -0.629293 1.072117 2.970279
5
Structure 3053 | Energy: -10.834284 Hartree
N 3.084224 1.396614 2.588046
N 3.704852 1.061365 1.746606
O 0.209999 1.575612 3.373309
H -0.098132 2.412425 3.727117
H -0.562489 1.095170 3.066334
5
Structure 3054 | Energy: -10.833980 Hartree
N 3.084224 1.396614 2.588046
N 3.704852 1.061365 1.746606
O 0.376719 2.150999 3.493410
H 0.229100 3.041300 3.818917
H -0.479046 1.793874 3.244563
5
Structure 3055 | Energy: -10.834166 Hartree
N 3.084224 1.396614 2.588046
N 3.704852 1.061365 1.746606
O 0.274915 2.043117 3.316666
H 0.090662 2.912475 3.678120
H -0.555060 1.690741 2.986866
5
Structure 3056 | Energy: -10.834192 Hartree
N 3.108736 1.609372 2.521880
N 3.733294 1.324343 1.664980
O 0.274915 2.043117 3.316666
H 0.090662 2.912475 3.678120
H -0.555060 1.690741 2.986866
5
Structure 3057 | Energy: -10.834291 Hartree
N 3.055825 1.632361 2.765753
N 3.680383 1.347331 1.908854
O 0.274915 2.043117 3.316666
H 0.090662 2.912475 3.678120
H -0.555060 1.690741 2.986866
5
Structure 3058 | Energy: -10.834822 Hartree
N 3.055825 1.632361 2.765753
N 3.680383 1.347331 1.908854
O -0.329543 1.742543 2.914619
H -0.513796 2.611901 3.276072
H -1.159518 1.390166 2.584819
5
Structure 3059 | Energy: -10.835276 Hartree
N -0.698571 1.913984 3.344840
N -0.074014 1.628955 2.487940
O 3.424853 1.460919 2.335532
H 3.240600 2.330277 2.696986
H 2.594878 1.108542 2.005733
5
Structure 3060 | Energy: -10.834822 Hartree
N 3.055825 1.632361 2.765753
N 3.680383 1.347331 1.908854
O -0.329543 1.742543 2.914619
H -0.513796 2.611901 3.276072
H -1.159518 1.390166 2.584819
5
Structure 3061 | Energy: -10.835276 Hartree
N -0.698571 1.913984 3.344840
N -0.074014 1.628955 2.487940
O 3.424853 1.460919 2.335532
H 3.240600 2.330277 2.696986
H 2.594878 1.108542 2.005733
5
Structure 3062 | Energy: -10.835157 Hartree
N -0.698571 1.913984 3.344840
N -0.074014 1.628955 2.487940
O 3.428962 1.498988 2.353828
H 2.704490 2.113237 2.488806
H 3.065769 0.721345 1.923528
5
Structure 3063 | Energy: -10.835165 Hartree
N -0.698571 1.913984 3.344840
N -0.074014 1.628955 2.487940
O 3.428572 1.498069 2.355644
H 2.702846 2.109123 2.498177
H 3.073611 0.740048 1.885323
5
Structure 3064 | Energy: -10.835158 Hartree
N -0.697899 1.950888 3.331249
N -0.074686 1.592051 2.501531
O 3.428572 1.498069 2.355644
H 2.702846 2.109123 2.498177
H 3.073611 0.740048 1.885323
5
Structure 3065 | Energy: -10.835222 Hartree
N -0.577014 1.941820 3.312603
N 0.046200 1.582983 2.482886
O 3.428572 1.498069 2.355644
H 2.702846 2.109123 2.498177
H 3.073611 0.740048 1.885323
5
Structure 3066 | Energy: -10.836178 Hartree
N 0.616504 -2.472773 1.909578
N 0.223176 -1.607635 1.359651
O 2.367270 -0.325674 0.074754
H 2.875045 -0.077886 -0.700582
H 1.522087 0.126162 0.017257
5
Structure 3067 | Energy: -10.836177 Hartree
N 0.613792 -2.482457 1.895750
N 0.225888 -1.597950 1.373478
O 2.367270 -0.325674 0.074754
H 2.875045 -0.077886 -0.700582
H 1.522087 0.126162 0.017257
5
Structure 3068 | Energy: -10.836146 Hartree
N 0.613792 -2.482457 1.895750
N 0.225888 -1.597950 1.373478
O 2.379589 -0.575630 -0.148547
H 2.891849 -0.444697 -0.949064
H 1.535934 -0.135361 -0.275842
5
Structure 3069 | Energy: -10.836030 Hartree
N 0.613792 -2.482457 1.895750
N 0.225888 -1.597950 1.373478
O 2.566416 -0.126986 0.165791
H 3.078676 0.003947 -0.634726
H 1.722761 0.313284 0.038497
5
Structure 3070 | Energy: -10.835997 Hartree
N 0.818650 -2.746608 1.724613
N 0.358570 -1.865565 1.258050
O 2.566416 -0.126986 0.165791
H 3.078676 0.003947 -0.634726
H 1.722761 0.313284 0.038497
5
Structure 3071 | Energy: -10.836088 Hartree
N 0.818650 -2.746608 1.724613
N 0.358570 -1.865565 1.258050
O 2.512423 -0.187918 0.203751
H 3.024683 -0.056985 -0.596766
H 1.668767 0.252352 0.076457
5
Structure 3072 | Energy: -10.836098 Hartree
N 0.818650 -2.746608 1.724613
N 0.358570 -1.865565 1.258050
O 2.513331 -0.189893 0.202140
H 3.012293 -0.025919 -0.600686
H 1.666745 0.252638 0.105946
5
Structure 3073 | Energy: -10.836109 Hartree
N 0.818650 -2.746608 1.724613
N 0.358570 -1.865565 1.258050
O 2.516137 -0.190434 0.200585
H 2.977142 -0.000454 -0.619026
H 1.657362 0.235755 0.148965
5
Structure 3074 | Energy: -10.836170 Hartree
N 0.818650 -2.746608 1.724613
N 0.358570 -1.865565 1.258050
O 2.457890 -0.256166 0.241535
H 2.918896 -0.066186 -0.578076
H 1.599116 0.170023 0.189915
5
Structure 3075 | Energy: -10.833730 Hartree
N 2.665674 -0.662211 0.426068
N 2.205594 0.218832 -0.040494
O 0.610867 -2.340563 1.540080
H 1.071872 -2.150584 0.720469
H -0.247908 -1.914375 1.488460
5
Structure 3076 | Energy: -10.834071 Hartree
N 2.665674 -0.662211 0.426068
N 2.205594 0.218832 -0.040494
O 0.610713 -2.340509 1.540188
H -0.125934 -1.726383 1.564289
H 0.952337 -2.339439 0.642921
5
Structure 3077 | Energy: -10.833742 Hartree
N 2.665674 -0.662211 0.426068
N 2.205594 0.218832 -0.040494
O 0.671502 -2.286399 1.454983
H -0.065145 -1.672274 1.479083
H 1.013126 -2.285330 0.557716
5
Structure 3078 | Energy: -10.836179 Hartree
N 0.879440 -2.692499 1.639408
N 0.419359 -1.811456 1.172845
O 2.457737 -0.256112 0.241643
H 1.721089 0.358014 0.265744
H 2.799361 -0.255042 -0.655623
5
Structure 3079 | Energy: -10.833742 Hartree
N 2.665674 -0.662211 0.426068
N 2.205594 0.218832 -0.040494
O 0.671502 -2.286399 1.454983
H -0.065145 -1.672274 1.479083
H 1.013126 -2.285330 0.557716
5
Structure 3080 | Energy: -10.834084 Hartree
N 2.153705 0.058409 0.571547
N 2.717562 -0.501788 -0.185973
O 0.671502 -2.286399 1.454983
H -0.065145 -1.672274 1.479083
H 1.013126 -2.285330 0.557716
5
Structure 3081 | Energy: -10.834445 Hartree
N 1.227158 0.582132 0.233738
N 1.791015 0.021936 -0.523782
O 0.671502 -2.286399 1.454983
H -0.065145 -1.672274 1.479083
H 1.013126 -2.285330 0.557716
5
Structure 3082 | Energy: -10.834486 Hartree
N 1.227158 0.582132 0.233738
N 1.791015 0.021936 -0.523782
O 0.629948 -2.310596 1.390445
H 1.536105 -2.032676 1.538839
H 0.071425 -1.540881 1.522303
5
Structure 3083 | Energy: -10.834336 Hartree
N 1.227158 0.582132 0.233738
N 1.791015 0.021936 -0.523782
O 0.036234 -2.213660 1.098614
H 0.942392 -1.935740 1.247007
H -0.522289 -1.443945 1.230471
5
Structure 3084 | Energy: -10.834374 Hartree
N 1.227158 0.582132 0.233738
N 1.791015 0.021936 -0.523782
O 0.049333 -2.182252 1.174858
H 0.964520 -1.916709 1.285763
H -0.492393 -1.403382 1.322133
5
Structure 3085 | Energy: -10.834613 Hartree
N 1.227158 0.582132 0.233738
N 1.791015 0.021936 -0.523782
O 0.009404 -1.929357 1.533217
H 0.953777 -1.765139 1.493558
H -0.418527 -1.087170 1.704661
5
Structure 3086 | Energy: -10.834150 Hartree
N 1.227158 0.582132 0.233738
N 1.791015 0.021936 -0.523782
O 0.087146 -1.814387 1.444119
H 1.031519 -1.650169 1.404461
H -0.340785 -0.972200 1.615563
5
Structure 3087 | Energy: -10.834147 Hartree
N 1.227158 0.582132 0.233738
N 1.791015 0.021936 -0.523782
O 0.089957 -1.815817 1.444726
H 1.027463 -1.612253 1.449847
H -0.381347 -0.987412 1.560541
5
Structure 3088 | Energy: -10.835543 Hartree
N 1.227158 0.582132 0.233738
N 1.791015 0.021936 -0.523782
O 0.142345 -1.700810 1.460943
H 0.611239 -2.525999 1.321006
H -0.796618 -1.899067 1.431994
5
Structure 3089 | Energy: -10.834228 Hartree
N -0.165886 -1.477977 1.830253
N 0.397971 -2.038173 1.072733
O 1.535388 0.359299 -0.135572
H 2.004282 -0.465890 -0.275509
H 0.596425 0.161042 -0.164521
5
Structure 3090 | Energy: -10.833717 Hartree
N -0.142175 -1.483094 1.707603
N 0.421682 -2.043291 0.950083
O 1.535388 0.359299 -0.135572
H 2.004282 -0.465890 -0.275509
H 0.596425 0.161042 -0.164521
5
Structure 3091 | Energy: -10.833868 Hartree
N -0.142175 -1.483094 1.707603
N 0.421682 -2.043291 0.950083
O 1.502464 0.247374 -0.313691
H 1.995997 -0.573639 -0.366070
H 0.569888 0.020330 -0.337108
5
Structure 3092 | Energy: -10.834960 Hartree
N -0.670955 -1.654092 2.218460
N -0.107098 -2.214288 1.460941
O 1.502464 0.247374 -0.313691
H 1.995997 -0.573639 -0.366070
H 0.569888 0.020330 -0.337108
5
Structure 3093 | Energy: -10.835027 Hartree
N -0.493534 -1.455652 2.484979
N 0.030123 -2.071919 1.742288
O 1.502464 0.247374 -0.313691
H 1.995997 -0.573639 -0.366070
H 0.569888 0.020330 -0.337108
5
Structure 3094 | Energy: -10.835472 Hartree
N -0.493534 -1.455652 2.484979
N 0.030123 -2.071919 1.742288
O 1.425115 0.224428 -0.318229
H 2.253434 0.437514 0.116355
H 1.540140 -0.626625 -0.747500
5
Structure 3095 | Energy: -10.834836 Hartree
N -0.493534 -1.455652 2.484979
N 0.030123 -2.071919 1.742288
O 1.978266 0.771357 -1.000086
H 2.806585 0.984443 -0.565502
H 2.093292 -0.079696 -1.429358
5
Structure 3096 | Energy: -10.834784 Hartree
N -0.480138 -1.643956 2.532667
N 0.043519 -2.260223 1.789976
O 1.978266 0.771357 -1.000086
H 2.806585 0.984443 -0.565502
H 2.093292 -0.079696 -1.429358
5
Structure 3097 | Energy: -10.834782 Hartree
N -0.343210 -1.526696 2.700416
N 0.217507 -2.163010 2.003069
O 1.978266 0.771357 -1.000086
H 2.806585 0.984443 -0.565502
H 2.093292 -0.079696 -1.429358
5
Structure 3098 | Energy: -10.834773 Hartree
N -0.343210 -1.526696 2.700416
N 0.217507 -2.163010 2.003069
O 1.840522 0.753336 -1.121581
H 2.668840 0.966422 -0.686997
H 1.955547 -0.097717 -1.550852
5
Structure 3099 | Energy: -10.834815 Hartree
N -0.343210 -1.526696 2.700416
N 0.217507 -2.163010 2.003069
O 1.787279 0.683591 -1.027053
H 2.615598 0.896677 -0.592469
H 1.902305 -0.167462 -1.456324
5
Structure 3100 | Energy: -10.834813 Hartree
N -0.343210 -1.526696 2.700416
N 0.217507 -2.163010 2.003069
O 2.219794 0.659056 -0.771116
H 2.998625 0.847686 -0.243648
H 2.361566 -0.191611 -1.193091
5
Structure 3101 | Energy: -10.834814 Hartree
N -0.343210 -1.526696 2.700416
N 0.217507 -2.163010 2.003069
O 2.219795 0.659056 -0.771116
H 3.000718 0.849971 -0.247580
H 2.359469 -0.193900 -1.189151
5
Structure 3102 | Energy: -10.834857 Hartree
N -0.284662 -1.464819 2.622233
N 0.276055 -2.101133 1.924886
O 2.219795 0.659056 -0.771116
H 3.000718 0.849971 -0.247580
H 2.359469 -0.193900 -1.189151
5
Structure 3103 | Energy: -10.834846 Hartree
N -0.210659 -1.229228 2.809054
N 0.260958 -1.913716 2.091668
O 2.219795 0.659056 -0.771116
H 3.000718 0.849971 -0.247580
H 2.359469 -0.193900 -1.189151
5
Structure 3104 | Energy: -10.834843 Hartree
N -0.194819 -1.232040 2.821572
N 0.245118 -1.910904 2.079150
O 2.219795 0.659056 -0.771116
H 3.000718 0.849971 -0.247580
H 2.359469 -0.193900 -1.189151
5
Structure 3105 | Energy: -10.834798 Hartree
N -0.194819 -1.232040 2.821572
N 0.245118 -1.910904 2.079150
O 2.230555 0.666200 -0.786361
H 2.915225 0.793207 -0.126455
H 2.274172 -0.250534 -1.068304
5
Structure 3106 | Energy: -10.834712 Hartree
N -0.194819 -1.232040 2.821572
N 0.245118 -1.910904 2.079150
O 2.773781 1.108867 -0.302832
H 3.458451 1.235873 0.357074
H 2.817398 0.192132 -0.584775
5
Structure 3107 | Energy: -10.834750 Hartree
N -0.194819 -1.232040 2.821572
N 0.245118 -1.910904 2.079150
O 2.695757 1.035129 -0.226412
H 3.380427 1.162135 0.433494
H 2.739374 0.118394 -0.508355
5
Structure 3108 | Energy: -10.834752 Hartree
N -0.194819 -1.232040 2.821572
N 0.245118 -1.910904 2.079150
O 3.143890 0.751035 0.006789
H 3.737666 0.900101 0.745429
H 3.185677 -0.183984 -0.207194
5
Structure 3109 | Energy: -10.834761 Hartree
N -0.194819 -1.232040 2.821572
N 0.245118 -1.910904 2.079150
O 3.142232 0.750812 0.008563
H 3.770564 0.903684 0.717231
H 3.179084 -0.184017 -0.207151
5
Structure 3110 | Energy: -10.834670 Hartree
N 2.959483 1.046491 0.407356
N 3.399420 0.367626 -0.335066
O -0.012070 -1.527719 2.422779
H 0.616262 -1.374847 3.131447
H 0.024782 -2.462548 2.207065
5
Structure 3111 | Energy: -10.834654 Hartree
N 2.959483 1.046491 0.407356
N 3.399420 0.367626 -0.335066
O -0.352474 -1.317687 2.135955
H 0.275857 -1.164815 2.844624
H -0.315622 -2.252516 1.920241
5
Structure 3112 | Energy: -10.834835 Hartree
N 2.959483 1.046491 0.407356
N 3.399420 0.367626 -0.335066
O -0.289109 -1.409019 2.130175
H -0.802070 -0.680180 1.775145
H -0.243422 -1.287528 3.081463
5
Structure 3113 | Energy: -10.834832 Hartree
N 2.959483 1.046491 0.407356
N 3.399420 0.367626 -0.335066
O -0.291341 -1.410500 2.130650
H -0.793416 -0.675943 1.771864
H -0.216648 -1.268250 3.077213
5
Structure 3114 | Energy: -10.834853 Hartree
N 2.959483 1.046491 0.407356
N 3.399420 0.367626 -0.335066
O -0.240228 -1.341855 2.189581
H -0.742303 -0.607298 1.830795
H -0.165534 -1.199605 3.136144
5
Structure 3115 | Energy: -10.834853 Hartree
N 2.959483 1.046491 0.407356
N 3.399420 0.367626 -0.335066
O -0.240314 -1.341802 2.189439
H -0.740554 -0.605004 1.832691
H -0.165909 -1.202743 3.136499
5
Structure 3116 | Energy: -10.834851 Hartree
N 2.947596 1.110398 0.470882
N 3.404043 0.446639 -0.275221
O -0.240314 -1.341802 2.189439
H -0.740554 -0.605004 1.832691
H -0.165909 -1.202743 3.136499
5
Structure 3117 | Energy: -10.834360 Hartree
N 2.947596 1.110398 0.470882
N 3.404043 0.446639 -0.275221
O -0.316825 -1.275099 2.253641
H -0.132669 -1.134966 1.322603
H 0.440586 -1.731493 2.627578
5
Structure 3118 | Energy: -10.834358 Hartree
N 2.894305 1.078311 0.503796
N 3.350753 0.414551 -0.242307
O -0.316825 -1.275099 2.253641
H -0.132669 -1.134966 1.322603
H 0.440586 -1.731493 2.627578
5
Structure 3119 | Energy: -10.834430 Hartree
N 2.894305 1.078311 0.503796
N 3.350753 0.414551 -0.242307
O -0.222895 -2.287105 1.971160
H -0.038739 -2.146972 1.040122
H 0.534516 -2.743500 2.345097
5
Structure 3120 | Energy: -10.834427 Hartree
N 2.894305 1.078311 0.503796
N 3.350753 0.414551 -0.242307
O -0.369910 -2.162610 1.897574
H -0.122911 -2.072582 0.974932
H 0.356096 -2.604355 2.344309
5
Structure 3121 | Energy: -10.834754 Hartree
N -0.543691 -1.850410 2.243996
N -0.087243 -2.514170 1.497894
O 3.068086 0.766111 0.157373
H 3.315085 0.856138 -0.765269
H 3.794092 0.324366 0.604108
5
Structure 3122 | Energy: -10.834427 Hartree
N 2.894305 1.078311 0.503796
N 3.350753 0.414551 -0.242307
O -0.369910 -2.162610 1.897574
H -0.122911 -2.072582 0.974932
H 0.356096 -2.604355 2.344309
5
Structure 3123 | Energy: -10.834754 Hartree
N -0.543691 -1.850410 2.243996
N -0.087243 -2.514170 1.497894
O 3.068086 0.766111 0.157373
H 3.315085 0.856138 -0.765269
H 3.794092 0.324366 0.604108
5
Structure 3124 | Energy: -10.834753 Hartree
N -0.539905 -1.855733 2.244012
N -0.082550 -2.518801 1.497850
O 3.068086 0.766111 0.157373
H 3.315085 0.856138 -0.765269
H 3.794092 0.324366 0.604108
5
Structure 3125 | Energy: -10.834780 Hartree
N -0.490198 -1.763831 2.252963
N -0.032843 -2.426899 1.506800
O 3.068086 0.766111 0.157373
H 3.315085 0.856138 -0.765269
H 3.794092 0.324366 0.604108
5
Structure 3126 | Energy: -10.834424 Hartree
N 2.893852 1.077965 0.503825
N 3.351207 0.414897 -0.242337
O -0.315963 -2.075686 1.906510
H -0.068965 -1.985658 0.983868
H 0.410043 -2.517431 2.353246
5
Structure 3127 | Energy: -10.834454 Hartree
N 2.893852 1.077965 0.503825
N 3.351207 0.414897 -0.242337
O -0.269887 -2.342073 1.506816
H 0.003738 -2.156111 0.606301
H 0.456357 -2.801024 1.935453
5
Structure 3128 | Energy: -10.834768 Hartree
N -0.442618 -2.025814 1.853494
N 0.014737 -2.688882 1.107332
O 3.066583 0.761705 0.157148
H 3.340208 0.947667 -0.743368
H 3.792827 0.302754 0.585785
5
Structure 3129 | Energy: -10.834769 Hartree
N -0.442618 -2.025814 1.853494
N 0.014737 -2.688882 1.107332
O 3.068327 0.761387 0.160725
H 3.301272 0.990418 -0.741307
H 3.804087 0.265064 0.526944
5
Structure 3130 | Energy: -10.834773 Hartree
N -0.442618 -2.025814 1.853494
N 0.014737 -2.688882 1.107332
O 3.166910 0.661405 0.177208
H 3.413546 0.880515 -0.723648
H 3.885172 0.145480 0.550995
5
Structure 3131 | Energy: -10.834799 Hartree
N -0.067249 -2.222014 1.148948
N 0.390107 -2.885082 0.402786
O 3.166910 0.661405 0.177208
H 3.413546 0.880515 -0.723648
H 3.885172 0.145480 0.550995
5
Structure 3132 | Energy: -10.834847 Hartree
N 0.393046 -2.191182 2.168639
N 0.850401 -2.854250 1.422477
O 3.166910 0.661405 0.177208
H 3.413546 0.880515 -0.723648
H 3.885172 0.145480 0.550995
5
Structure 3133 | Energy: -10.834501 Hartree
N 2.992222 0.976331 0.520798
N 3.449577 0.313263 -0.225364
O 0.567734 -2.506108 1.825049
H 0.814370 -2.286998 0.924193
H 1.285996 -3.022033 2.198836
5
Structure 3134 | Energy: -10.834520 Hartree
N 2.856065 1.114765 0.671256
N 3.354853 0.495948 -0.086285
O 0.567734 -2.506108 1.825049
H 0.814370 -2.286998 0.924193
H 1.285996 -3.022033 2.198836
5
Structure 3135 | Energy: -10.834500 Hartree
N 2.856065 1.114765 0.671256
N 3.354853 0.495948 -0.086285
O 0.568632 -2.527004 1.945035
H 0.815267 -2.307894 1.044178
H 1.286894 -3.042929 2.318821
5
Structure 3136 | Energy: -10.834410 Hartree
N 3.524772 0.581174 0.018047
N 2.686146 1.029539 0.566924
O 0.568632 -2.527004 1.945035
H 0.815267 -2.307894 1.044178
H 1.286894 -3.042929 2.318821
5
Structure 3137 | Energy: -10.834900 Hartree
N -0.753345 1.894181 2.362728
N 0.239497 1.780445 1.907843
O 0.568632 -2.527004 1.945035
H 0.815267 -2.307894 1.044178
H 1.286894 -3.042929 2.318821
5
Structure 3138 | Energy: -10.834674 Hartree
N 0.131545 2.511417 2.397312
N 1.124387 2.397681 1.942428
O 0.568632 -2.527004 1.945035
H 0.815267 -2.307894 1.044178
H 1.286894 -3.042929 2.318821
5
Structure 3139 | Energy: -10.834676 Hartree
N 0.131013 2.516116 2.394914
N 1.124919 2.392982 1.944826
O 0.568632 -2.527004 1.945035
H 0.815267 -2.307894 1.044178
H 1.286894 -3.042929 2.318821
5
Structure 3140 | Energy: -10.834484 Hartree
N 0.125668 -2.482044 2.140587
N 1.119574 -2.605179 1.690500
O 0.573977 2.471157 2.199361
H 0.820612 2.690267 1.298505
H 1.292239 1.955231 2.573148
5
Structure 3141 | Energy: -10.834447 Hartree
N 0.406512 -2.370852 1.708521
N 1.400419 -2.493986 1.258433
O 0.573977 2.471157 2.199361
H 0.820612 2.690267 1.298505
H 1.292239 1.955231 2.573148
5
Structure 3142 | Energy: -10.834454 Hartree
N 0.428089 -2.386852 1.754287
N 1.378843 -2.477986 1.212667
O 0.573977 2.471157 2.199361
H 0.820612 2.690267 1.298505
H 1.292239 1.955231 2.573148
5
Structure 3143 | Energy: -10.834454 Hartree
N 0.428089 -2.386852 1.754287
N 1.378843 -2.477986 1.212667
O -0.577538 2.140402 0.233659
H 0.283749 2.536061 0.382048
H -0.463870 1.450817 -0.424632
5
Structure 3144 | Energy: -10.834480 Hartree
N 0.428089 -2.386852 1.754287
N 1.378843 -2.477986 1.212667
O -0.176760 2.463504 0.042454
H 0.684527 2.859164 0.190843
H -0.063093 1.773919 -0.615837
5
Structure 3145 | Energy: -10.834638 Hartree
N -0.597585 2.492626 0.284733
N 0.353169 2.401491 -0.256887
O 0.848914 -2.415973 1.512008
H 1.710201 -2.020314 1.660397
H 0.962582 -3.105558 0.853716
5
Structure 3146 | Energy: -10.834640 Hartree
N -0.603925 2.489942 0.273745
N 0.359509 2.404174 -0.245898
O 0.848914 -2.415973 1.512008
H 1.710201 -2.020314 1.660397
H 0.962582 -3.105558 0.853716
5
Structure 3147 | Energy: -10.834512 Hartree
N -0.603925 2.489942 0.273745
N 0.359509 2.404174 -0.245898
O 0.134941 -3.115366 2.116574
H 0.996228 -2.719706 2.264963
H 0.248608 -3.804951 1.458283
5
Structure 3148 | Energy: -10.834541 Hartree
N -0.550662 2.391160 -0.324751
N 0.306246 2.502957 0.352598
O 0.134941 -3.115366 2.116574
H 0.996228 -2.719706 2.264963
H 0.248608 -3.804951 1.458283
5
Structure 3149 | Energy: -10.834544 Hartree
N -0.510079 2.350097 -0.261216
N 0.346829 2.461895 0.416132
O 0.134941 -3.115366 2.116574
H 0.996228 -2.719706 2.264963
H 0.248608 -3.804951 1.458283
5
Structure 3150 | Energy: -10.834545 Hartree
N -0.510079 2.350097 -0.261216
N 0.346829 2.461895 0.416132
O 0.150724 -3.118651 2.112731
H 1.012011 -2.722992 2.261120
H 0.264391 -3.808237 1.454440
5
Structure 3151 | Energy: -10.834496 Hartree
N -0.223178 -3.190996 1.745526
N 0.633730 -3.079199 2.422874
O -0.136177 2.422442 0.105989
H 0.725110 2.818101 0.254378
H -0.022509 1.732857 -0.552302
5
Structure 3152 | Energy: -10.834487 Hartree
N 0.253880 -2.590584 2.033794
N 0.156671 -3.679611 2.134606
O -0.136177 2.422442 0.105989
H 0.725110 2.818101 0.254378
H -0.022509 1.732857 -0.552302
5
Structure 3153 | Energy: -10.834458 Hartree
N 0.253880 -2.590584 2.033794
N 0.156671 -3.679611 2.134606
O -0.176250 2.297130 -0.622370
H 0.685037 2.692790 -0.473981
H -0.062582 1.607545 -1.280661
5
Structure 3154 | Energy: -10.834454 Hartree
N 0.253880 -2.590584 2.033794
N 0.156671 -3.679611 2.134606
O -0.176338 2.294850 -0.621334
H 0.670849 2.724655 -0.487461
H -0.046991 1.611883 -1.283620
5
Structure 3155 | Energy: -10.834461 Hartree
N 0.253880 -2.590584 2.033794
N 0.156671 -3.679611 2.134606
O -0.573003 2.082859 -0.935250
H 0.235869 2.585793 -0.820516
H -0.382206 1.375485 -1.555744
5
Structure 3156 | Energy: -10.834465 Hartree
N 0.299974 -2.527650 1.965529
N 0.202764 -3.616676 2.066341
O -0.573003 2.082859 -0.935250
H 0.235869 2.585793 -0.820516
H -0.382206 1.375485 -1.555744
5
Structure 3157 | Energy: -10.834462 Hartree
N -0.468464 2.615933 -1.013955
N -0.565673 1.526907 -0.913143
O 0.195434 -3.060724 2.044234
H 1.004307 -2.557790 2.158968
H 0.386231 -3.768099 1.423740
5
Structure 3158 | Energy: -10.834498 Hartree
N -0.445770 1.799531 -1.546966
N -0.542980 0.710505 -1.446153
O 0.195434 -3.060724 2.044234
H 1.004307 -2.557790 2.158968
H 0.386231 -3.768099 1.423740
5
Structure 3159 | Energy: -10.834500 Hartree
N -0.456449 1.799733 -1.553522
N -0.532301 0.710303 -1.439597
O 0.195434 -3.060724 2.044234
H 1.004307 -2.557790 2.158968
H 0.386231 -3.768099 1.423740
5
Structure 3160 | Energy: -10.834512 Hartree
N -0.542744 1.529997 -1.827852
N -0.618597 0.440566 -1.713927
O 0.195434 -3.060724 2.044234
H 1.004307 -2.557790 2.158968
H 0.386231 -3.768099 1.423740
5
Structure 3161 | Energy: -10.834465 Hartree
N 0.289295 -2.527448 1.958973
N 0.213443 -3.616878 2.072897
O -0.636605 0.996720 -1.742591
H 0.172267 1.499654 -1.627856
H -0.445808 0.289346 -2.363085
5
Structure 3162 | Energy: -10.834512 Hartree
N -0.542744 1.529997 -1.827852
N -0.618597 0.440566 -1.713927
O 0.195434 -3.060724 2.044234
H 1.004307 -2.557790 2.158968
H 0.386231 -3.768099 1.423740
5
Structure 3163 | Energy: -10.834497 Hartree
N -0.542744 1.529997 -1.827852
N -0.618597 0.440566 -1.713927
O -1.287685 -3.398843 1.665278
H -1.961903 -2.805145 2.001929
H -1.711515 -3.977409 1.026979
5
Structure 3164 | Energy: -10.834635 Hartree
N -1.249587 0.825502 -1.465413
N -1.325439 -0.263929 -1.351488
O -1.287685 -3.398843 1.665278
H -1.961903 -2.805145 2.001929
H -1.711515 -3.977409 1.026979
5
Structure 3165 | Energy: -10.834653 Hartree
N -1.249587 0.825502 -1.465413
N -1.325439 -0.263929 -1.351488
O -1.286414 -3.322956 1.602220
H -1.960632 -2.729258 1.938871
H -1.710244 -3.901522 0.963922
5
Structure 3166 | Energy: -10.834691 Hartree
N -1.718968 0.707688 -1.599379
N -1.739030 -0.378699 -1.441415
O -1.286414 -3.322956 1.602220
H -1.960632 -2.729258 1.938871
H -1.710244 -3.901522 0.963922
5
Structure 3167 | Energy: -10.834723 Hartree
N -1.718968 0.707688 -1.599379
N -1.739030 -0.378699 -1.441415
O -0.383226 -2.642042 2.223551
H -1.057443 -2.048344 2.560202
H -0.807056 -3.220608 1.585252
5
Structure 3168 | Energy: -10.834746 Hartree
N -1.718968 0.707688 -1.599379
N -1.739030 -0.378699 -1.441415
O -0.509127 -2.514358 2.223287
H -1.183344 -1.920660 2.559938
H -0.932957 -3.092924 1.584988
5
Structure 3169 | Energy: -10.834773 Hartree
N -1.718968 0.707688 -1.599379
N -1.739030 -0.378699 -1.441415
O -0.509088 -2.514381 2.223143
H -0.880178 -2.098658 1.442217
H -1.236740 -2.914564 2.704985
5
Structure 3170 | Energy: -10.834499 Hartree
N -0.560535 -1.970318 2.127427
N -0.580597 -3.056705 2.285390
O -1.667521 0.163625 -1.503662
H -2.038611 0.579349 -2.284589
H -2.395173 -0.236558 -1.021820
5
Structure 3171 | Energy: -10.834505 Hartree
N -0.607714 -1.992028 2.051486
N -0.627776 -3.078415 2.209450
O -1.672348 0.115534 -1.498899
H -2.043438 0.531257 -2.279826
H -2.400000 -0.284650 -1.017057
5
Structure 3172 | Energy: -10.834497 Hartree
N -0.607714 -1.992028 2.051486
N -0.627776 -3.078415 2.209450
O -1.672434 0.119265 -1.498805
H -2.062341 0.489923 -2.293138
H -2.379727 -0.302549 -1.005241
5
Structure 3173 | Energy: -10.834833 Hartree
N -1.723795 0.659597 -1.594616
N -1.743857 -0.426790 -1.436652
O -0.556352 -2.532359 2.147297
H -0.946260 -2.161702 1.352963
H -1.263646 -2.954174 2.640860
5
Structure 3174 | Energy: -10.834556 Hartree
N 1.280096 2.101785 1.680107
N 1.471077 1.110962 1.247225
O -0.556352 -2.532359 2.147297
H -0.946260 -2.161702 1.352963
H -1.263646 -2.954174 2.640860
5
Structure 3175 | Energy: -10.834539 Hartree
N 1.280096 2.101785 1.680107
N 1.471077 1.110962 1.247225
O -0.646038 -2.512798 1.987414
H -1.024596 -2.105000 1.205893
H -1.364197 -2.937381 2.462570
5
Structure 3176 | Energy: -10.834515 Hartree
N 1.280096 2.101785 1.680107
N 1.471077 1.110962 1.247225
O 0.139119 -2.283399 1.435032
H -0.239439 -1.875601 0.653510
H -0.579040 -2.707981 1.910188
5
Structure 3177 | Energy: -10.834609 Hartree
N 1.280096 2.101785 1.680107
N 1.471077 1.110962 1.247225
O -0.036093 -1.970185 1.739849
H -0.414650 -1.562387 0.958328
H -0.754251 -2.394768 2.215005
5
Structure 3178 | Energy: -10.834606 Hartree
N 1.287583 2.099368 1.694168
N 1.478191 1.109216 1.259588
O -0.036093 -1.970185 1.739849
H -0.414650 -1.562387 0.958328
H -0.754251 -2.394768 2.215005
5
Structure 3179 | Energy: -10.835191 Hartree
N 1.925359 1.551144 1.542429
N 0.840414 1.657440 1.411328
O -0.036093 -1.970185 1.739849
H -0.414650 -1.562387 0.958328
H -0.754251 -2.394768 2.215005
5
Structure 3180 | Energy: -10.835176 Hartree
N 1.925359 1.551144 1.542429
N 0.840414 1.657440 1.411328
O -0.066999 -1.937888 1.677673
H -1.006555 -2.129849 1.705361
H 0.328204 -2.339918 2.454836
5
Structure 3181 | Energy: -10.835192 Hartree
N 2.538523 0.388941 1.151128
N 1.453578 0.495237 1.020027
O -0.066999 -1.937888 1.677673
H -1.006555 -2.129849 1.705361
H 0.328204 -2.339918 2.454836
5
Structure 3182 | Energy: -10.835231 Hartree
N 2.463490 0.302450 1.173963
N 1.378545 0.408745 1.042862
O -0.066999 -1.937888 1.677673
H -1.006555 -2.129849 1.705361
H 0.328204 -2.339918 2.454836
5
Structure 3183 | Energy: -10.834864 Hartree
N 3.216215 -2.204418 0.725785
N 2.291786 -2.242929 0.134567
O -0.066999 -1.937888 1.677673
H -1.006555 -2.129849 1.705361
H 0.328204 -2.339918 2.454836
5
Structure 3184 | Energy: -10.834871 Hartree
N 3.248765 -2.207301 0.711030
N 2.324335 -2.245812 0.119813
O -0.066999 -1.937888 1.677673
H -1.006555 -2.129849 1.705361
H 0.328204 -2.339918 2.454836
5
Structure 3185 | Energy: -10.835357 Hartree
N 3.163488 -1.883887 0.620099
N 2.409612 -2.569226 0.210744
O -0.066999 -1.937888 1.677673
H -1.006555 -2.129849 1.705361
H 0.328204 -2.339918 2.454836
5
Structure 3186 | Energy: -10.835480 Hartree
N 3.021451 -2.069832 0.266759
N 2.224169 -2.785656 0.026905
O -0.066999 -1.937888 1.677673
H -1.006555 -2.129849 1.705361
H 0.328204 -2.339918 2.454836
5
Structure 3187 | Energy: -10.835424 Hartree
N 3.109071 -2.136633 0.478561
N 2.326014 -2.860848 0.217937
O -0.066999 -1.937888 1.677673
H -1.006555 -2.129849 1.705361
H 0.328204 -2.339918 2.454836
5
Structure 3188 | Energy: -10.833569 Hartree
N 0.294071 -1.609016 1.853019
N -0.488986 -2.333231 1.592395
O 2.748001 -2.465505 0.303215
H 1.808445 -2.657465 0.330903
H 3.143204 -2.867534 1.080378
5
Structure 3189 | Energy: -10.832404 Hartree
N 0.939360 -2.350026 2.388773
N 0.156303 -3.074241 2.128149
O 2.748001 -2.465505 0.303215
H 1.808445 -2.657465 0.330903
H 3.143204 -2.867534 1.080378
5
Structure 3190 | Energy: -10.833273 Hartree
N 0.939360 -2.350026 2.388773
N 0.156303 -3.074241 2.128149
O 2.518839 -1.730021 0.201846
H 1.579284 -1.921981 0.229534
H 2.914043 -2.132050 0.979009
5
Structure 3191 | Energy: -10.834363 Hartree
N 0.939360 -2.350026 2.388773
N 0.156303 -3.074241 2.128149
O 2.694329 -1.578394 0.084262
H 1.754773 -1.770354 0.111950
H 3.089532 -1.980423 0.861425
5
Structure 3192 | Energy: -10.834250 Hartree
N 0.282396 -2.109269 1.588230
N -0.500661 -2.833484 1.327605
O 2.694329 -1.578394 0.084262
H 1.754773 -1.770354 0.111950
H 3.089532 -1.980423 0.861425
5
Structure 3193 | Energy: -10.834549 Hartree
N 2.612890 0.425586 -1.844204
N 2.375254 0.294620 -2.908144
O 2.694329 -1.578394 0.084262
H 1.754773 -1.770354 0.111950
H 3.089532 -1.980423 0.861425
5
Structure 3194 | Energy: -10.834900 Hartree
N 2.278341 0.987432 -1.822278
N 2.040705 0.856466 -2.886218
O 2.694329 -1.578394 0.084262
H 1.754773 -1.770354 0.111950
H 3.089532 -1.980423 0.861425
5
Structure 3195 | Energy: -10.834962 Hartree
N 2.278341 0.987432 -1.822278
N 2.040705 0.856466 -2.886218
O 2.694354 -1.578446 0.084241
H 1.954767 -2.174424 -0.050667
H 2.889131 -1.575531 1.024374
5
Structure 3196 | Energy: -10.834958 Hartree
N 2.278341 0.987432 -1.822278
N 2.040705 0.856466 -2.886218
O 2.684956 -1.573491 0.091349
H 1.944819 -2.168709 -0.043907
H 2.877521 -1.568653 1.031930
5
Structure 3197 | Energy: -10.834674 Hartree
N 2.773136 -1.541042 0.668380
N 2.535500 -1.672008 -0.395560
O 2.190161 0.954983 -2.399309
H 1.450024 0.359766 -2.534565
H 2.382726 0.959821 -1.458728
5
Structure 3198 | Energy: -10.834660 Hartree
N 2.773136 -1.541042 0.668380
N 2.535500 -1.672008 -0.395560
O 2.274708 1.246139 -3.296226
H 1.534571 0.650922 -3.431483
H 2.467273 1.250978 -2.355646
5
Structure 3199 | Energy: -10.834578 Hartree
N 2.362888 1.278588 -2.719196
N 2.125252 1.147623 -3.783136
O 2.684956 -1.573491 0.091349
H 1.944819 -2.168709 -0.043907
H 2.877521 -1.568653 1.031930
5
Structure 3200 | Energy: -10.834585 Hartree
N 2.299032 1.235709 -2.668799
N 2.061396 1.104743 -3.732739
O 2.684956 -1.573491 0.091349
H 1.944819 -2.168709 -0.043907
H 2.877521 -1.568653 1.031930
5
Structure 3201 | Energy: -10.834499 Hartree
N 2.299032 1.235709 -2.668799
N 2.061396 1.104743 -3.732739
O 3.356238 -2.077734 0.581356
H 2.616101 -2.672952 0.446100
H 3.548803 -2.072896 1.521937
5
Structure 3202 | Energy: -10.834504 Hartree
N 2.299032 1.235709 -2.668799
N 2.061396 1.104743 -3.732739
O 2.816144 -2.227315 0.579318
H 2.057101 -2.772597 0.362748
H 2.923281 -2.255263 1.533014
5
Structure 3203 | Energy: -10.834535 Hartree
N 2.898486 -2.193906 1.152533
N 2.660850 -2.324872 0.088593
O 2.216691 1.202300 -3.242014
H 1.457648 0.657018 -3.458583
H 2.323827 1.174353 -2.288317
5
Structure 3204 | Energy: -10.834504 Hartree
N 2.299032 1.235709 -2.668799
N 2.061396 1.104743 -3.732739
O 2.816144 -2.227315 0.579318
H 2.057101 -2.772597 0.362748
H 2.923281 -2.255263 1.533014
5
Structure 3205 | Energy: -10.834506 Hartree
N 2.325921 1.240665 -2.667348
N 2.102968 1.110932 -3.734612
O 2.816144 -2.227315 0.579318
H 2.057101 -2.772597 0.362748
H 2.923281 -2.255263 1.533014
5
Structure 3206 | Energy: -10.834533 Hartree
N 2.891145 -2.194523 1.154195
N 2.668191 -2.324256 0.086931
O 2.250921 1.207872 -3.242225
H 1.491878 0.662591 -3.458794
H 2.358058 1.179925 -2.288529
5
Structure 3207 | Energy: -10.834506 Hartree
N 2.325921 1.240665 -2.667348
N 2.102968 1.110932 -3.734612
O 2.816144 -2.227315 0.579318
H 2.057101 -2.772597 0.362748
H 2.923281 -2.255263 1.533014
5
Structure 3208 | Energy: -10.834533 Hartree
N 2.891145 -2.194523 1.154195
N 2.668191 -2.324256 0.086931
O 2.250921 1.207872 -3.242225
H 1.491878 0.662591 -3.458794
H 2.358058 1.179925 -2.288529
5
Structure 3209 | Energy: -10.834461 Hartree
N 2.891145 -2.194523 1.154195
N 2.668191 -2.324256 0.086931
O 1.539222 2.142352 -3.121384
H 0.780179 1.597071 -3.337953
H 1.646358 2.114405 -2.167687
5
Structure 3210 | Energy: -10.834446 Hartree
N 3.091504 -2.910852 0.385477
N 2.868550 -3.040584 -0.681787
O 1.539222 2.142352 -3.121384
H 0.780179 1.597071 -3.337953
H 1.646358 2.114405 -2.167687
5
Structure 3211 | Energy: -10.834451 Hartree
N 2.832056 -3.185290 0.072048
N 2.547039 -3.244685 -0.986645
O 1.539222 2.142352 -3.121384
H 0.780179 1.597071 -3.337953
H 1.646358 2.114405 -2.167687
5
Structure 3212 | Energy: -10.834453 Hartree
N 2.832056 -3.185290 0.072048
N 2.547039 -3.244685 -0.986645
O 2.296750 2.027161 -2.655666
H 1.537707 1.481879 -2.872235
H 2.403887 1.999214 -1.701970
5
Structure 3213 | Energy: -10.834447 Hartree
N 2.786685 -3.188253 0.082375
N 2.592410 -3.241722 -0.996972
O 2.296750 2.027161 -2.655666
H 1.537707 1.481879 -2.872235
H 2.403887 1.999214 -1.701970
5
Structure 3214 | Energy: -10.834447 Hartree
N 2.786685 -3.188253 0.082375
N 2.592410 -3.241722 -0.996972
O 2.296817 2.027108 -2.655648
H 1.538945 1.480454 -2.872860
H 2.401593 2.001482 -1.701625
5
Structure 3215 | Energy: -10.834444 Hartree
N 2.786685 -3.188253 0.082375
N 2.592410 -3.241722 -0.996972
O 2.152337 2.537310 -2.568715
H 1.394465 1.990656 -2.785927
H 2.257113 2.511684 -1.614692
5
Structure 3216 | Energy: -10.834444 Hartree
N 2.882631 -3.148674 0.141327
N 2.690583 -3.216570 -0.937607
O 2.152337 2.537310 -2.568715
H 1.394465 1.990656 -2.785927
H 2.257113 2.511684 -1.614692
5
Structure 3217 | Energy: -10.834444 Hartree
N 2.882631 -3.148674 0.141327
N 2.690583 -3.216570 -0.937607
O 2.152687 2.536949 -2.568682
H 1.388781 1.998988 -2.786456
H 2.257240 2.509069 -1.614697
5
Structure 3218 | Energy: -10.834450 Hartree
N 2.882631 -3.148674 0.141327
N 2.690583 -3.216570 -0.937607
O 1.723507 2.697757 -2.024576
H 0.959601 2.159795 -2.242350
H 1.828060 2.669877 -1.070591
5
Structure 3219 | Energy: -10.834448 Hartree
N 2.258765 -3.332809 -0.413112
N 3.314449 -3.032435 -0.383168
O 1.723507 2.697757 -2.024576
H 0.959601 2.159795 -2.242350
H 1.828060 2.669877 -1.070591
5
Structure 3220 | Energy: -10.834460 Hartree
N 3.000488 -3.068488 0.094431
N 2.572726 -3.296756 -0.890711
O 1.723507 2.697757 -2.024576
H 0.959601 2.159795 -2.242350
H 1.828060 2.669877 -1.070591
5
Structure 3221 | Energy: -10.834458 Hartree
N 3.000488 -3.068488 0.094431
N 2.572726 -3.296756 -0.890711
O 1.722493 2.698565 -2.024842
H 0.955594 2.161727 -2.234727
H 1.848170 2.655111 -1.073993
5
Structure 3222 | Energy: -10.834457 Hartree
N 2.520112 -3.019062 -0.053637
N 2.092349 -3.247330 -1.038778
O 1.722493 2.698565 -2.024842
H 0.955594 2.161727 -2.234727
H 1.848170 2.655111 -1.073993
5
Structure 3223 | Energy: -10.834456 Hartree
N 2.520112 -3.019062 -0.053637
N 2.092349 -3.247330 -1.038778
O 2.053629 2.600848 -2.441854
H 1.260106 2.092603 -2.621823
H 2.169576 2.618799 -1.488948
5
Structure 3224 | Energy: -10.834457 Hartree
N 2.520112 -3.019062 -0.053637
N 2.092349 -3.247330 -1.038778
O 2.054941 2.575083 -2.433491
H 1.261418 2.066838 -2.613460
H 2.170888 2.593033 -1.480585
5
Structure 3225 | Energy: -10.834457 Hartree
N 2.454054 -2.943403 -0.038401
N 2.026291 -3.171671 -1.023543
O 2.054941 2.575083 -2.433491
H 1.261418 2.066838 -2.613460
H 2.170888 2.593033 -1.480585
5
Structure 3226 | Energy: -10.834581 Hartree
N 2.230909 2.661783 -1.897672
N 1.803147 2.433515 -2.882813
O 2.278085 -3.030103 -0.574220
H 1.484562 -3.538348 -0.754189
H 2.394033 -3.012152 0.378686
5
Structure 3227 | Energy: -10.834555 Hartree
N 2.230909 2.661783 -1.897672
N 1.803147 2.433515 -2.882813
O -0.851532 2.474090 2.732585
H -1.101175 1.596595 3.029339
H -0.259134 2.839825 3.393719
5
Structure 3228 | Energy: -10.834556 Hartree
N 2.209929 2.812479 -1.901959
N 1.786741 2.582857 -2.888761
O -0.851532 2.474090 2.732585
H -1.101175 1.596595 3.029339
H -0.259134 2.839825 3.393719
5
Structure 3229 | Energy: -10.834554 Hartree
N 2.183562 2.783670 -1.917546
N 1.760375 2.554047 -2.904347
O -0.851532 2.474090 2.732585
H -1.101175 1.596595 3.029339
H -0.259134 2.839825 3.393719
5
Structure 3230 | Energy: -10.834551 Hartree
N 2.183562 2.783670 -1.917546
N 1.760375 2.554047 -2.904347
O -0.977514 2.461359 2.763807
H -1.227157 1.583865 3.060562
H -0.385117 2.827094 3.424942
5
Structure 3231 | Energy: -10.834548 Hartree
N 2.183562 2.783670 -1.917546
N 1.760375 2.554047 -2.904347
O -0.477044 2.370786 2.782075
H -0.726687 1.493291 3.078829
H 0.115354 2.736521 3.443209
5
Structure 3232 | Energy: -10.834506 Hartree
N 2.183562 2.783670 -1.917546
N 1.760375 2.554047 -2.904347
O 0.502400 2.084869 2.874017
H 0.252758 1.207375 3.170771
H 1.094798 2.450604 3.535151
5
Structure 3233 | Energy: -10.834507 Hartree
N 2.185928 2.778815 -1.917460
N 1.758009 2.558902 -2.904433
O 0.502400 2.084869 2.874017
H 0.252758 1.207375 3.170771
H 1.094798 2.450604 3.535151
5
Structure 3234 | Energy: -10.834507 Hartree
N 2.185928 2.778815 -1.917460
N 1.758009 2.558902 -2.904433
O 0.495731 2.085532 2.872231
H 0.244228 1.208370 3.168397
H 1.088065 2.449983 3.534131
5
Structure 3235 | Energy: -10.834518 Hartree
N 0.728761 2.166800 3.419324
N 0.300842 1.946887 2.432352
O 1.952898 2.697546 -2.464554
H 1.701395 1.820385 -2.168387
H 2.545232 3.061997 -1.802654
5
Structure 3236 | Energy: -10.834527 Hartree
N 0.728761 2.166800 3.419324
N 0.300842 1.946887 2.432352
O 1.844592 2.262155 -2.329500
H 1.593089 1.384993 -2.033334
H 2.436926 2.626606 -1.667600
5
Structure 3237 | Energy: -10.834526 Hartree
N 0.728561 2.160103 3.420855
N 0.301042 1.953584 2.430820
O 1.844592 2.262155 -2.329500
H 1.593089 1.384993 -2.033334
H 2.436926 2.626606 -1.667600
5
Structure 3238 | Energy: -10.834526 Hartree
N 0.728561 2.160103 3.420855
N 0.301042 1.953584 2.430820
O 1.854923 2.273546 -2.317608
H 1.603420 1.396384 -2.021442
H 2.447257 2.637997 -1.655708
5
Structure 3239 | Energy: -10.834518 Hartree
N 0.728561 2.160103 3.420855
N 0.301042 1.953584 2.430820
O 1.826539 2.198455 -2.327342
H 1.641077 1.315387 -2.001496
H 2.391398 2.627337 -1.680202
5
Structure 3240 | Energy: -10.834505 Hartree
N 2.061527 2.276301 -1.777883
N 1.634008 2.069782 -2.767918
O 0.493573 2.082257 2.871396
H 0.308111 1.199189 3.197242
H 1.058432 2.511139 3.518536
5
Structure 3241 | Energy: -10.834507 Hartree
N 2.061527 2.276301 -1.777883
N 1.634008 2.069782 -2.767918
O 0.492182 2.084200 2.872919
H 0.306837 1.193186 3.176434
H 1.081781 2.486300 3.515169
5
Structure 3242 | Energy: -10.834494 Hartree
N 2.061527 2.276301 -1.777883
N 1.634008 2.069782 -2.767918
O 0.495596 2.089555 2.874637
H 0.253565 1.188386 3.097562
H 1.080867 2.406104 3.566772
5
Structure 3243 | Energy: -10.834496 Hartree
N 2.061527 2.276301 -1.777883
N 1.634008 2.069782 -2.767918
O 0.494992 2.088924 2.874468
H 0.270321 1.184358 3.101768
H 1.073701 2.420154 3.565249
5
Structure 3244 | Energy: -10.834496 Hartree
N 2.061527 2.276301 -1.777883
N 1.634008 2.069782 -2.767918
O 0.490238 2.096922 2.873341
H 0.264528 1.192863 3.101623
H 1.068624 2.428526 3.564213
5
Structure 3245 | Energy: -10.834517 Hartree
N 0.723731 2.168151 3.419788
N 0.296212 1.961632 2.429753
O 1.828034 2.205073 -2.324330
H 1.602324 1.301013 -2.096048
H 2.406421 2.536676 -1.633458
5
Structure 3246 | Energy: -10.834529 Hartree
N 0.575782 1.967827 2.966124
N 0.148263 1.761308 1.976090
O 1.828034 2.205073 -2.324330
H 1.602324 1.301013 -2.096048
H 2.406421 2.536676 -1.633458
5
Structure 3247 | Energy: -10.834565 Hartree
N 2.061527 2.276301 -1.777883
N 1.634008 2.069782 -2.767918
O 0.342289 1.896598 2.419677
H 0.116579 0.992539 2.647959
H 0.920676 2.228202 3.110549
5
Structure 3248 | Energy: -10.834507 Hartree
N 1.191581 2.484316 -1.351049
N 0.764062 2.277797 -2.341084
O 0.342289 1.896598 2.419677
H 0.116579 0.992539 2.647959
H 0.920676 2.228202 3.110549
5
Structure 3249 | Energy: -10.834714 Hartree
N 1.191581 2.484316 -1.351049
N 0.764062 2.277797 -2.341084
O -0.233111 1.323256 2.221720
H -0.458821 0.419196 2.450001
H 0.345276 1.654859 2.912591
5
Structure 3250 | Energy: -10.834730 Hartree
N 1.191581 2.484316 -1.351049
N 0.764062 2.277797 -2.341084
O -0.520550 1.829161 2.226092
H -0.795990 0.964581 2.537565
H 0.027512 2.217106 2.912330
5
Structure 3251 | Energy: -10.834561 Hartree
N 1.191581 2.484316 -1.351049
N 0.764062 2.277797 -2.341084
O -0.489903 1.816143 2.342226
H -0.845637 0.985447 2.020078
H -0.409271 2.402859 1.586541
5
Structure 3252 | Energy: -10.834538 Hartree
N 1.479646 2.416492 -1.214614
N 1.154438 2.145526 -2.227732
O -0.489903 1.816143 2.342226
H -0.845637 0.985447 2.020078
H -0.409271 2.402859 1.586541
5
Structure 3253 | Energy: -10.834543 Hartree
N 1.463205 2.444223 -1.313126
N 1.137996 2.173257 -2.326244
O -0.489903 1.816143 2.342226
H -0.845637 0.985447 2.020078
H -0.409271 2.402859 1.586541
5
Structure 3254 | Energy: -10.834574 Hartree
N 1.463205 2.444223 -1.313126
N 1.137996 2.173257 -2.326244
O -0.496346 1.818357 2.342980
H -0.794451 0.967860 2.014089
H -0.358202 2.385311 1.580566
5
Structure 3255 | Energy: -10.834577 Hartree
N 1.396033 2.753310 -1.280672
N 1.061341 2.552032 -2.306859
O -0.496346 1.818357 2.342980
H -0.794451 0.967860 2.014089
H -0.358202 2.385311 1.580566
5
Structure 3256 | Energy: -10.834805 Hartree
N -0.337950 1.903131 2.795011
N -0.672642 1.701852 1.768824
O 1.237637 2.668536 -1.732704
H 0.939532 1.818039 -2.061594
H 1.375781 3.235490 -2.495118
5
Structure 3257 | Energy: -10.834809 Hartree
N -0.402996 1.854884 2.797943
N -0.737687 1.653606 1.771756
O 1.208237 2.699780 -1.727679
H 0.910132 1.849283 -2.056569
H 1.346381 3.266735 -2.490093
5
Structure 3258 | Energy: -10.834630 Hartree
N -1.319071 1.687985 3.347217
N -1.653763 1.486706 2.321030
O 1.208237 2.699780 -1.727679
H 0.910132 1.849283 -2.056569
H 1.346381 3.266735 -2.490093
5
Structure 3259 | Energy: -10.834680 Hartree
N -1.319071 1.687985 3.347217
N -1.653763 1.486706 2.321030
O 1.457736 3.077515 -1.270807
H 1.159631 2.227018 -1.599697
H 1.595880 3.644469 -2.033221
5
Structure 3260 | Energy: -10.834685 Hartree
N -1.319071 1.687985 3.347217
N -1.653763 1.486706 2.321030
O 1.414860 3.162727 -1.246217
H 1.116755 2.312230 -1.575107
H 1.553004 3.729682 -2.008631
5
Structure 3261 | Energy: -10.834691 Hartree
N -1.319071 1.687985 3.347217
N -1.653763 1.486706 2.321030
O 1.398000 3.153637 -1.222076
H 1.099895 2.303140 -1.550966
H 1.536144 3.720591 -1.984490
5
Structure 3262 | Energy: -10.834395 Hartree
N 1.556396 3.238411 -0.770044
N 1.221704 3.037132 -1.796231
O -1.477467 1.603210 2.895185
H -1.775572 0.752713 2.566295
H -1.339323 2.170165 2.132772
5
Structure 3263 | Energy: -10.834661 Hartree
N 1.556396 3.238411 -0.770044
N 1.221704 3.037132 -1.796231
O -1.540308 1.573670 2.802992
H -0.650992 1.337500 2.531476
H -1.466479 2.054239 3.630880
5
Structure 3264 | Energy: -10.834579 Hartree
N 2.294988 3.088985 -0.810366
N 1.960296 2.887707 -1.836553
O -1.540308 1.573670 2.802992
H -0.650992 1.337500 2.531476
H -1.466479 2.054239 3.630880
5
Structure 3265 | Energy: -10.834584 Hartree
N 2.294988 3.088985 -0.810366
N 1.960296 2.887707 -1.836553
O -1.506568 1.586750 2.764178
H -0.617252 1.350580 2.492662
H -1.432740 2.067319 3.592067
5
Structure 3266 | Energy: -10.834588 Hartree
N 2.294988 3.088985 -0.810366
N 1.960296 2.887707 -1.836553
O -1.486399 1.594569 2.740975
H -0.597082 1.358399 2.469459
H -1.412570 2.075137 3.568863
5
Structure 3267 | Energy: -10.834431 Hartree
N -1.265161 1.708883 3.285200
N -1.599853 1.507604 2.259013
O 2.073751 2.974671 -1.354591
H 2.963067 2.738501 -1.626107
H 2.147579 3.455240 -0.526703
5
Structure 3268 | Energy: -10.834431 Hartree
N -1.266632 1.742341 3.274928
N -1.601324 1.541062 2.248741
O 2.073751 2.974671 -1.354591
H 2.963067 2.738501 -1.626107
H 2.147579 3.455240 -0.526703
5
Structure 3269 | Energy: -10.834589 Hartree
N 2.294988 3.088985 -0.810366
N 1.960296 2.887707 -1.836553
O -1.487869 1.628027 2.730703
H -0.598553 1.391857 2.459187
H -1.414040 2.108596 3.558592
5
Structure 3270 | Energy: -10.834431 Hartree
N -1.266632 1.742341 3.274928
N -1.601324 1.541062 2.248741
O 2.073751 2.974671 -1.354591
H 2.963067 2.738501 -1.626107
H 2.147579 3.455240 -0.526703
5
Structure 3271 | Energy: -10.836316 Hartree
N 0.464999 -0.418533 1.849969
N -0.086148 -0.710909 0.946896
O -1.534163 -2.316323 -1.181842
H -1.089762 -1.735780 -0.557625
H -1.856155 -1.765144 -1.897430
5
Structure 3272 | Energy: -10.836314 Hartree
N 0.464999 -0.418533 1.849969
N -0.086148 -0.710909 0.946896
O -1.708136 -2.428462 -0.972730
H -1.213372 -1.823119 -0.413322
H -2.023597 -1.922366 -1.723659
5
Structure 3273 | Energy: -10.836300 Hartree
N 0.477486 -0.457951 1.853206
N -0.098635 -0.671490 0.943660
O -1.708136 -2.428462 -0.972730
H -1.213372 -1.823119 -0.413322
H -2.023597 -1.922366 -1.723659
5
Structure 3274 | Energy: -10.835336 Hartree
N 0.477486 -0.457951 1.853206
N -0.098635 -0.671490 0.943660
O -2.887083 -1.870479 -1.246517
H -2.392320 -1.265136 -0.687109
H -3.202544 -1.364383 -1.997445
5
Structure 3275 | Energy: -10.835425 Hartree
N 0.477486 -0.457951 1.853206
N -0.098635 -0.671490 0.943660
O -2.808210 -1.858701 -1.205770
H -2.313446 -1.253358 -0.646361
H -3.123671 -1.352605 -1.956698
5
Structure 3276 | Energy: -10.835541 Hartree
N 0.477486 -0.457951 1.853206
N -0.098635 -0.671490 0.943660
O -2.720835 -1.822676 -1.129294
H -2.226072 -1.217333 -0.569886
H -3.036296 -1.316580 -1.880223
5
Structure 3277 | Energy: -10.835584 Hartree
N 0.433429 -0.550774 1.810337
N -0.142692 -0.764313 0.900791
O -2.720835 -1.822676 -1.129294
H -2.226072 -1.217333 -0.569886
H -3.036296 -1.316580 -1.880223
5
Structure 3278 | Energy: -10.835490 Hartree
N 0.433429 -0.550774 1.810337
N -0.142692 -0.764313 0.900791
O -2.720808 -1.822683 -1.129309
H -2.290875 -1.200949 -0.535362
H -2.971926 -1.332855 -1.914516
5
Structure 3279 | Energy: -10.835575 Hartree
N 0.353002 -0.581832 1.740065
N -0.223119 -0.795371 0.830518
O -2.720808 -1.822683 -1.129309
H -2.290875 -1.200949 -0.535362
H -2.971926 -1.332855 -1.914516
5
Structure 3280 | Energy: -10.835546 Hartree
N 0.349639 -0.573068 1.740040
N -0.219755 -0.804135 0.830542
O -2.720808 -1.822683 -1.129309
H -2.290875 -1.200949 -0.535362
H -2.971926 -1.332855 -1.914516
5
Structure 3281 | Energy: -10.835403 Hartree
N 0.505970 -0.527586 1.760659
N -0.063424 -0.758653 0.851160
O -2.720808 -1.822683 -1.129309
H -2.290875 -1.200949 -0.535362
H -2.971926 -1.332855 -1.914516
5
Structure 3282 | Energy: -10.835895 Hartree
N 0.505970 -0.527586 1.760659
N -0.063424 -0.758653 0.851160
O -2.273153 -2.563446 -0.920797
H -1.843220 -1.941712 -0.326849
H -2.524271 -2.073618 -1.706004
5
Structure 3283 | Energy: -10.835913 Hartree
N 0.505970 -0.527586 1.760659
N -0.063424 -0.758653 0.851160
O -2.232440 -2.583759 -0.948252
H -1.813993 -1.958014 -0.350327
H -2.476197 -2.097365 -1.737901
5
Structure 3284 | Energy: -10.835442 Hartree
N 0.368952 -0.403798 1.777198
N 0.073595 -0.882442 0.834620
O -2.232440 -2.583759 -0.948252
H -1.813993 -1.958014 -0.350327
H -2.476197 -2.097365 -1.737901
5
Structure 3285 | Energy: -10.835477 Hartree
N 0.368952 -0.403798 1.777198
N 0.073595 -0.882442 0.834620
O -2.179079 -2.542746 -0.898801
H -1.760632 -1.917001 -0.300875
H -2.422836 -2.056352 -1.688450
5
Structure 3286 | Energy: -10.835403 Hartree
N 0.358630 -0.367745 1.760331
N 0.083917 -0.918494 0.851488
O -2.179079 -2.542746 -0.898801
H -1.760632 -1.917001 -0.300875
H -2.422836 -2.056352 -1.688450
5
Structure 3287 | Energy: -10.834375 Hartree
N -2.031948 -2.205143 -0.455107
N -2.306661 -2.755893 -1.363950
O 0.211499 -0.705348 1.316637
H 0.629946 -0.079603 1.914563
H -0.032258 -0.218953 0.526988
5
Structure 3288 | Energy: -10.835502 Hartree
N -1.376598 0.766591 -1.159375
N -1.435738 1.019036 -2.225941
O 0.211499 -0.705348 1.316637
H 0.629946 -0.079603 1.914563
H -0.032258 -0.218953 0.526988
5
Structure 3289 | Energy: -10.835105 Hartree
N -0.877659 0.956627 -1.559228
N -1.934676 0.828999 -1.826088
O 0.211499 -0.705348 1.316637
H 0.629946 -0.079603 1.914563
H -0.032258 -0.218953 0.526988
5
Structure 3290 | Energy: -10.835060 Hartree
N -0.877659 0.956627 -1.559228
N -1.934676 0.828999 -1.826088
O 0.213334 -0.705067 1.319415
H 0.623616 -0.043596 1.883590
H -0.055057 -0.259409 0.513873
5
Structure 3291 | Energy: -10.834962 Hartree
N -0.908327 1.083327 -1.665552
N -1.965344 0.955699 -1.932413
O 0.213334 -0.705067 1.319415
H 0.623616 -0.043596 1.883590
H -0.055057 -0.259409 0.513873
5
Structure 3292 | Energy: -10.834766 Hartree
N -0.908327 1.083327 -1.665552
N -1.965344 0.955699 -1.932413
O 0.229615 -0.690718 1.347715
H 0.492485 0.226649 1.463928
H -0.182332 -0.757398 0.484352
5
Structure 3293 | Energy: -10.834789 Hartree
N 0.749782 -0.579306 1.439340
N -0.307235 -0.706934 1.172479
O -1.428494 0.971914 -1.757177
H -1.165624 1.889281 -1.640964
H -1.840441 0.905235 -2.620540
5
Structure 3294 | Energy: -10.834771 Hartree
N 0.810965 -0.588578 1.371523
N -0.246052 -0.716206 1.104662
O -1.428494 0.971914 -1.757177
H -1.165624 1.889281 -1.640964
H -1.840441 0.905235 -2.620540
5
Structure 3295 | Energy: -10.834515 Hartree
N -0.495270 2.622598 1.973847
N -0.037192 1.800235 1.409336
O -1.428494 0.971914 -1.757177
H -1.165624 1.889281 -1.640964
H -1.840441 0.905235 -2.620540
5
Structure 3296 | Energy: -10.834516 Hartree
N -0.489872 2.622333 1.973271
N -0.031794 1.799970 1.408761
O -1.428494 0.971914 -1.757177
H -1.165624 1.889281 -1.640964
H -1.840441 0.905235 -2.620540
5
Structure 3297 | Energy: -10.834507 Hartree
N 0.611222 3.220053 1.930042
N 1.069300 2.397690 1.365531
O -1.428494 0.971914 -1.757177
H -1.165624 1.889281 -1.640964
H -1.840441 0.905235 -2.620540
5
Structure 3298 | Energy: -10.834479 Hartree
N 0.842592 3.658086 1.485022
N -0.103019 3.128981 1.660109
O -1.428494 0.971914 -1.757177
H -1.165624 1.889281 -1.640964
H -1.840441 0.905235 -2.620540
5
Structure 3299 | Energy: -10.834479 Hartree
N 0.842592 3.658086 1.485022
N -0.103019 3.128981 1.660109
O -1.597413 1.244008 -1.847216
H -0.740091 1.203832 -1.414140
H -1.615041 0.542160 -2.500394
5
Structure 3300 | Energy: -10.834698 Hartree
N -1.077623 1.467042 -1.947076
N -2.023235 0.937937 -1.771988
O 0.322803 3.435052 1.584881
H 1.180124 3.394876 2.017957
H 0.305174 2.733205 0.931703
5
Structure 3301 | Energy: -10.834718 Hartree
N -1.077623 1.467042 -1.947076
N -2.023235 0.937937 -1.771988
O 0.319192 3.411122 1.527085
H 1.176514 3.370946 1.960162
H 0.301564 2.709274 0.873907
5
Structure 3302 | Energy: -10.834714 Hartree
N -1.294160 1.978979 -2.090521
N -2.260900 1.480585 -1.942851
O 0.319192 3.411122 1.527085
H 1.176514 3.370946 1.960162
H 0.301564 2.709274 0.873907
5
Structure 3303 | Energy: -10.834969 Hartree
N -1.294160 1.978979 -2.090521
N -2.260900 1.480585 -1.942851
O 0.066978 3.928368 0.888461
H 0.924299 3.888192 1.321537
H 0.049349 3.226520 0.235283
5
Structure 3304 | Energy: -10.834954 Hartree
N -1.294160 1.978979 -2.090521
N -2.260900 1.480585 -1.942851
O 0.293123 2.864939 0.939256
H 1.150445 2.824763 1.372332
H 0.275495 2.163092 0.286078
5
Structure 3305 | Energy: -10.834928 Hartree
N -1.294160 1.978979 -2.090521
N -2.260900 1.480585 -1.942851
O -0.018627 2.821796 1.149944
H 0.802004 2.804953 1.650394
H 0.055980 2.153793 0.466023
5
Structure 3306 | Energy: -10.834928 Hartree
N -1.294570 1.980554 -2.089359
N -2.261309 1.482160 -1.941690
O -0.018627 2.821796 1.149944
H 0.802004 2.804953 1.650394
H 0.055980 2.153793 0.466023
5
Structure 3307 | Energy: -10.834884 Hartree
N -1.447390 1.770442 -1.961367
N -2.327345 1.156548 -1.729849
O -0.018627 2.821796 1.149944
H 0.802004 2.804953 1.650394
H 0.055980 2.153793 0.466023
5
Structure 3308 | Energy: -10.834788 Hartree
N -1.447390 1.770442 -1.961367
N -2.327345 1.156548 -1.729849
O -0.233169 2.556669 1.376053
H 0.534250 2.464216 1.947621
H -0.133568 1.918691 0.667106
5
Structure 3309 | Energy: -10.834267 Hartree
N -1.447390 1.770442 -1.961367
N -2.327345 1.156548 -1.729849
O -0.035280 1.693799 0.379175
H 0.732139 1.601345 0.950743
H 0.064320 1.055821 -0.329772
5
Structure 3310 | Energy: -10.833385 Hartree
N -1.447390 1.770442 -1.961367
N -2.327345 1.156548 -1.729849
O -0.119526 1.685402 0.280900
H 0.647893 1.592949 0.852468
H -0.019926 1.047424 -0.428047
5
Structure 3311 | Energy: -10.831814 Hartree
N -1.796090 1.603662 -2.368311
N -1.978645 1.323328 -1.322905
O -0.119526 1.685402 0.280900
H 0.647893 1.592949 0.852468
H -0.019926 1.047424 -0.428047
5
Structure 3312 | Energy: -10.834473 Hartree
N -1.796090 1.603662 -2.368311
N -1.978645 1.323328 -1.322905
O 0.445729 0.528767 0.957695
H 1.213148 0.436314 1.529263
H 0.545329 -0.109211 0.248748
5
Structure 3313 | Energy: -10.834450 Hartree
N -1.798801 1.577778 -2.375035
N -1.975934 1.349212 -1.316181
O 0.445729 0.528767 0.957695
H 1.213148 0.436314 1.529263
H 0.545329 -0.109211 0.248748
5
Structure 3314 | Energy: -10.834554 Hartree
N -1.952871 1.768788 -2.296943
N -1.821864 1.158202 -1.394273
O 0.445729 0.528767 0.957695
H 1.213148 0.436314 1.529263
H 0.545329 -0.109211 0.248748
5
Structure 3315 | Energy: -10.834507 Hartree
N -2.091623 1.748896 -2.267536
N -1.683112 1.178094 -1.423680
O 0.445729 0.528767 0.957695
H 1.213148 0.436314 1.529263
H 0.545329 -0.109211 0.248748
5
Structure 3316 | Energy: -10.834378 Hartree
N -2.290533 2.192752 -1.872739
N -1.839003 1.516251 -1.135680
O 0.445729 0.528767 0.957695
H 1.213148 0.436314 1.529263
H 0.545329 -0.109211 0.248748
5
Structure 3317 | Energy: -10.834388 Hartree
N -2.313530 2.223360 -1.918870
N -1.861999 1.546859 -1.181811
O 0.445729 0.528767 0.957695
H 1.213148 0.436314 1.529263
H 0.545329 -0.109211 0.248748
5
Structure 3318 | Energy: -10.834361 Hartree
N -2.313530 2.223360 -1.918870
N -1.861999 1.546859 -1.181811
O 0.455291 0.518410 0.942348
H 1.217715 0.429429 1.521107
H 0.584955 -0.089253 0.211954
5
Structure 3319 | Energy: -10.835964 Hartree
N 0.279441 0.817681 0.565334
N 0.730972 0.141180 1.302393
O -2.137680 1.924089 -1.541856
H -1.375256 1.835107 -0.963097
H -2.008016 1.316426 -2.272250
5
Structure 3320 | Energy: -10.834361 Hartree
N -2.313530 2.223360 -1.918870
N -1.861999 1.546859 -1.181811
O 0.455291 0.518410 0.942348
H 1.217715 0.429429 1.521107
H 0.584955 -0.089253 0.211954
5
Structure 3321 | Energy: -10.834383 Hartree
N -2.399459 2.141303 -1.881407
N -1.915318 1.473839 -1.156916
O 0.455291 0.518410 0.942348
H 1.217715 0.429429 1.521107
H 0.584955 -0.089253 0.211954
5
Structure 3322 | Energy: -10.834383 Hartree
N -2.399459 2.141303 -1.881407
N -1.915318 1.473839 -1.156916
O -0.060199 -1.089848 -0.194843
H 0.476383 -1.883423 -0.114299
H 0.502465 -0.346608 0.029980
5
Structure 3323 | Energy: -10.835953 Hartree
N -0.240763 -0.758932 -0.540002
N 0.243378 -1.426397 0.184489
O -2.218895 1.810388 -1.536248
H -1.682313 1.016812 -1.455703
H -1.656231 2.553627 -1.311425
5
Structure 3324 | Energy: -10.835924 Hartree
N -0.107954 -0.735411 -0.776056
N 0.434390 -1.422213 -0.113520
O -2.218895 1.810388 -1.536248
H -1.682313 1.016812 -1.455703
H -1.656231 2.553627 -1.311425
5
Structure 3325 | Energy: -10.835923 Hartree
N -0.107954 -0.735411 -0.776056
N 0.434390 -1.422213 -0.113520
O -2.218796 1.810332 -1.536611
H -1.680894 1.017588 -1.456683
H -1.659229 2.553727 -1.304680
5
Structure 3326 | Energy: -10.835965 Hartree
N -0.107954 -0.735411 -0.776056
N 0.434390 -1.422213 -0.113520
O -2.203251 1.789545 -1.635626
H -1.665349 0.996801 -1.555698
H -1.643684 2.532939 -1.403695
5
Structure 3327 | Energy: -10.835965 Hartree
N -0.107954 -0.735411 -0.776056
N 0.434390 -1.422213 -0.113520
O 1.436188 -2.819284 2.810368
H 1.173583 -2.598301 1.912385
H 2.043853 -2.136799 3.101057
5
Structure 3328 | Energy: -10.836012 Hartree
N -0.107954 -0.735411 -0.776056
N 0.434390 -1.422213 -0.113520
O 1.555572 -2.754836 2.747382
H 1.292966 -2.533853 1.849399
H 2.163237 -2.072351 3.038071
5
Structure 3329 | Energy: -10.834294 Hartree
N -0.107954 -0.735411 -0.776056
N 0.434390 -1.422213 -0.113520
O 0.328667 2.050445 1.817519
H 0.364815 1.162703 1.450400
H -0.583788 2.340103 1.762134
5
Structure 3330 | Energy: -10.834300 Hartree
N -0.130895 -0.743133 -0.764185
N 0.457331 -1.414491 -0.125391
O 0.328667 2.050445 1.817519
H 0.364815 1.162703 1.450400
H -0.583788 2.340103 1.762134
5
Structure 3331 | Energy: -10.834296 Hartree
N -0.135243 -0.751341 -0.768642
N 0.461679 -1.406282 -0.120934
O 0.328667 2.050445 1.817519
H 0.364815 1.162703 1.450400
H -0.583788 2.340103 1.762134
5
Structure 3332 | Energy: -10.834524 Hartree
N -0.135243 -0.751341 -0.768642
N 0.461679 -1.406282 -0.120934
O 0.571222 2.474469 0.603113
H 0.607370 1.586727 0.235994
H -0.341232 2.764127 0.547728
5
Structure 3333 | Energy: -10.835115 Hartree
N 0.157996 -1.411575 -0.881181
N 0.168440 -0.746049 -0.008395
O 0.571222 2.474469 0.603113
H 0.607370 1.586727 0.235994
H -0.341232 2.764127 0.547728
5
Structure 3334 | Energy: -10.835575 Hartree
N 0.157996 -1.411575 -0.881181
N 0.168440 -0.746049 -0.008395
O 0.571859 2.481202 0.579681
H 0.602332 1.533499 0.421252
H -0.346308 2.710496 0.734390
5
Structure 3335 | Energy: -10.835018 Hartree
N 0.157996 -1.411575 -0.881181
N 0.168440 -0.746049 -0.008395
O -0.223525 3.242107 1.374913
H -0.193052 2.294404 1.216483
H -1.141693 3.471401 1.529622
5
Structure 3336 | Energy: -10.835050 Hartree
N 0.163219 -1.429495 -0.866947
N 0.163217 -0.728129 -0.022629
O -0.223525 3.242107 1.374913
H -0.193052 2.294404 1.216483
H -1.141693 3.471401 1.529622
5
Structure 3337 | Energy: -10.834506 Hartree
N -0.273194 2.851227 0.952545
N -0.273195 3.552593 1.796864
O 0.212888 -1.038614 -0.444580
H 0.243361 -1.986317 -0.603009
H -0.705280 -0.809320 -0.289871
5
Structure 3338 | Energy: -10.834351 Hartree
N -0.273194 2.851227 0.952545
N -0.273195 3.552593 1.796864
O 0.158298 -1.023172 -0.413756
H 0.858124 -1.674747 -0.314444
H -0.453599 -1.365989 -1.067669
5
Structure 3339 | Energy: -10.834351 Hartree
N -0.273194 2.851227 0.952545
N -0.273195 3.552593 1.796864
O 0.158523 -1.023138 -0.413783
H 0.869470 -1.665287 -0.333981
H -0.468510 -1.375991 -1.047712
5
Structure 3340 | Energy: -10.834928 Hartree
N 0.163219 -1.429495 -0.866947
N 0.163217 -0.728129 -0.022629
O -0.277890 3.257584 1.405710
H 0.433058 2.615435 1.485512
H -0.904923 2.904731 0.771780
5
Structure 3341 | Energy: -10.834351 Hartree
N -0.273194 2.851227 0.952545
N -0.273195 3.552593 1.796864
O 0.158523 -1.023138 -0.413783
H 0.869470 -1.665287 -0.333981
H -0.468510 -1.375991 -1.047712
5
Structure 3342 | Energy: -10.834352 Hartree
N 0.192677 2.673290 0.758459
N 0.192676 3.374656 1.602778
O 0.158523 -1.023138 -0.413783
H 0.869470 -1.665287 -0.333981
H -0.468510 -1.375991 -1.047712
5
Structure 3343 | Energy: -10.834338 Hartree
N 0.027008 2.588538 0.990110
N 0.045574 3.237553 1.875109
O 0.158523 -1.023138 -0.413783
H 0.869470 -1.665287 -0.333981
H -0.468510 -1.375991 -1.047712
5
Structure 3344 | Energy: -10.834324 Hartree
N 0.027008 2.588538 0.990110
N 0.045574 3.237553 1.875109
O 0.146693 -0.980832 -0.441688
H 0.857640 -1.622980 -0.361886
H -0.480340 -1.333685 -1.075618
5
Structure 3345 | Energy: -10.834259 Hartree
N 0.027008 2.588538 0.990110
N 0.045574 3.237553 1.875109
O -0.336415 -0.616760 -0.359086
H 0.374533 -1.258909 -0.279284
H -0.963448 -0.969613 -0.993015
5
Structure 3346 | Energy: -10.834235 Hartree
N 0.016734 2.488444 0.939227
N 0.035301 3.137460 1.824226
O -0.336415 -0.616760 -0.359086
H 0.374533 -1.258909 -0.279284
H -0.963448 -0.969613 -0.993015
5
Structure 3347 | Energy: -10.834774 Hartree
N 0.425391 3.185638 1.328784
N -0.373356 2.440266 1.434669
O -0.336415 -0.616760 -0.359086
H 0.374533 -1.258909 -0.279284
H -0.963448 -0.969613 -0.993015
5
Structure 3348 | Energy: -10.834857 Hartree
N 0.067654 -0.299748 -0.443034
N -0.731093 -1.045120 -0.337148
O 0.021322 2.868626 1.412732
H 0.732270 2.226477 1.492534
H -0.605711 2.515773 0.778802
5
Structure 3349 | Energy: -10.834856 Hartree
N 0.440940 -0.381373 -0.244469
N 0.513017 -1.317165 0.324642
O 0.021322 2.868626 1.412732
H 0.732270 2.226477 1.492534
H -0.605711 2.515773 0.778802
5
Structure 3350 | Energy: -10.834444 Hartree
N -0.056529 -0.977322 0.053098
N 1.010486 -0.721216 0.027075
O 0.021322 2.868626 1.412732
H 0.732270 2.226477 1.492534
H -0.605711 2.515773 0.778802
5
Structure 3351 | Energy: -10.834455 Hartree
N -0.154727 -0.774755 0.137360
N 0.912288 -0.518648 0.111337
O 0.021322 2.868626 1.412732
H 0.732270 2.226477 1.492534
H -0.605711 2.515773 0.778802
5
Structure 3352 | Energy: -10.834410 Hartree
N 0.059105 -1.659137 -0.017916
N 1.126120 -1.403031 -0.043938
O 0.021322 2.868626 1.412732
H 0.732270 2.226477 1.492534
H -0.605711 2.515773 0.778802
5
Structure 3353 | Energy: -10.834424 Hartree
N 0.066504 -1.687295 -0.033107
N 1.118722 -1.374873 -0.028747
O 0.021322 2.868626 1.412732
H 0.732270 2.226477 1.492534
H -0.605711 2.515773 0.778802
5
Structure 3354 | Energy: -10.834408 Hartree
N 0.066504 -1.687295 -0.033107
N 1.118722 -1.374873 -0.028747
O -0.379819 2.772145 0.959310
H 0.331128 2.129996 1.039112
H -1.006852 2.419292 0.325380
5
Structure 3355 | Energy: -10.834944 Hartree
N -0.901233 2.560260 0.926125
N 0.150985 2.872683 0.930485
O 0.587917 -1.475410 0.000078
H 1.298865 -2.117559 0.079880
H -0.039116 -1.828263 -0.633851
5
Structure 3356 | Energy: -10.834945 Hartree
N -0.895731 2.543096 0.917990
N 0.145483 2.889847 0.938619
O 0.587917 -1.475410 0.000078
H 1.298865 -2.117559 0.079880
H -0.039116 -1.828263 -0.633851
5
Structure 3357 | Energy: -10.834975 Hartree
N -0.895731 2.543096 0.917990
N 0.145483 2.889847 0.938619
O 0.573904 -1.413904 0.013968
H 1.284852 -2.056052 0.093770
H -0.053129 -1.766757 -0.619961
5
Structure 3358 | Energy: -10.834978 Hartree
N -0.896369 2.551108 0.881867
N 0.146120 2.881834 0.974742
O 0.573904 -1.413904 0.013968
H 1.284852 -2.056052 0.093770
H -0.053129 -1.766757 -0.619961
5
Structure 3359 | Energy: -10.834979 Hartree
N -0.895722 2.550580 0.876774
N 0.145473 2.882363 0.979835
O 0.573904 -1.413904 0.013968
H 1.284852 -2.056052 0.093770
H -0.053129 -1.766757 -0.619961
5
Structure 3360 | Energy: -10.834972 Hartree
N -0.895722 2.550580 0.876774
N 0.145473 2.882363 0.979835
O 0.296562 -1.526117 0.340133
H 0.946591 -2.213735 0.509877
H -0.313426 -1.871882 -0.314010
5
Structure 3361 | Energy: -10.834972 Hartree
N -0.895722 2.550580 0.876774
N 0.145473 2.882363 0.979835
O 0.296562 -1.112687 -0.990823
H 0.946591 -1.583112 -1.520287
H -0.313426 -1.768226 -0.647711
5
Structure 3362 | Energy: -10.835021 Hartree
N -0.895722 2.550580 0.876774
N 0.145473 2.882363 0.979835
O 0.142381 -0.992719 -1.031042
H 0.792410 -1.463145 -1.560506
H -0.467607 -1.648259 -0.687930
5
Structure 3363 | Energy: -10.834799 Hartree
N -1.143727 2.711322 1.588336
N -0.102532 3.043105 1.691397
O 0.142381 -0.992719 -1.031042
H 0.792410 -1.463145 -1.560506
H -0.467607 -1.648259 -0.687930
5
Structure 3364 | Energy: -10.834799 Hartree
N -1.143727 2.711322 1.588336
N -0.102532 3.043105 1.691397
O 0.142381 -1.824921 1.648063
H 0.792410 -2.512539 1.817807
H -0.467607 -2.170686 0.993919
5
Structure 3365 | Energy: -10.834799 Hartree
N -1.151110 2.709297 1.645277
N -0.109815 3.041666 1.745394
O 0.142381 -1.824921 1.648063
H 0.792410 -2.512539 1.817807
H -0.467607 -2.170686 0.993919
5
Structure 3366 | Energy: -10.834800 Hartree
N -1.157795 2.708010 1.639674
N -0.116500 3.040379 1.739791
O 0.142381 -1.824921 1.648063
H 0.792410 -2.512539 1.817807
H -0.467607 -2.170686 0.993919
5
Structure 3367 | Energy: -10.834800 Hartree
N -1.163169 2.723563 1.647211
N -0.111125 3.024826 1.732255
O 0.142381 -1.824921 1.648063
H 0.792410 -2.512539 1.817807
H -0.467607 -2.170686 0.993919
5
Structure 3368 | Energy: -10.834796 Hartree
N -1.163169 2.723563 1.647211
N -0.111125 3.024826 1.732255
O 0.141375 -1.825896 1.649957
H 0.790492 -2.516027 1.812855
H -0.449725 -2.151719 0.968795
5
Structure 3369 | Energy: -10.834716 Hartree
N -1.163169 2.723563 1.647211
N -0.111125 3.024826 1.732255
O -0.266302 -2.134035 1.204464
H 0.382815 -2.824166 1.367361
H -0.857402 -2.459858 0.523301
5
Structure 3370 | Energy: -10.834716 Hartree
N -1.118229 2.719536 1.759406
N -0.063221 3.009817 1.845917
O -0.266302 -2.134035 1.204464
H 0.382815 -2.824166 1.367361
H -0.857402 -2.459858 0.523301
5
Structure 3371 | Energy: -10.834836 Hartree
N -1.118229 2.719536 1.759406
N -0.063221 3.009817 1.845917
O 0.209336 -1.684583 1.134588
H 0.858453 -2.374714 1.297486
H -0.381764 -2.010406 0.453426
5
Structure 3372 | Energy: -10.834748 Hartree
N -1.118229 2.719536 1.759406
N -0.063221 3.009817 1.845917
O 2.174954 -0.494116 0.113957
H 3.031559 -0.638750 -0.297719
H 1.875811 -1.342895 0.445062
5
Structure 3373 | Energy: -10.834686 Hartree
N -1.118229 2.719536 1.759406
N -0.063221 3.009817 1.845917
O 2.098463 -0.857937 -0.255449
H 2.955069 -1.002572 -0.667125
H 1.799321 -1.706717 0.075656
5
Structure 3374 | Energy: -10.834410 Hartree
N 1.602151 -1.058663 -0.303212
N 2.657159 -0.768382 -0.216702
O -0.621917 2.920262 1.807170
H 0.234689 2.775627 1.395493
H -0.921059 2.071483 2.138274
5
Structure 3375 | Energy: -10.834400 Hartree
N 1.602151 -1.058663 -0.303212
N 2.657159 -0.768382 -0.216702
O -0.459125 3.116459 1.637285
H 0.376217 2.924364 1.202000
H -0.759515 2.300115 2.040882
5
Structure 3376 | Energy: -10.834399 Hartree
N 1.602151 -1.058663 -0.303212
N 2.657159 -0.768382 -0.216702
O -0.422108 3.133533 1.646926
H 0.413234 2.941439 1.211641
H -0.722498 2.317189 2.050523
5
Structure 3377 | Energy: -10.834398 Hartree
N 1.612239 -1.163948 -0.311062
N 2.667247 -0.873667 -0.224552
O -0.422108 3.133533 1.646926
H 0.413234 2.941439 1.211641
H -0.722498 2.317189 2.050523
5
Structure 3378 | Energy: -10.834394 Hartree
N 1.620535 -1.190396 -0.314478
N 2.658951 -0.847220 -0.221136
O -0.422108 3.133533 1.646926
H 0.413234 2.941439 1.211641
H -0.722498 2.317189 2.050523
5
Structure 3379 | Energy: -10.834365 Hartree
N 2.434833 -1.188316 0.162758
N 1.844653 -0.849299 -0.698371
O -0.422108 3.133533 1.646926
H 0.413234 2.941439 1.211641
H -0.722498 2.317189 2.050523
5
Structure 3380 | Energy: -10.834378 Hartree
N 2.434833 -1.188316 0.162758
N 1.844653 -0.849299 -0.698371
O 0.033331 3.690347 2.068893
H 0.868673 3.498252 1.633608
H -0.267059 2.874003 2.472490
5
Structure 3381 | Energy: -10.834386 Hartree
N 2.434833 -1.188316 0.162758
N 1.844653 -0.849299 -0.698371
O -0.552613 3.339308 2.615203
H 0.282729 3.147213 2.179918
H -0.853003 2.522963 3.018800
5
Structure 3382 | Energy: -10.834389 Hartree
N 2.434833 -1.188316 0.162758
N 1.844653 -0.849299 -0.698371
O -0.258276 3.456629 2.694231
H 0.533603 3.242758 2.192876
H -0.526056 2.656882 3.150566
5
Structure 3383 | Energy: -10.834386 Hartree
N 2.434833 -1.188316 0.162758
N 1.844653 -0.849299 -0.698371
O -0.730328 3.415666 2.311307
H 0.082185 3.244308 1.826923
H -0.914914 2.633990 2.835190
5
Structure 3384 | Energy: -10.834696 Hartree
N 1.924893 -0.550177 -0.079600
N 2.354593 -1.487438 -0.456014
O -0.730328 3.415666 2.311307
H 0.082185 3.244308 1.826923
H -0.914914 2.633990 2.835190
5
Structure 3385 | Energy: -10.834694 Hartree
N 1.904037 -0.535403 -0.126001
N 2.331362 -1.470288 -0.510934
O -0.730328 3.415666 2.311307
H 0.082185 3.244308 1.826923
H -0.914914 2.633990 2.835190
5
Structure 3386 | Energy: -10.834700 Hartree
N 1.927686 -0.718904 0.224594
N 2.345707 -1.682941 -0.092706
O -0.730328 3.415666 2.311307
H 0.082185 3.244308 1.826923
H -0.914914 2.633990 2.835190
5
Structure 3387 | Energy: -10.834715 Hartree
N 1.927686 -0.718904 0.224594
N 2.345707 -1.682941 -0.092706
O -0.692905 3.355363 2.281606
H 0.119608 3.184005 1.797221
H -0.877491 2.573687 2.805488
5
Structure 3388 | Energy: -10.834853 Hartree
N 2.174935 -0.093535 0.593182
N 2.592956 -1.057572 0.275882
O -0.692905 3.355363 2.281606
H 0.119608 3.184005 1.797221
H -0.877491 2.573687 2.805488
5
Structure 3389 | Energy: -10.834852 Hartree
N 2.174935 -0.093535 0.593182
N 2.592956 -1.057572 0.275882
O -0.697282 3.356362 2.280237
H 0.115230 3.185004 1.795853
H -0.881869 2.574686 2.804120
5
Structure 3390 | Energy: -10.834847 Hartree
N 2.174935 -0.093535 0.593182
N 2.592956 -1.057572 0.275882
O -0.699962 3.354538 2.281618
H 0.118913 3.236950 1.791937
H -0.843023 2.551700 2.786124
5
Structure 3391 | Energy: -10.834783 Hartree
N 2.174935 -0.093535 0.593182
N 2.592956 -1.057572 0.275882
O -1.181676 3.279660 2.093256
H -0.362802 3.162072 1.603576
H -1.324738 2.476823 2.597763
5
Structure 3392 | Energy: -10.834781 Hartree
N -0.195909 -1.609250 2.134608
N 0.064415 -2.608566 1.762604
O -1.181676 3.279660 2.093256
H -0.362802 3.162072 1.603576
H -1.324738 2.476823 2.597763
5
Structure 3393 | Energy: -10.834781 Hartree
N -0.195909 -1.609250 2.134608
N 0.064415 -2.608566 1.762604
O -1.181510 3.279762 2.092428
H -0.353011 3.159482 1.619891
H -1.337172 2.477796 2.594585
5
Structure 3394 | Energy: -10.834798 Hartree
N -0.207179 -1.553459 2.136129
N 0.053145 -2.552775 1.764125
O -1.181510 3.279762 2.092428
H -0.353011 3.159482 1.619891
H -1.337172 2.477796 2.594585
5
Structure 3395 | Energy: -10.834328 Hartree
N -1.274024 3.727818 2.280088
N -1.013700 2.728501 1.908084
O -0.114664 -2.001514 1.948470
H 0.713835 -2.121795 1.475932
H -0.270326 -2.803480 2.450626
5
Structure 3396 | Energy: -10.834319 Hartree
N -1.620397 3.638793 2.375617
N -1.302549 2.662786 1.986809
O -0.114664 -2.001514 1.948470
H 0.713835 -2.121795 1.475932
H -0.270326 -2.803480 2.450626
5
Structure 3397 | Energy: -10.834796 Hartree
N -0.235941 -1.565113 2.144531
N 0.081908 -2.541120 1.755723
O -1.499120 3.202393 2.179556
H -0.670622 3.082112 1.707018
H -1.654782 2.400426 2.681713
5
Structure 3398 | Energy: -10.834319 Hartree
N -1.620397 3.638793 2.375617
N -1.302549 2.662786 1.986809
O -0.114664 -2.001514 1.948470
H 0.713835 -2.121795 1.475932
H -0.270326 -2.803480 2.450626
5
Structure 3399 | Energy: -10.834317 Hartree
N -1.620397 3.638793 2.375617
N -1.302549 2.662786 1.986809
O -0.170414 -1.079352 2.471982
H 0.658085 -1.199633 1.999445
H -0.326075 -1.881319 2.974139
5
Structure 3400 | Energy: -10.834317 Hartree
N -2.652859 2.833989 0.770260
N -1.814550 2.263681 1.190707
O -0.170414 -1.079352 2.471982
H 0.658085 -1.199633 1.999445
H -0.326075 -1.881319 2.974139
5
Structure 3401 | Energy: -10.835157 Hartree
N -0.551920 -0.845801 2.263416
N 0.286388 -1.416109 2.683863
O -2.271352 2.600438 0.978826
H -1.442853 2.480157 0.506288
H -2.427014 1.798471 1.480983
5
Structure 3402 | Energy: -10.834557 Hartree
N 0.332655 -1.052617 2.753717
N -0.598187 -1.209294 2.193562
O -2.271352 2.600438 0.978826
H -1.442853 2.480157 0.506288
H -2.427014 1.798471 1.480983
5
Structure 3403 | Energy: -10.834548 Hartree
N 0.350330 -1.095675 2.636178
N -0.577774 -1.238704 2.067888
O -2.271352 2.600438 0.978826
H -1.442853 2.480157 0.506288
H -2.427014 1.798471 1.480983
5
Structure 3404 | Energy: -10.834797 Hartree
N -1.769653 2.620350 1.264628
N -2.697757 2.477320 0.696338
O -0.151369 -1.115587 2.350376
H 0.677130 -1.235867 1.877838
H -0.307031 -1.917553 2.852533
5
Structure 3405 | Energy: -10.834791 Hartree
N -1.769653 2.620350 1.264628
N -2.697757 2.477320 0.696338
O -0.147182 -1.113044 2.346408
H 0.686190 -1.319215 1.913796
H -0.382552 -1.874559 2.879549
5
Structure 3406 | Energy: -10.834774 Hartree
N -1.769653 2.620350 1.264628
N -2.697757 2.477320 0.696338
O -0.167371 -1.167591 2.386739
H 0.147092 -0.452750 1.826129
H 0.476994 -1.875248 2.327089
5
Structure 3407 | Energy: -10.834755 Hartree
N -1.035858 2.813234 2.167356
N -1.963962 2.670204 1.599066
O -0.167371 -1.167591 2.386739
H 0.147092 -0.452750 1.826129
H 0.476994 -1.875248 2.327089
5
Structure 3408 | Energy: -10.834763 Hartree
N -1.035858 2.813234 2.167356
N -1.963962 2.670204 1.599066
O 0.010354 -1.024069 2.805087
H 0.268183 -0.377123 2.142400
H 0.678675 -1.711725 2.800906
5
Structure 3409 | Energy: -10.834423 Hartree
N 0.526227 -0.954832 3.051919
N -0.401877 -1.097861 2.483628
O -1.551731 2.743997 1.920524
H -1.293902 3.390943 1.257837
H -0.883410 2.056341 1.916343
5
Structure 3410 | Energy: -10.834429 Hartree
N 0.517755 -0.955180 3.065396
N -0.393406 -1.097513 2.470151
O -1.551731 2.743997 1.920524
H -1.293902 3.390943 1.257837
H -0.883410 2.056341 1.916343
5
Structure 3411 | Energy: -10.834435 Hartree
N 0.517755 -0.955180 3.065396
N -0.393406 -1.097513 2.470151
O -1.731830 2.726587 2.282954
H -1.533544 3.429260 1.657572
H -1.039887 2.068616 2.194459
5
Structure 3412 | Energy: -10.834741 Hartree
N -1.226439 2.800255 2.540632
N -2.137600 2.657922 1.945388
O 0.012363 -1.028848 2.807717
H 0.210650 -0.326175 2.182335
H 0.704307 -1.686818 2.719223
5
Structure 3413 | Energy: -10.835256 Hartree
N -2.144735 2.907173 2.478333
N -1.219303 2.551003 2.007686
O 0.012363 -1.028848 2.807717
H 0.210650 -0.326175 2.182335
H 0.704307 -1.686818 2.719223
5
Structure 3414 | Energy: -10.834846 Hartree
N 0.745016 2.037944 -0.483481
N 1.258237 1.097483 -0.244888
O 0.012363 -1.028848 2.807717
H 0.210650 -0.326175 2.182335
H 0.704307 -1.686818 2.719223
5
Structure 3415 | Energy: -10.834786 Hartree
N 0.745016 2.037944 -0.483481
N 1.258237 1.097483 -0.244888
O -0.234893 -0.962354 2.774528
H 0.019604 -0.273066 2.154621
H 0.434126 -1.647386 2.722700
5
Structure 3416 | Energy: -10.834634 Hartree
N 0.697413 2.882777 -1.257033
N 1.210635 1.942316 -1.018441
O -0.234893 -0.962354 2.774528
H 0.019604 -0.273066 2.154621
H 0.434126 -1.647386 2.722700
5
Structure 3417 | Energy: -10.834648 Hartree
N 0.697413 2.882777 -1.257033
N 1.210635 1.942316 -1.018441
O -0.217172 -0.909768 2.714151
H 0.037325 -0.220481 2.094244
H 0.451847 -1.594801 2.662323
5
Structure 3418 | Energy: -10.834735 Hartree
N 0.047790 2.944672 -1.238289
N 0.561012 2.004211 -0.999697
O -0.217172 -0.909768 2.714151
H 0.037325 -0.220481 2.094244
H 0.451847 -1.594801 2.662323
5
Structure 3419 | Energy: -10.834573 Hartree
N 0.964555 3.357276 -1.561163
N 1.477776 2.416815 -1.322571
O -0.217172 -0.909768 2.714151
H 0.037325 -0.220481 2.094244
H 0.451847 -1.594801 2.662323
5
Structure 3420 | Energy: -10.834414 Hartree
N -0.422109 -0.439300 2.557269
N 0.091113 -1.379761 2.795861
O 1.169491 2.886808 -1.404281
H 1.423988 3.576095 -2.024188
H 1.838510 2.201775 -1.456109
5
Structure 3421 | Energy: -10.834381 Hartree
N -0.422109 -0.439300 2.557269
N 0.091113 -1.379761 2.795861
O 0.921331 3.089603 -0.903313
H 1.175828 3.778890 -1.523219
H 1.590350 2.404571 -0.955141
5
Structure 3422 | Energy: -10.834363 Hartree
N -0.422109 -0.439300 2.557269
N 0.091113 -1.379761 2.795861
O 0.726962 3.464147 -0.495855
H 0.947723 4.218848 -1.048902
H 1.394201 2.794263 -0.655822
5
Structure 3423 | Energy: -10.834362 Hartree
N -0.422109 -0.439300 2.557269
N 0.091113 -1.379761 2.795861
O 0.722747 3.444558 -0.481483
H 0.943508 4.199259 -1.034530
H 1.389986 2.774674 -0.641450
5
Structure 3424 | Energy: -10.834366 Hartree
N -0.422109 -0.439300 2.557269
N 0.091113 -1.379761 2.795861
O 0.758763 3.341485 -0.609001
H 0.985642 4.076730 -1.185292
H 1.408742 2.653431 -0.762794
5
Structure 3425 | Energy: -10.834365 Hartree
N -0.303760 -0.482460 2.549256
N 0.231605 -1.413535 2.775692
O 0.758763 3.341485 -0.609001
H 0.985642 4.076730 -1.185292
H 1.408742 2.653431 -0.762794
5
Structure 3426 | Energy: -10.834378 Hartree
N 0.293211 -0.348214 3.396567
N 0.828576 -1.279289 3.623003
O 0.758763 3.341485 -0.609001
H 0.985642 4.076730 -1.185292
H 1.408742 2.653431 -0.762794
5
Structure 3427 | Energy: -10.834378 Hartree
N 0.293211 -0.348214 3.396567
N 0.828576 -1.279289 3.623003
O 0.848140 3.374213 -0.547715
H 1.075018 4.109458 -1.124006
H 1.498118 2.686159 -0.701508
5
Structure 3428 | Energy: -10.834622 Hartree
N 0.629520 3.842391 -0.701784
N 1.164885 2.911316 -0.475348
O 0.511830 -0.816392 3.550635
H 0.738708 -0.081147 2.974345
H 1.161809 -1.504445 3.396843
5
Structure 3429 | Energy: -10.834624 Hartree
N 0.629520 3.842391 -0.701784
N 1.164885 2.911316 -0.475348
O 0.572137 -0.818508 3.553666
H 0.789291 -0.081466 2.975926
H 1.227188 -1.500916 3.396286
5
Structure 3430 | Energy: -10.834377 Hartree
N 0.353257 -0.349913 3.399315
N 0.888622 -1.280988 3.625751
O 0.848400 3.373796 -0.547433
H 1.065554 4.110838 -1.125173
H 1.503451 2.691388 -0.704813
5
Structure 3431 | Energy: -10.834379 Hartree
N 0.343677 -0.355548 3.399340
N 0.898202 -1.275353 3.625727
O 0.848400 3.373796 -0.547433
H 1.065554 4.110838 -1.125173
H 1.503451 2.691388 -0.704813
5
Structure 3432 | Energy: -10.834379 Hartree
N 0.343677 -0.355548 3.399340
N 0.898202 -1.275353 3.625727
O 0.848736 3.374121 -0.547015
H 1.064680 4.108958 -1.128008
H 1.498982 2.688115 -0.708624
5
Structure 3433 | Energy: -10.834375 Hartree
N 0.343677 -0.355548 3.399340
N 0.898202 -1.275353 3.625727
O 0.844108 3.303891 -0.478312
H 1.060052 4.038727 -1.059305
H 1.494354 2.617884 -0.639922
5
Structure 3434 | Energy: -10.834635 Hartree
N 0.615312 3.766525 -0.633056
N 1.169837 2.846720 -0.406670
O 0.572473 -0.818183 3.554084
H 0.788417 -0.083346 2.973091
H 1.222719 -1.504189 3.392475
5
Structure 3435 | Energy: -10.834638 Hartree
N 0.615312 3.766525 -0.633056
N 1.169837 2.846720 -0.406670
O 1.043187 -0.666960 3.711152
H 1.173590 0.065210 3.101979
H 1.770195 -1.277458 3.575901
5
Structure 3436 | Energy: -10.834553 Hartree
N 0.815843 3.888891 -1.348764
N 1.370367 2.969087 -1.122377
O 1.043187 -0.666960 3.711152
H 1.173590 0.065210 3.101979
H 1.770195 -1.277458 3.575901
5
Structure 3437 | Energy: -10.834551 Hartree
N 0.833056 3.887470 -1.376324
N 1.387581 2.967665 -1.149937
O 1.043187 -0.666960 3.711152
H 1.173590 0.065210 3.101979
H 1.770195 -1.277458 3.575901
5
Structure 3438 | Energy: -10.834610 Hartree
N 0.833056 3.887470 -1.376324
N 1.387581 2.967665 -1.149937
O 1.031662 -0.346017 3.169308
H 1.162065 0.386153 2.560135
H 1.758670 -0.956515 3.034057
5
Structure 3439 | Energy: -10.834661 Hartree
N 0.405700 3.970199 -1.110824
N 0.960225 3.050395 -0.884438
O 1.031662 -0.346017 3.169308
H 1.162065 0.386153 2.560135
H 1.758670 -0.956515 3.034057
5
Structure 3440 | Energy: -10.834667 Hartree
N 0.408117 3.946751 -1.085696
N 0.962641 3.026946 -0.859309
O 1.031662 -0.346017 3.169308
H 1.162065 0.386153 2.560135
H 1.758670 -0.956515 3.034057
5
Structure 3441 | Energy: -10.834644 Hartree
N 0.408117 3.946751 -1.085696
N 0.962641 3.026946 -0.859309
O 0.413197 -0.298695 3.218076
H 0.651123 0.406501 2.609586
H 1.077502 -0.984190 3.126767
5
Structure 3442 | Energy: -10.834375 Hartree
N 0.186418 0.162310 3.065726
N 0.740942 -0.757495 3.292113
O 0.634896 3.485746 -0.933347
H 0.872822 4.190942 -1.541836
H 1.299201 2.800251 -1.024656
5
Structure 3443 | Energy: -10.834435 Hartree
N 0.186418 0.162310 3.065726
N 0.740942 -0.757495 3.292113
O 1.054429 2.614573 -1.321889
H 1.292355 3.319769 -1.930378
H 1.718734 1.929077 -1.413198
5
Structure 3444 | Energy: -10.834435 Hartree
N 0.186418 0.162310 3.065726
N 0.740942 -0.757495 3.292113
O 1.068031 2.622223 -1.315121
H 1.308663 3.328010 -1.921858
H 1.730534 1.935068 -1.407045
5
Structure 3445 | Energy: -10.834484 Hartree
N 0.186418 0.162310 3.065726
N 0.740942 -0.757495 3.292113
O 1.157109 2.650488 -1.311130
H 0.604409 3.104545 -1.953411
H 1.020940 1.709908 -1.438837
5
Structure 3446 | Energy: -10.834508 Hartree
N 0.182881 0.606451 3.080618
N 0.737405 -0.313354 3.307005
O 1.157109 2.650488 -1.311130
H 0.604409 3.104545 -1.953411
H 1.020940 1.709908 -1.438837
5
Structure 3447 | Energy: -10.834592 Hartree
N 0.121144 1.153042 2.765195
N 0.675668 0.233238 2.991581
O 1.157109 2.650488 -1.311130
H 0.604409 3.104545 -1.953411
H 1.020940 1.709908 -1.438837
5
Structure 3448 | Energy: -10.834619 Hartree
N 0.121144 1.153042 2.765195
N 0.675668 0.233238 2.991581
O 1.184406 2.617538 -1.139990
H 0.631706 3.071595 -1.782271
H 1.048237 1.676958 -1.267697
5
Structure 3449 | Energy: -10.834354 Hartree
N 0.121144 1.153042 2.765195
N 0.675668 0.233238 2.991581
O 1.140325 2.653452 -1.191207
H 0.684800 1.969337 -1.689859
H 1.694794 2.209201 -0.547198
5
Structure 3450 | Energy: -10.834917 Hartree
N 0.121144 1.153042 2.765195
N 0.675668 0.233238 2.991581
O 1.168103 2.532373 -1.198270
H 1.344993 3.354402 -1.664263
H 0.593702 2.745891 -0.460695
5
Structure 3451 | Energy: -10.834900 Hartree
N 0.102044 1.142567 2.771699
N 0.694768 0.243713 2.985077
O 1.168103 2.532373 -1.198270
H 1.344993 3.354402 -1.664263
H 0.593702 2.745891 -0.460695
5
Structure 3452 | Energy: -10.834384 Hartree
N 0.849500 3.039742 -1.289763
N 1.442223 2.140889 -1.076385
O 0.420648 0.635198 2.863192
H 0.597537 1.457226 2.397199
H -0.153753 0.848715 3.600766
5
Structure 3453 | Energy: -10.834384 Hartree
N 0.849500 3.039742 -1.289763
N 1.442223 2.140889 -1.076385
O 0.957489 0.673243 3.010283
H 1.134378 1.495271 2.544290
H 0.383088 0.886761 3.747857
5
Structure 3454 | Energy: -10.834384 Hartree
N 0.849500 3.039742 -1.289763
N 1.442223 2.140889 -1.076385
O 0.957694 0.673591 3.009295
H 1.120890 1.502051 2.549741
H 0.393329 0.874468 3.758083
5
Structure 3455 | Energy: -10.834382 Hartree
N -0.116055 2.939511 -1.227261
N 0.476668 2.040657 -1.013883
O 0.957694 0.673591 3.009295
H 1.120890 1.502051 2.549741
H 0.393329 0.874468 3.758083
5
Structure 3456 | Energy: -10.834386 Hartree
N -0.116055 2.939511 -1.227261
N 0.476668 2.040657 -1.013883
O 0.956501 0.673382 3.008451
H 1.153716 1.507539 2.573184
H 0.379436 0.872297 3.748026
5
Structure 3457 | Energy: -10.834523 Hartree
N -0.281436 2.201471 -1.052058
N 0.642049 2.778697 -1.189085
O 0.956501 0.673382 3.008451
H 1.153716 1.507539 2.573184
H 0.379436 0.872297 3.748026
5
Structure 3458 | Energy: -10.834471 Hartree
N -0.281436 2.201471 -1.052058
N 0.642049 2.778697 -1.189085
O 0.234671 0.469642 3.302088
H 0.431887 1.303799 2.866821
H -0.342394 0.668557 4.041663
5
Structure 3459 | Energy: -10.834469 Hartree
N -0.275589 2.191314 -1.056592
N 0.636202 2.788854 -1.184552
O 0.234671 0.469642 3.302088
H 0.431887 1.303799 2.866821
H -0.342394 0.668557 4.041663
5
Structure 3460 | Energy: -10.834468 Hartree
N -0.275589 2.191314 -1.056592
N 0.636202 2.788854 -1.184552
O 0.209692 0.479499 3.347180
H 0.406908 1.313656 2.911913
H -0.367373 0.678414 4.086755
5
Structure 3461 | Energy: -10.834461 Hartree
N -0.275589 2.191314 -1.056592
N 0.636202 2.788854 -1.184552
O 0.208952 0.478687 3.349165
H 0.432511 1.297435 2.897676
H -0.381222 0.707530 4.069489
5
Structure 3462 | Energy: -10.834527 Hartree
N -0.275589 2.191314 -1.056592
N 0.636202 2.788854 -1.184552
O 0.144651 0.515395 3.323150
H 0.940873 1.007215 3.103349
H 0.130995 0.415110 4.276722
5
Structure 3463 | Energy: -10.834533 Hartree
N -0.275494 2.168515 -1.004231
N 0.636297 2.766054 -1.132190
O 0.144651 0.515395 3.323150
H 0.940873 1.007215 3.103349
H 0.130995 0.415110 4.276722
5
Structure 3464 | Energy: -10.834560 Hartree
N -0.267457 0.238533 3.428187
N 0.644334 0.836072 3.300227
O 0.136614 2.445377 -1.109267
H 0.932836 2.937197 -1.329069
H 0.122958 2.345091 -0.155696
5
Structure 3465 | Energy: -10.834377 Hartree
N 0.684550 0.647983 3.571137
N -0.307673 0.426622 3.157277
O 0.136614 2.445377 -1.109267
H 0.932836 2.937197 -1.329069
H 0.122958 2.345091 -0.155696
5
Structure 3466 | Energy: -10.834376 Hartree
N 0.684550 0.647983 3.571137
N -0.307673 0.426622 3.157277
O 0.159726 2.429006 -1.113178
H 0.955948 2.920826 -1.332979
H 0.146070 2.328720 -0.159607
5
Structure 3467 | Energy: -10.834378 Hartree
N 0.689269 0.652449 3.556840
N -0.312392 0.422156 3.171575
O 0.159726 2.429006 -1.113178
H 0.955948 2.920826 -1.332979
H 0.146070 2.328720 -0.159607
5
Structure 3468 | Energy: -10.834415 Hartree
N 0.481620 0.316679 2.709607
N -0.520041 0.086386 2.324342
O 0.159726 2.429006 -1.113178
H 0.955948 2.920826 -1.332979
H 0.146070 2.328720 -0.159607
5
Structure 3469 | Energy: -10.834429 Hartree
N 0.330021 0.370510 2.651982
N -0.671640 0.140218 2.266717
O 0.159726 2.429006 -1.113178
H 0.955948 2.920826 -1.332979
H 0.146070 2.328720 -0.159607
5
Structure 3470 | Energy: -10.835958 Hartree
N 0.616504 -2.472773 1.909578
N 0.223176 -1.607635 1.359651
O 2.367025 -0.325403 0.075078
H 2.170155 0.610062 0.155874
H 2.230859 -0.566081 -0.844340
5
Structure 3471 | Energy: -10.835966 Hartree
N 0.616504 -2.472773 1.909578
N 0.223176 -1.607635 1.359651
O 2.364987 -0.326666 0.074778
H 2.152775 0.603670 0.173880
H 2.280580 -0.539640 -0.857591
5
Structure 3472 | Energy: -10.835937 Hartree
N 0.632841 -2.559564 1.850926
N 0.239513 -1.694426 1.300998
O 2.364987 -0.326666 0.074778
H 2.152775 0.603670 0.173880
H 2.280580 -0.539640 -0.857591
5
Structure 3473 | Energy: -10.835942 Hartree
N 0.632841 -2.559564 1.850926
N 0.239513 -1.694426 1.300998
O 2.395762 -0.440859 -0.015269
H 2.196972 0.496526 0.031354
H 2.311017 -0.703933 -0.934728
5
Structure 3474 | Energy: -10.836032 Hartree
N 0.632841 -2.559564 1.850926
N 0.239513 -1.694426 1.300998
O 2.134908 -1.442243 -0.877734
H 1.936117 -0.504859 -0.831111
H 2.050163 -1.705318 -1.797193
5
Structure 3475 | Energy: -10.836011 Hartree
N 0.347976 -2.594508 1.662765
N -0.018510 -1.765539 1.043017
O 2.134908 -1.442243 -0.877734
H 1.936117 -0.504859 -0.831111
H 2.050163 -1.705318 -1.797193
5
Structure 3476 | Energy: -10.835979 Hartree
N 0.365356 -2.611940 1.626014
N -0.035890 -1.748107 1.079768
O 2.134908 -1.442243 -0.877734
H 1.936117 -0.504859 -0.831111
H 2.050163 -1.705318 -1.797193
5
Structure 3477 | Energy: -10.835376 Hartree
N 0.055009 -2.839354 2.171384
N -0.346237 -1.975521 1.625138
O 2.134908 -1.442243 -0.877734
H 1.936117 -0.504859 -0.831111
H 2.050163 -1.705318 -1.797193
5
Structure 3478 | Energy: -10.834419 Hartree
N 2.319666 -1.836430 -0.653449
N 1.918420 -0.972597 -1.199695
O -0.129750 -2.445168 1.947099
H -0.328540 -1.507783 1.993723
H -0.214494 -2.708242 1.027640
5
Structure 3479 | Energy: -10.834419 Hartree
N 2.335397 -1.827655 -0.651726
N 1.902689 -0.981372 -1.201418
O -0.129750 -2.445168 1.947099
H -0.328540 -1.507783 1.993723
H -0.214494 -2.708242 1.027640
5
Structure 3480 | Energy: -10.835373 Hartree
N 0.070740 -2.830579 2.173107
N -0.361969 -1.984296 1.623416
O 2.134908 -1.442243 -0.877734
H 1.936117 -0.504859 -0.831111
H 2.050163 -1.705318 -1.797193
5
Structure 3481 | Energy: -10.835466 Hartree
N 0.136475 -2.801468 2.091112
N -0.296233 -1.955185 1.541420
O 2.134908 -1.442243 -0.877734
H 1.936117 -0.504859 -0.831111
H 2.050163 -1.705318 -1.797193
5
Structure 3482 | Energy: -10.835906 Hartree
N 0.136475 -2.801468 2.091112
N -0.296233 -1.955185 1.541420
O 1.451824 -0.957039 0.065708
H 1.253034 -0.019655 0.112331
H 1.367079 -1.220114 -0.853752
5
Structure 3483 | Energy: -10.835323 Hartree
N -0.592213 -2.437272 3.180543
N -1.024922 -1.590989 2.630852
O 1.451824 -0.957039 0.065708
H 1.253034 -0.019655 0.112331
H 1.367079 -1.220114 -0.853752
5
Structure 3484 | Energy: -10.835323 Hartree
N -0.592213 -2.437272 3.180543
N -1.024922 -1.590989 2.630852
O 0.926880 -1.540542 -0.419403
H 0.154382 -1.240864 -0.902953
H 1.636334 -0.920824 -0.604929
5
Structure 3485 | Energy: -10.835322 Hartree
N -0.603407 -2.440570 3.184008
N -1.013728 -1.587691 2.627388
O 0.926880 -1.540542 -0.419403
H 0.154382 -1.240864 -0.902953
H 1.636334 -0.920824 -0.604929
5
Structure 3486 | Energy: -10.834601 Hartree
N -0.603407 -2.440570 3.184008
N -1.013728 -1.587691 2.627388
O 0.971621 -1.449022 -0.467994
H 0.997329 -2.229086 0.089877
H 0.083258 -1.385209 -0.826512
5
Structure 3487 | Energy: -10.834783 Hartree
N -0.335441 -1.308416 3.246017
N -0.745762 -0.455537 2.689396
O 0.971621 -1.449022 -0.467994
H 0.997329 -2.229086 0.089877
H 0.083258 -1.385209 -0.826512
5
Structure 3488 | Energy: -10.834545 Hartree
N -0.335441 -1.308416 3.246017
N -0.745762 -0.455537 2.689396
O 1.918156 -2.285527 -1.275751
H 1.943864 -3.065590 -0.717880
H 1.029793 -2.221713 -1.634269
5
Structure 3489 | Energy: -10.834537 Hartree
N -0.356397 -1.296836 3.276508
N -0.724806 -0.467117 2.658905
O 1.918156 -2.285527 -1.275751
H 1.943864 -3.065590 -0.717880
H 1.029793 -2.221713 -1.634269
5
Structure 3490 | Energy: -10.834707 Hartree
N 0.261979 -1.931054 2.587166
N -0.106430 -1.101336 1.969563
O 1.918156 -2.285527 -1.275751
H 1.943864 -3.065590 -0.717880
H 1.029793 -2.221713 -1.634269
5
Structure 3491 | Energy: -10.834712 Hartree
N 0.313340 -1.906663 2.605644
N -0.070579 -1.086002 1.985392
O 1.918156 -2.285527 -1.275751
H 1.943864 -3.065590 -0.717880
H 1.029793 -2.221713 -1.634269
5
Structure 3492 | Energy: -10.835007 Hartree
N 2.061848 -2.735934 -0.954471
N 1.677928 -1.915273 -1.574723
O 0.169649 -1.456256 2.284364
H 0.195357 -2.236320 2.842235
H -0.718714 -1.392442 1.925846
5
Structure 3493 | Energy: -10.835009 Hartree
N 2.174640 -2.695969 -0.997478
N 1.565135 -1.955237 -1.531716
O 0.169649 -1.456256 2.284364
H 0.195357 -2.236320 2.842235
H -0.718714 -1.392442 1.925846
5
Structure 3494 | Energy: -10.835286 Hartree
N 2.174640 -2.695969 -0.997478
N 1.565135 -1.955237 -1.531716
O 0.402254 -0.952173 1.615377
H 0.427962 -1.732237 2.173249
H -0.486109 -0.888359 1.256859
5
Structure 3495 | Energy: -10.834798 Hartree
N 2.174640 -2.695969 -0.997478
N 1.565135 -1.955237 -1.531716
O 0.321527 -0.346727 2.326474
H 0.347235 -1.126791 2.884346
H -0.566836 -0.282913 1.967956
5
Structure 3496 | Energy: -10.834684 Hartree
N 2.174640 -2.695969 -0.997478
N 1.565135 -1.955237 -1.531716
O 0.042314 -1.076268 3.090103
H 0.068021 -1.856332 3.647974
H -0.846049 -1.012454 2.731585
5
Structure 3497 | Energy: -10.834685 Hartree
N 2.179264 -2.699007 -1.007198
N 1.560512 -1.952200 -1.521996
O 0.042314 -1.076268 3.090103
H 0.068021 -1.856332 3.647974
H -0.846049 -1.012454 2.731585
5
Structure 3498 | Energy: -10.834748 Hartree
N 2.416762 -2.277373 -1.265516
N 1.323014 -2.373834 -1.263678
O 0.042314 -1.076268 3.090103
H 0.068021 -1.856332 3.647974
H -0.846049 -1.012454 2.731585
5
Structure 3499 | Energy: -10.834475 Hartree
N 0.540919 -1.068114 3.100338
N -0.552829 -1.164575 3.102177
O 1.918156 -2.285527 -1.275751
H 1.943864 -3.065590 -0.717880
H 1.029793 -2.221713 -1.634269
5
Structure 3500 | Energy: -10.834488 Hartree
N 0.540919 -1.068114 3.100338
N -0.552829 -1.164575 3.102177
O 1.429478 -2.137954 -1.494746
H 1.409307 -2.957692 -0.996747
H 0.529138 -1.950932 -1.770802
5
Structure 3501 | Energy: -10.834479 Hartree
N 0.540919 -1.068114 3.100338
N -0.552829 -1.164575 3.102177
O 1.543108 -2.206953 -1.484421
H 1.522937 -3.026691 -0.986422
H 0.642768 -2.019931 -1.760478
5
Structure 3502 | Energy: -10.834444 Hartree
N 0.540919 -1.068114 3.100338
N -0.552829 -1.164575 3.102177
O 1.891466 -2.270539 -2.441255
H 1.871295 -3.090277 -1.943256
H 0.991126 -2.083518 -2.717312
5
Structure 3503 | Energy: -10.834486 Hartree
N 0.540919 -1.068114 3.100338
N -0.552829 -1.164575 3.102177
O 1.158333 -2.539207 -2.010519
H 1.138162 -3.358946 -1.512520
H 0.257993 -2.352186 -2.286576
5
Structure 3504 | Energy: -10.834516 Hartree
N 1.066398 -0.942379 3.165374
N -0.027349 -1.038840 3.167212
O 1.158333 -2.539207 -2.010519
H 1.138162 -3.358946 -1.512520
H 0.257993 -2.352186 -2.286576
5
Structure 3505 | Energy: -10.834510 Hartree
N 1.066050 -0.941966 3.147804
N -0.027001 -1.039253 3.184782
O 1.158333 -2.539207 -2.010519
H 1.138162 -3.358946 -1.512520
H 0.257993 -2.352186 -2.286576
5
Structure 3506 | Energy: -10.834601 Hartree
N 1.066050 -0.941966 3.147804
N -0.027001 -1.039253 3.184782
O 1.006518 -2.336856 -1.301203
H 0.986347 -3.156595 -0.803204
H 0.106178 -2.149835 -1.577260
5
Structure 3507 | Energy: -10.834612 Hartree
N 1.071627 -0.959660 3.090750
N -0.021424 -1.056947 3.127728
O 1.006518 -2.336856 -1.301203
H 0.986347 -3.156595 -0.803204
H 0.106178 -2.149835 -1.577260
5
Structure 3508 | Energy: -10.834443 Hartree
N 0.521410 -0.789738 2.605639
N 0.528793 -1.226869 3.612840
O 1.006518 -2.336856 -1.301203
H 0.986347 -3.156595 -0.803204
H 0.106178 -2.149835 -1.577260
5
Structure 3509 | Energy: -10.834473 Hartree
N 0.579099 -0.610805 2.534157
N 0.691213 -0.983150 3.560988
O 1.006518 -2.336856 -1.301203
H 0.986347 -3.156595 -0.803204
H 0.106178 -2.149835 -1.577260
5
Structure 3510 | Energy: -10.834378 Hartree
N 0.579099 -0.610805 2.534157
N 0.691213 -0.983150 3.560988
O -0.204955 -2.361460 -1.047681
H -0.225126 -3.181199 -0.549682
H -1.105294 -2.174439 -1.323738
5
Structure 3511 | Energy: -10.834804 Hartree
N -0.987839 -1.690992 2.913883
N -0.362793 -1.709742 3.816412
O -0.204955 -2.361460 -1.047681
H -0.225126 -3.181199 -0.549682
H -1.105294 -2.174439 -1.323738
5
Structure 3512 | Energy: -10.834819 Hartree
N -0.947204 -1.961921 2.960062
N -0.305514 -2.004572 3.850010
O -0.204955 -2.361460 -1.047681
H -0.225126 -3.181199 -0.549682
H -1.105294 -2.174439 -1.323738
5
Structure 3513 | Energy: -10.834791 Hartree
N -0.947592 -1.962021 2.959709
N -0.305902 -2.004672 3.849657
O -0.193026 -2.405303 -1.122361
H -0.213197 -3.225041 -0.624362
H -1.093366 -2.218282 -1.398418
5
Structure 3514 | Energy: -10.834745 Hartree
N -0.947592 -1.962021 2.959709
N -0.305902 -2.004672 3.849657
O -0.203531 -2.396168 -1.129836
H 0.010200 -3.176345 -0.614060
H -1.150035 -2.411960 -1.290073
5
Structure 3515 | Energy: -10.834745 Hartree
N -0.947650 -1.961984 2.959753
N -0.305845 -2.004709 3.849614
O -0.203531 -2.396168 -1.129836
H 0.010200 -3.176345 -0.614060
H -1.150035 -2.411960 -1.290073
5
Structure 3516 | Energy: -10.834888 Hartree
N -0.889698 -1.451552 2.225807
N -0.247893 -1.494277 3.115668
O -0.203531 -2.396168 -1.129836
H 0.010200 -3.176345 -0.614060
H -1.150035 -2.411960 -1.290073
5
Structure 3517 | Energy: -10.835121 Hartree
N -1.398141 -1.091388 1.716968
N -0.756336 -1.134112 2.606829
O -0.203531 -2.396168 -1.129836
H 0.010200 -3.176345 -0.614060
H -1.150035 -2.411960 -1.290073
5
Structure 3518 | Energy: -10.835125 Hartree
N -1.424518 -1.323850 1.806076
N -0.763648 -1.373488 2.681506
O -0.203531 -2.396168 -1.129836
H 0.010200 -3.176345 -0.614060
H -1.150035 -2.411960 -1.290073
5
Structure 3519 | Energy: -10.835129 Hartree
N -1.424589 -1.327460 1.805939
N -0.763577 -1.369878 2.681642
O -0.203531 -2.396168 -1.129836
H 0.010200 -3.176345 -0.614060
H -1.150035 -2.411960 -1.290073
5
Structure 3520 | Energy: -10.835129 Hartree
N -1.424589 -1.327460 1.805939
N -0.763577 -1.369878 2.681642
O -0.384129 -2.471440 -1.148413
H -0.187555 -3.255572 -0.631811
H -1.335795 -2.444029 -1.272411
5
Structure 3521 | Energy: -10.835127 Hartree
N -1.420892 -1.329227 1.812429
N -0.759881 -1.371644 2.688133
O -0.369341 -2.481141 -1.143499
H -0.172768 -3.265272 -0.626897
H -1.321007 -2.453730 -1.267497
5
Structure 3522 | Energy: -10.835226 Hartree
N -1.420892 -1.329227 1.812429
N -0.759881 -1.371644 2.688133
O 0.677654 -2.138688 -0.606985
H 0.874227 -2.922819 -0.090382
H -0.274013 -2.111276 -0.730982
5
Structure 3523 | Energy: -10.835219 Hartree
N -1.420892 -1.329227 1.812429
N -0.759881 -1.371644 2.688133
O 0.647029 -2.457173 -0.518797
H 0.744425 -3.233192 0.036801
H -0.292753 -2.332602 -0.670747
5
Structure 3524 | Energy: -10.835319 Hartree
N 1.009939 0.556260 0.643654
N 1.445003 0.338586 1.627995
O 0.647029 -2.457173 -0.518797
H 0.744425 -3.233192 0.036801
H -0.292753 -2.332602 -0.670747
5
Structure 3525 | Energy: -10.835218 Hartree
N 0.382362 -2.384786 -0.988383
N 0.817427 -2.602461 -0.004041
O 1.274605 0.483874 1.113239
H 1.372002 -0.292145 1.668837
H 0.334824 0.608445 0.961289
5
Structure 3526 | Energy: -10.834472 Hartree
N 0.079328 -2.664615 -0.462001
N 1.120461 -2.322632 -0.530423
O 1.274605 0.483874 1.113239
H 1.372002 -0.292145 1.668837
H 0.334824 0.608445 0.961289
5
Structure 3527 | Energy: -10.834471 Hartree
N 0.079492 -2.665353 -0.463221
N 1.120297 -2.321894 -0.529203
O 1.274605 0.483874 1.113239
H 1.372002 -0.292145 1.668837
H 0.334824 0.608445 0.961289
5
Structure 3528 | Energy: -10.834708 Hartree
N 0.079492 -2.665353 -0.463221
N 1.120297 -2.321894 -0.529203
O 1.249454 0.499305 1.165580
H 0.501579 -0.037385 1.435816
H 1.604442 0.108762 0.363548
5
Structure 3529 | Energy: -10.835583 Hartree
N 0.707068 0.275694 1.168816
N 1.747873 0.619152 1.102833
O 0.621878 -2.441742 -0.466456
H -0.125998 -2.978431 -0.196221
H 0.976866 -2.832285 -1.268488
5
Structure 3530 | Energy: -10.835617 Hartree
N 0.707068 0.275694 1.168816
N 1.747873 0.619152 1.102833
O 0.734083 -2.443790 -0.500872
H -0.027234 -2.983291 -0.277901
H 1.140012 -2.832915 -1.279075
5
Structure 3531 | Energy: -10.835566 Hartree
N 1.036330 0.352395 1.003581
N 2.088845 0.616150 0.835542
O 0.734083 -2.443790 -0.500872
H -0.027234 -2.983291 -0.277901
H 1.140012 -2.832915 -1.279075
5
Structure 3532 | Energy: -10.834684 Hartree
N 0.187940 -2.627627 -0.447920
N 1.240455 -2.363872 -0.615959
O 1.582473 0.536232 0.950629
H 0.821157 -0.003269 1.173600
H 1.988402 0.147107 0.172427
5
Structure 3533 | Energy: -10.834937 Hartree
N 0.187940 -2.627627 -0.447920
N 1.240455 -2.363872 -0.615959
O 1.587315 0.456250 0.867950
H 1.922550 1.242258 1.304058
H 0.810154 0.171053 1.354241
5
Structure 3534 | Energy: -10.834429 Hartree
N 0.187940 -2.627627 -0.447920
N 1.240455 -2.363872 -0.615959
O 1.566656 0.511046 0.861881
H 1.382311 -0.411670 1.048945
H 1.678301 0.955264 1.705683
5
Structure 3535 | Energy: -10.835320 Hartree
N 0.187940 -2.627627 -0.447920
N 1.240455 -2.363872 -0.615959
O 1.506374 0.506197 0.899074
H 1.861252 -0.373142 0.753449
H 2.156146 0.993704 1.410863
5
Structure 3536 | Energy: -10.834132 Hartree
N 1.036330 0.352395 1.003581
N 2.088845 0.616150 0.835542
O 0.657984 -2.473825 -0.552428
H 1.012861 -3.353164 -0.698052
H 1.307756 -1.986318 -0.040638
5
Structure 3537 | Energy: -10.834119 Hartree
N 1.028773 0.371184 0.979979
N 2.096403 0.597361 0.859144
O 0.657984 -2.473825 -0.552428
H 1.012861 -3.353164 -0.698052
H 1.307756 -1.986318 -0.040638
5
Structure 3538 | Energy: -10.834082 Hartree
N 1.028773 0.371184 0.979979
N 2.096403 0.597361 0.859144
O 0.740984 -2.665798 -0.146939
H 1.147155 -3.528848 -0.249655
H 1.402333 -2.084162 0.235308
5
Structure 3539 | Energy: -10.835433 Hartree
N 0.266901 -2.794633 -0.070881
N 1.334531 -2.568456 -0.191716
O 1.502857 0.500018 0.903921
H 1.909028 -0.363031 0.801205
H 2.164205 1.081655 1.286168
5
Structure 3540 | Energy: -10.834422 Hartree
N 0.354686 -2.383423 0.345903
N 1.422316 -2.157247 0.225068
O 1.502857 0.500018 0.903921
H 1.909028 -0.363031 0.801205
H 2.164205 1.081655 1.286168
5
Structure 3541 | Energy: -10.834425 Hartree
N 0.354686 -2.383423 0.345903
N 1.422316 -2.157247 0.225068
O 1.502213 0.499074 0.905556
H 1.908634 -0.366370 0.826761
H 2.174817 1.099982 1.234659
5
Structure 3542 | Energy: -10.834274 Hartree
N 0.518643 -2.472902 0.474423
N 1.586273 -2.246726 0.353588
O 1.502213 0.499074 0.905556
H 1.908634 -0.366370 0.826761
H 2.174817 1.099982 1.234659
5
Structure 3543 | Energy: -10.832067 Hartree
N 1.028773 0.371184 0.979979
N 2.096403 0.597361 0.859144
O 0.992083 -2.345012 0.400000
H 1.398503 -3.210457 0.321205
H 1.664687 -1.744105 0.729103
5
Structure 3544 | Energy: -10.832043 Hartree
N 1.028773 0.371184 0.979979
N 2.096403 0.597361 0.859144
O 0.990402 -2.346286 0.408859
H 1.401655 -3.198694 0.251850
H 1.688208 -1.735658 0.657851
5
Structure 3545 | Energy: -10.832061 Hartree
N 1.028773 0.371184 0.979979
N 2.096403 0.597361 0.859144
O 1.004751 -2.340909 0.365088
H 1.420171 -3.186754 0.185216
H 1.701687 -1.729235 0.613949
5
Structure 3546 | Energy: -10.831935 Hartree
N 1.084491 0.354856 1.049566
N 2.152407 0.568331 0.909658
O 1.004751 -2.340909 0.365088
H 1.420171 -3.186754 0.185216
H 1.701687 -1.729235 0.613949
5
Structure 3547 | Energy: -10.834405 Hartree
N 0.533033 -2.460749 0.438902
N 1.600950 -2.247274 0.298994
O 1.556209 0.474696 0.975752
H 1.971629 -0.371149 0.795880
H 2.253145 1.086370 1.224613
5
Structure 3548 | Energy: -10.836071 Hartree
N 0.533033 -2.460749 0.438902
N 1.600950 -2.247274 0.298994
O 1.574979 0.418193 0.962667
H 2.520952 0.276798 1.036996
H 1.405902 1.335246 1.191187
5
Structure 3549 | Energy: -10.836072 Hartree
N 0.534595 -2.468114 0.439183
N 1.599387 -2.239910 0.298713
O 1.574979 0.418193 0.962667
H 2.520952 0.276798 1.036996
H 1.405902 1.335246 1.191187
5
Structure 3550 | Energy: -10.836072 Hartree
N 0.534595 -2.468114 0.439183
N 1.599387 -2.239910 0.298713
O -0.450030 0.084204 0.591263
H -1.209873 -0.368065 0.963382
H -0.648050 1.023650 0.596084
5
Structure 3551 | Energy: -10.836069 Hartree
N 0.538599 -2.459696 0.435983
N 1.603391 -2.231492 0.295513
O -0.450030 0.084204 0.591263
H -1.209873 -0.368065 0.963382
H -0.648050 1.023650 0.596084
5
Structure 3552 | Energy: -10.836061 Hartree
N 0.538599 -2.459696 0.435983
N 1.603391 -2.231492 0.295513
O -0.451205 0.084038 0.588683
H -1.208491 -0.367890 0.966384
H -0.630783 1.026105 0.634037
5
Structure 3553 | Energy: -10.836054 Hartree
N 0.538599 -2.459696 0.435983
N 1.603391 -2.231492 0.295513
O -0.360641 0.120786 0.736279
H -1.127849 -0.323325 1.103072
H -0.506011 1.064963 0.832155
5
Structure 3554 | Energy: -10.836045 Hartree
N 0.561604 -2.471361 0.728194
N 1.629562 -2.249503 0.602356
O -0.360641 0.120786 0.736279
H -1.127849 -0.323325 1.103072
H -0.506011 1.064963 0.832155
5
Structure 3555 | Energy: -10.835092 Hartree
N 1.113704 -1.712661 0.053110
N 2.181662 -1.490803 -0.072728
O -0.360641 0.120786 0.736279
H -1.127849 -0.323325 1.103072
H -0.506011 1.064963 0.832155
5
Structure 3556 | Energy: -10.835092 Hartree
N 1.113704 -1.712661 0.053110
N 2.181662 -1.490803 -0.072728
O -0.472301 -0.564354 -1.419275
H -1.256958 -1.115532 -1.389329
H -0.654133 0.156089 -2.027300
5
Structure 3557 | Energy: -10.834957 Hartree
N 1.113021 -1.721420 0.024958
N 2.182346 -1.482043 -0.044575
O -0.472301 -0.564354 -1.419275
H -1.256958 -1.115532 -1.389329
H -0.654133 0.156089 -2.027300
5
Structure 3558 | Energy: -10.835183 Hartree
N 1.117613 -1.734931 0.041976
N 2.177753 -1.468532 -0.061593
O -0.472301 -0.564354 -1.419275
H -1.256958 -1.115532 -1.389329
H -0.654133 0.156089 -2.027300
5
Structure 3559 | Energy: -10.835109 Hartree
N 1.413034 -0.981718 0.620580
N 2.473174 -0.715319 0.517011
O -0.472301 -0.564354 -1.419275
H -1.256958 -1.115532 -1.389329
H -0.654133 0.156089 -2.027300
5
Structure 3560 | Energy: -10.835179 Hartree
N 1.413034 -0.981718 0.620580
N 2.473174 -0.715319 0.517011
O -0.446487 -0.449482 -1.430700
H -1.237136 -0.992846 -1.434000
H -0.613887 0.299341 -2.007792
5
Structure 3561 | Energy: -10.834898 Hartree
N -1.030163 -0.571186 -1.411390
N 0.029977 -0.304787 -1.514959
O 1.996710 -0.860014 0.601271
H 1.206061 -1.403378 0.597970
H 1.829310 -0.111191 0.024178
5
Structure 3562 | Energy: -10.834726 Hartree
N -1.030163 -0.571186 -1.411390
N 0.029977 -0.304787 -1.514959
O 1.941639 -0.850761 0.555468
H 1.150990 -1.394124 0.552168
H 1.774238 -0.101937 -0.021624
5
Structure 3563 | Energy: -10.834814 Hartree
N -0.897759 -0.423647 -1.573718
N 0.157663 -0.120886 -1.570100
O 1.941639 -0.850761 0.555468
H 1.150990 -1.394124 0.552168
H 1.774238 -0.101937 -0.021624
5
Structure 3564 | Energy: -10.834811 Hartree
N -0.923692 -0.409750 -1.535961
N 0.134892 -0.118566 -1.550259
O 1.941639 -0.850761 0.555468
H 1.150990 -1.394124 0.552168
H 1.774238 -0.101937 -0.021624
5
Structure 3565 | Energy: -10.834658 Hartree
N -0.923692 -0.409750 -1.535961
N 0.134892 -0.118566 -1.550259
O 1.625761 -0.644759 0.902151
H 0.859988 -1.216502 0.817990
H 1.523084 0.063762 0.262423
5
Structure 3566 | Energy: -10.834631 Hartree
N -0.923692 -0.409750 -1.535961
N 0.134892 -0.118566 -1.550259
O 1.526305 -0.632172 0.982889
H 0.750602 -1.187947 0.883992
H 1.463833 0.062884 0.323503
5
Structure 3567 | Energy: -10.835614 Hartree
N 0.950115 -0.769971 0.947609
N 2.008698 -0.478786 0.933311
O -0.347501 -0.271951 -1.500682
H -1.123204 -0.827726 -1.599578
H -0.409974 0.423105 -2.160068
5
Structure 3568 | Energy: -10.835683 Hartree
N 0.786516 -0.920244 0.995046
N 1.842481 -0.628318 1.067897
O -0.347501 -0.271951 -1.500682
H -1.123204 -0.827726 -1.599578
H -0.409974 0.423105 -2.160068
5
Structure 3569 | Energy: -10.835670 Hartree
N 0.800170 -0.923518 1.000479
N 1.856135 -0.631591 1.073330
O -0.347501 -0.271951 -1.500682
H -1.123204 -0.827726 -1.599578
H -0.409974 0.423105 -2.160068
5
Structure 3570 | Energy: -10.835709 Hartree
N 0.800170 -0.923518 1.000479
N 1.856135 -0.631591 1.073330
O -0.294613 -0.221485 -1.602738
H -1.070316 -0.777260 -1.701634
H -0.357086 0.473571 -2.262124
5
Structure 3571 | Energy: -10.834907 Hartree
N 0.800170 -0.923518 1.000479
N 1.856135 -0.631591 1.073330
O -0.961998 -0.891655 -1.944489
H -1.737700 -1.447429 -2.043385
H -1.024470 -0.196598 -2.603875
5
Structure 3572 | Energy: -10.834907 Hartree
N 0.800170 -0.923518 1.000479
N 1.856135 -0.631591 1.073330
O 3.039772 2.421024 0.043946
H 3.964607 2.520634 -0.190872
H 2.699832 3.297716 0.237977
5
Structure 3573 | Energy: -10.834907 Hartree
N 0.799370 -0.923021 0.998314
N 1.855336 -0.631094 1.071165
O 3.039772 2.421024 0.043946
H 3.964607 2.520634 -0.190872
H 2.699832 3.297716 0.237977
5
Structure 3574 | Energy: -10.835118 Hartree
N 0.799370 -0.923021 0.998314
N 1.855336 -0.631094 1.071165
O 2.625145 2.398032 -0.579524
H 3.549979 2.497642 -0.814342
H 2.285204 3.274724 -0.385493
5
Structure 3575 | Energy: -10.835199 Hartree
N 0.799370 -0.923021 0.998314
N 1.855336 -0.631094 1.071165
O 2.624988 2.398126 -0.579543
H 2.328224 3.225761 -0.963382
H 3.509448 2.545123 -0.236150
5
Structure 3576 | Energy: -10.835419 Hartree
N 0.799370 -0.923021 0.998314
N 1.855336 -0.631094 1.071165
O 1.517633 2.460177 -0.793758
H 1.220869 3.287812 -1.177597
H 2.402093 2.607174 -0.450365
5
Structure 3577 | Energy: -10.835674 Hartree
N 0.799370 -0.923021 0.998314
N 1.855336 -0.631094 1.071165
O 0.626691 2.276232 0.139214
H 0.329927 3.103867 -0.244624
H 1.511151 2.423229 0.482607
5
Structure 3578 | Energy: -10.835071 Hartree
N 1.298312 -1.637605 0.425914
N 2.354277 -1.345678 0.498764
O 0.626691 2.276232 0.139214
H 0.329927 3.103867 -0.244624
H 1.511151 2.423229 0.482607
5
Structure 3579 | Energy: -10.834380 Hartree
N 0.131592 2.184803 0.100526
N 1.187557 2.476729 0.173377
O 1.793411 -1.546176 0.464602
H 1.496647 -0.718541 0.080763
H 2.677871 -1.399179 0.807995
5
Structure 3580 | Energy: -10.834364 Hartree
N 0.159296 2.094037 0.108253
N 1.215262 2.385964 0.181103
O 1.793411 -1.546176 0.464602
H 1.496647 -0.718541 0.080763
H 2.677871 -1.399179 0.807995
5
Structure 3581 | Energy: -10.834440 Hartree
N 0.159296 2.094037 0.108253
N 1.215262 2.385964 0.181103
O 2.252487 -1.374045 0.531732
H 1.848741 -0.599548 0.134837
H 3.119999 -1.111518 0.848430
5
Structure 3582 | Energy: -10.834436 Hartree
N 0.160114 2.091544 0.106533
N 1.214444 2.388458 0.182823
O 2.252487 -1.374045 0.531732
H 1.848741 -0.599548 0.134837
H 3.119999 -1.111518 0.848430
5
Structure 3583 | Energy: -10.834439 Hartree
N 0.133001 2.206124 0.025191
N 1.187332 2.503038 0.101481
O 2.252487 -1.374045 0.531732
H 1.848741 -0.599548 0.134837
H 3.119999 -1.111518 0.848430
5
Structure 3584 | Energy: -10.834442 Hartree
N 0.133001 2.206124 0.025191
N 1.187332 2.503038 0.101481
O 2.249645 -1.372758 0.530742
H 1.878886 -0.568566 0.161697
H 3.134968 -1.162926 0.837284
5
Structure 3585 | Energy: -10.834612 Hartree
N -0.380044 1.921191 -0.229321
N 0.674287 2.218105 -0.153031
O 2.249645 -1.372758 0.530742
H 1.878886 -0.568566 0.161697
H 3.134968 -1.162926 0.837284
5
Structure 3586 | Energy: -10.834815 Hartree
N -1.361661 1.685159 -0.452214
N -0.307330 1.982073 -0.375924
O 2.249645 -1.372758 0.530742
H 1.878886 -0.568566 0.161697
H 3.134968 -1.162926 0.837284
5
Structure 3587 | Energy: -10.834425 Hartree
N 1.751271 -1.464477 0.489099
N 2.805602 -1.167563 0.565390
O -0.863287 1.776878 -0.410572
H -1.234046 2.581070 -0.779616
H 0.022037 1.986710 -0.104030
5
Structure 3588 | Energy: -10.834426 Hartree
N 1.751271 -1.464477 0.489099
N 2.805602 -1.167563 0.565390
O -0.855139 1.764576 -0.355911
H -1.225898 2.568768 -0.724955
H 0.030185 1.974408 -0.049369
5
Structure 3589 | Energy: -10.834396 Hartree
N 1.751271 -1.464477 0.489099
N 2.805602 -1.167563 0.565390
O -1.056808 1.609638 -0.109939
H -1.485553 2.407050 -0.427259
H -0.176149 1.857228 0.181495
5
Structure 3590 | Energy: -10.834874 Hartree
N -1.558688 1.519652 -0.149532
N -0.504357 1.816566 -0.073242
O 2.253150 -1.374491 0.528693
H 1.824406 -0.577079 0.211373
H 3.133809 -1.126901 0.820127
5
Structure 3591 | Energy: -10.834538 Hartree
N -1.360892 2.734302 -0.057940
N -0.306562 3.031215 0.018350
O 2.253150 -1.374491 0.528693
H 1.824406 -0.577079 0.211373
H 3.133809 -1.126901 0.820127
5
Structure 3592 | Energy: -10.834543 Hartree
N -1.360892 2.734302 -0.057940
N -0.306562 3.031215 0.018350
O 2.228944 -1.332862 0.493456
H 1.800199 -0.535450 0.176136
H 3.109603 -1.085272 0.784891
5
Structure 3593 | Energy: -10.834499 Hartree
N 1.727064 -1.422848 0.453863
N 2.781395 -1.125934 0.530153
O -0.859013 2.824287 -0.018346
H -1.287758 3.621700 -0.335666
H 0.021646 3.071878 0.273088
5
Structure 3594 | Energy: -10.834510 Hartree
N 1.727064 -1.422848 0.453863
N 2.781395 -1.125934 0.530153
O -0.741905 2.916197 0.029356
H -1.156655 3.722011 -0.285332
H 0.157091 3.139261 0.282030
5
Structure 3595 | Energy: -10.834511 Hartree
N 1.727064 -1.422848 0.453863
N 2.781395 -1.125934 0.530153
O -0.741469 2.916073 0.030486
H -1.171235 3.718778 -0.271751
H 0.164741 3.144471 0.250518
5
Structure 3596 | Energy: -10.834526 Hartree
N -1.241976 2.825310 -0.012259
N -0.187645 3.122224 0.064031
O 2.227571 -1.332084 0.496608
H 1.797805 -0.529380 0.194371
H 3.133781 -1.103687 0.716640
5
Structure 3597 | Energy: -10.834476 Hartree
N -1.241976 2.825310 -0.012259
N -0.187645 3.122224 0.064031
O 2.517287 -2.164639 0.105822
H 2.087522 -1.361934 -0.196415
H 3.423497 -1.936241 0.325854
5
Structure 3598 | Energy: -10.834540 Hartree
N -1.241976 2.825310 -0.012259
N -0.187645 3.122224 0.064031
O 2.545669 -2.045038 0.086224
H 2.761377 -2.430140 0.938015
H 2.299167 -2.766341 -0.497518
5
Structure 3599 | Energy: -10.834518 Hartree
N -1.515507 3.086899 0.292718
N -0.461177 3.383813 0.369009
O 2.545669 -2.045038 0.086224
H 2.761377 -2.430140 0.938015
H 2.299167 -2.766341 -0.497518
5
Structure 3600 | Energy: -10.834519 Hartree
N -1.513393 3.089525 0.264139
N -0.463290 3.381187 0.397588
O 2.545669 -2.045038 0.086224
H 2.761377 -2.430140 0.938015
H 2.299167 -2.766341 -0.497518
5
Structure 3601 | Energy: -10.834520 Hartree
N -1.513393 3.089525 0.264139
N -0.463290 3.381187 0.397588
O 2.544817 -2.045059 0.086066
H 2.769900 -2.425339 0.937597
H 2.304164 -2.770814 -0.494590
5
Structure 3602 | Energy: -10.834508 Hartree
N -1.513393 3.089525 0.264139
N -0.463290 3.381187 0.397588
O 2.754261 -2.092339 -0.853906
H 2.979344 -2.472619 -0.002375
H 2.513608 -2.818094 -1.434563
5
Structure 3603 | Energy: -10.834511 Hartree
N -1.344107 3.205358 0.346202
N -0.287746 3.452344 0.515585
O 2.754261 -2.092339 -0.853906
H 2.979344 -2.472619 -0.002375
H 2.513608 -2.818094 -1.434563
5
Structure 3604 | Energy: -10.834507 Hartree
N -1.544555 3.025710 0.431944
N -0.494597 3.331288 0.530950
O 2.754261 -2.092339 -0.853906
H 2.979344 -2.472619 -0.002375
H 2.513608 -2.818094 -1.434563
5
Structure 3605 | Energy: -10.834471 Hartree
N 2.228411 -2.307014 -0.888253
N 3.278369 -2.001437 -0.789247
O -1.018705 3.240385 0.466291
H -0.793622 2.860105 1.317822
H -1.259358 2.514630 -0.114366
5
Structure 3606 | Energy: -10.834462 Hartree
N 2.228411 -2.307014 -0.888253
N 3.278369 -2.001437 -0.789247
O -0.641880 3.504363 0.380338
H -0.469228 3.107321 1.236452
H -0.919714 2.799250 -0.209086
5
Structure 3607 | Energy: -10.834440 Hartree
N 3.015271 -1.931352 -1.266703
N 2.491509 -2.377099 -0.410797
O -0.641880 3.504363 0.380338
H -0.469228 3.107321 1.236452
H -0.919714 2.799250 -0.209086
5
Structure 3608 | Energy: -10.834441 Hartree
N 2.982974 -1.898310 -1.435512
N 2.501834 -2.349269 -0.557599
O -0.641880 3.504363 0.380338
H -0.469228 3.107321 1.236452
H -0.919714 2.799250 -0.209086
5
Structure 3609 | Energy: -10.834434 Hartree
N 2.441126 -1.884035 -1.544247
N 1.959986 -2.334994 -0.666334
O -0.641880 3.504363 0.380338
H -0.469228 3.107321 1.236452
H -0.919714 2.799250 -0.209086
5
Structure 3610 | Energy: -10.834416 Hartree
N 2.441126 -1.884035 -1.544247
N 1.959986 -2.334994 -0.666334
O -0.341328 3.440243 -0.352222
H -0.168676 3.043202 0.503892
H -0.619162 2.735131 -0.941646
5
Structure 3611 | Energy: -10.834419 Hartree
N 2.076096 -2.513363 -1.822893
N 1.594956 -2.964323 -0.944980
O -0.341328 3.440243 -0.352222
H -0.168676 3.043202 0.503892
H -0.619162 2.735131 -0.941646
5
Structure 3612 | Energy: -10.834418 Hartree
N 2.076096 -2.513363 -1.822893
N 1.594956 -2.964323 -0.944980
O -0.206409 3.509412 -0.504139
H -0.058708 3.124284 0.362026
H -0.491079 2.800417 -1.085589
5
Structure 3613 | Energy: -10.834418 Hartree
N 2.076096 -2.513363 -1.822893
N 1.594956 -2.964323 -0.944980
O -0.633912 3.385357 -0.767257
H -0.449696 3.053184 0.113712
H -0.874092 2.631271 -1.310823
5
Structure 3614 | Energy: -10.834418 Hartree
N 2.083276 -2.512709 -1.818540
N 1.587776 -2.964977 -0.949332
O -0.633912 3.385357 -0.767257
H -0.449696 3.053184 0.113712
H -0.874092 2.631271 -1.310823
5
Structure 3615 | Energy: -10.834410 Hartree
N 2.083276 -2.512709 -1.818540
N 1.587776 -2.964977 -0.949332
O -0.373846 3.232822 -1.069979
H -0.189631 2.900649 -0.189009
H -0.614027 2.478737 -1.613545
5
Structure 3616 | Energy: -10.834407 Hartree
N 1.803753 -2.454259 -1.542696
N 1.308252 -2.906527 -0.673487
O -0.373846 3.232822 -1.069979
H -0.189631 2.900649 -0.189009
H -0.614027 2.478737 -1.613545
5
Structure 3617 | Energy: -10.834402 Hartree
N 1.803753 -2.454259 -1.542696
N 1.308252 -2.906527 -0.673487
O -0.373971 3.232794 -1.070087
H -1.161796 2.686539 -1.033791
H 0.360118 2.693282 -0.767044
5
Structure 3618 | Energy: -10.834401 Hartree
N 1.803753 -2.454259 -1.542696
N 1.308252 -2.906527 -0.673487
O -0.373400 3.232976 -1.069393
H -1.162034 2.686734 -1.061832
H 0.351301 2.690204 -0.750014
5
Structure 3619 | Energy: -10.834401 Hartree
N 1.768143 -2.443380 -1.504943
N 1.272642 -2.895648 -0.635735
O -0.371885 3.246393 -0.979687
H -1.160519 2.700151 -0.972126
H 0.352815 2.703621 -0.660308
5
Structure 3620 | Energy: -10.834576 Hartree
N -0.127712 3.411593 -1.395998
N -0.623213 2.959325 -0.526789
O 1.523969 -2.608580 -1.088632
H 0.735336 -3.154822 -1.081071
H 2.248670 -3.151352 -0.769253
5
Structure 3621 | Energy: -10.834401 Hartree
N 1.768143 -2.443380 -1.504943
N 1.272642 -2.895648 -0.635735
O -0.371885 3.246393 -0.979687
H -1.160519 2.700151 -0.972126
H 0.352815 2.703621 -0.660308
5
Structure 3622 | Energy: -10.834399 Hartree
N 1.768143 -2.443380 -1.504943
N 1.272642 -2.895648 -0.635735
O -0.350491 3.180320 -0.980916
H -1.139125 2.634078 -0.973355
H 0.374210 2.637548 -0.661538
5
Structure 3623 | Energy: -10.834409 Hartree
N 1.768143 -2.443380 -1.504943
N 1.272642 -2.895648 -0.635735
O -0.145382 2.737383 -1.930966
H -0.934016 2.191141 -1.923405
H 0.579319 2.194611 -1.611588
5
Structure 3624 | Energy: -10.834422 Hartree
N 1.275106 -2.718957 -1.503368
N 0.779605 -3.171225 -0.634159
O -0.145382 2.737383 -1.930966
H -0.934016 2.191141 -1.923405
H 0.579319 2.194611 -1.611588
5
Structure 3625 | Energy: -10.834584 Hartree
N 0.098791 2.902583 -2.347277
N -0.396710 2.450315 -1.478069
O 1.030932 -2.884157 -1.087057
H 0.242299 -3.430399 -1.079496
H 1.755633 -3.426929 -0.767678
5
Structure 3626 | Energy: -10.834582 Hartree
N 0.292385 2.879602 -2.560370
N -0.250419 2.465468 -1.700458
O 1.030932 -2.884157 -1.087057
H 0.242299 -3.430399 -1.079496
H 1.755633 -3.426929 -0.767678
5
Structure 3627 | Energy: -10.834583 Hartree
N 0.263853 2.880462 -2.548832
N -0.278952 2.466329 -1.688920
O 1.030932 -2.884157 -1.087057
H 0.242299 -3.430399 -1.079496
H 1.755633 -3.426929 -0.767678
5
Structure 3628 | Energy: -10.834580 Hartree
N 0.280934 2.894784 -2.611785
N -0.261870 2.480650 -1.751873
O 1.018578 -2.859658 -1.075752
H 0.229944 -3.405900 -1.068191
H 1.743279 -3.402430 -0.756373
5
Structure 3629 | Energy: -10.834429 Hartree
N 1.286403 -2.713525 -1.487415
N 0.743598 -3.127659 -0.627503
O 0.013109 2.748651 -2.200123
H -0.775524 2.202409 -2.192561
H 0.737810 2.205879 -1.880744
5
Structure 3630 | Energy: -10.834429 Hartree
N 1.286403 -2.713525 -1.487415
N 0.743598 -3.127659 -0.627503
O -2.496149 0.834206 1.775049
H -2.689753 0.741944 0.839963
H -1.675955 0.364291 1.943148
5
Structure 3631 | Energy: -10.834430 Hartree
N 1.286403 -2.713525 -1.487415
N 0.743598 -3.127659 -0.627503
O -2.563693 0.795713 1.741079
H -2.742131 0.707602 0.802581
H -1.743231 0.330013 1.919295
5
Structure 3632 | Energy: -10.834580 Hartree
N -2.256367 0.971792 1.268582
N -2.799171 0.557659 2.128494
O 0.979077 -2.889604 -1.014918
H 0.800639 -2.977715 -1.953416
H 1.799539 -3.355305 -0.836702
5
Structure 3633 | Energy: -10.834590 Hartree
N -2.256367 0.971792 1.268582
N -2.799171 0.557659 2.128494
O 0.759394 -3.147947 -0.928341
H 0.609901 -3.211984 -1.873820
H 1.530386 -3.683006 -0.725662
5
Structure 3634 | Energy: -10.834588 Hartree
N -2.246602 1.013081 1.281530
N -2.789406 0.598947 2.141442
O 0.759394 -3.147947 -0.928341
H 0.609901 -3.211984 -1.873820
H 1.530386 -3.683006 -0.725662
5
Structure 3635 | Energy: -10.834421 Hartree
N 1.065571 -2.974402 -1.399859
N 0.522767 -3.388536 -0.539947
O -2.552779 0.839535 1.753048
H -2.702272 0.775499 0.807568
H -1.781786 0.304477 1.955727
5
Structure 3636 | Energy: -10.834420 Hartree
N 1.037709 -2.940859 -1.377303
N 0.494905 -3.354993 -0.517391
O -2.552779 0.839535 1.753048
H -2.702272 0.775499 0.807568
H -1.781786 0.304477 1.955727
5
Structure 3637 | Energy: -10.834426 Hartree
N 1.037709 -2.940859 -1.377303
N 0.494905 -3.354993 -0.517391
O -2.202728 0.785652 2.202273
H -2.437170 0.765554 1.272211
H -1.429865 0.226820 2.312656
5
Structure 3638 | Energy: -10.834431 Hartree
N 1.037709 -2.940859 -1.377303
N 0.494905 -3.354993 -0.517391
O -2.127021 0.711428 2.360576
H -2.357151 0.737715 1.429592
H -1.367837 0.130432 2.449343
5
Structure 3639 | Energy: -10.834410 Hartree
N 1.061737 -3.279217 -0.503634
N 0.470877 -3.016636 -1.391061
O -2.127021 0.711428 2.360576
H -2.357151 0.737715 1.429592
H -1.367837 0.130432 2.449343
5
Structure 3640 | Energy: -10.834418 Hartree
N 1.061737 -3.279217 -0.503634
N 0.470877 -3.016636 -1.391061
O -2.410105 0.970857 2.800650
H -2.640235 0.997144 1.869667
H -1.650921 0.389861 2.889417
5
Structure 3641 | Energy: -10.834571 Hartree
N -2.085073 0.808529 3.197239
N -2.675933 1.071110 2.309812
O 0.736705 -3.116889 -0.900222
H 0.506575 -3.090602 -1.831206
H 1.495889 -3.697884 -0.811455
5
Structure 3642 | Energy: -10.834572 Hartree
N -2.085073 0.808529 3.197239
N -2.675933 1.071110 2.309812
O 0.738368 -3.114829 -0.900610
H 0.493359 -3.106965 -1.828127
H 1.482702 -3.714210 -0.808384
5
Structure 3643 | Energy: -10.834574 Hartree
N -2.030103 0.843776 3.153582
N -2.620964 1.106357 2.266155
O 0.738368 -3.114829 -0.900610
H 0.493359 -3.106965 -1.828127
H 1.482702 -3.714210 -0.808384
5
Structure 3644 | Energy: -10.834573 Hartree
N -2.318930 0.995666 2.778665
N -2.842054 1.223204 1.840497
O 0.738368 -3.114829 -0.900610
H 0.493359 -3.106965 -1.828127
H 1.482702 -3.714210 -0.808384
5
Structure 3645 | Energy: -10.834566 Hartree
N -2.318930 0.995666 2.778665
N -2.842054 1.223204 1.840497
O 0.711094 -3.240994 -0.958866
H 0.466084 -3.233130 -1.886383
H 1.455428 -3.840375 -0.866640
5
Structure 3646 | Energy: -10.834579 Hartree
N -1.978728 1.256634 2.267578
N -2.501852 1.484172 1.329410
O 0.711094 -3.240994 -0.958866
H 0.466084 -3.233130 -1.886383
H 1.455428 -3.840375 -0.866640
5
Structure 3647 | Energy: -10.834592 Hartree
N -2.262652 0.914666 2.124283
N -2.785776 1.142204 1.186115
O 0.711094 -3.240994 -0.958866
H 0.466084 -3.233130 -1.886383
H 1.455428 -3.840375 -0.866640
5
Structure 3648 | Energy: -10.834555 Hartree
N -2.262652 0.914666 2.124283
N -2.785776 1.142204 1.186115
O 1.363659 -3.295827 -0.556096
H 1.118649 -3.287962 -1.483614
H 2.107993 -3.895207 -0.463870
5
Structure 3649 | Energy: -10.834422 Hartree
N 1.653160 -3.442693 -0.133749
N 1.130036 -3.215155 -1.071917
O -2.552153 1.061532 1.701936
H -2.797162 1.069397 0.774418
H -1.807819 0.462152 1.794162
5
Structure 3650 | Energy: -10.834421 Hartree
N 1.653160 -3.442693 -0.133749
N 1.130036 -3.215155 -1.071917
O -2.520620 1.050312 1.775837
H -2.785635 1.054758 0.853813
H -1.771855 0.454388 1.853428
5
Structure 3651 | Energy: -10.834429 Hartree
N 1.653160 -3.442693 -0.133749
N 1.130036 -3.215155 -1.071917
O -1.969102 1.981747 1.577601
H -2.234116 1.986193 0.655577
H -1.220336 1.385823 1.655192
5
Structure 3652 | Energy: -10.834534 Hartree
N 1.653160 -3.442693 -0.133749
N 1.130036 -3.215155 -1.071917
O -1.907230 1.924109 1.482953
H -1.745257 1.816282 2.422378
H -2.691235 2.470563 1.390647
5
Structure 3653 | Energy: -10.834432 Hartree
N -1.680473 1.834883 1.999436
N -2.203596 2.062421 1.061268
O 1.426403 -3.353467 -0.650232
H 1.588375 -3.461294 0.289192
H 0.642398 -2.807013 -0.742538
5
Structure 3654 | Energy: -10.834417 Hartree
N -1.425159 2.119235 1.602040
N -2.458910 1.778069 1.458664
O 1.426403 -3.353467 -0.650232
H 1.588375 -3.461294 0.289192
H 0.642398 -2.807013 -0.742538
5
Structure 3655 | Energy: -10.834435 Hartree
N -1.425159 2.119235 1.602040
N -2.458910 1.778069 1.458664
O 1.426425 -3.353395 -0.650253
H 1.761173 -2.897537 0.124678
H 0.469248 -3.371918 -0.577688
5
Structure 3656 | Energy: -10.834434 Hartree
N -1.425159 2.119235 1.602040
N -2.458910 1.778069 1.458664
O 1.429164 -3.352336 -0.648671
H 1.716484 -2.890726 0.141736
H 0.470466 -3.395526 -0.619867
5
Structure 3657 | Energy: -10.834434 Hartree
N -1.425159 2.119235 1.602040
N -2.458910 1.778069 1.458664
O 1.510080 -3.385375 -0.769529
H 1.797401 -2.923765 0.020878
H 0.551383 -3.428565 -0.740725
5
Structure 3658 | Energy: -10.834453 Hartree
N -1.425159 2.119235 1.602040
N -2.458910 1.778069 1.458664
O 1.523864 -3.325599 -0.713625
H 1.519102 -4.218360 -1.064817
H 0.610914 -3.082735 -0.542349
5
Structure 3659 | Energy: -10.834455 Hartree
N -1.428601 2.129765 1.600937
N -2.455467 1.767538 1.459767
O 1.523864 -3.325599 -0.713625
H 1.519102 -4.218360 -1.064817
H 0.610914 -3.082735 -0.542349
5
Structure 3660 | Energy: -10.834444 Hartree
N -1.428601 2.129765 1.600937
N -2.455467 1.767538 1.459767
O 2.058756 -3.074140 -1.036908
H 2.053995 -3.966901 -1.388101
H 1.145807 -2.831276 -0.865632
5
Structure 3661 | Energy: -10.834444 Hartree
N -1.428779 2.133694 1.591398
N -2.455289 1.763610 1.469305
O 2.058756 -3.074140 -1.036908
H 2.053995 -3.966901 -1.388101
H 1.145807 -2.831276 -0.865632
5
Structure 3662 | Energy: -10.834498 Hartree
N 2.520662 -2.925462 -0.985929
N 1.494152 -3.295546 -1.108022
O -1.890685 1.985016 1.540419
H -1.895447 1.092255 1.189227
H -2.803635 2.227880 1.711695
5
Structure 3663 | Energy: -10.834498 Hartree
N 2.520662 -2.925462 -0.985929
N 1.494152 -3.295546 -1.108022
O -1.890820 1.985256 1.540229
H -1.892551 1.091853 1.190645
H -2.804399 2.224461 1.713291
5
Structure 3664 | Energy: -10.834498 Hartree
N 2.553657 -3.074033 -0.606402
N 1.537101 -3.488941 -0.613990
O -1.890820 1.985256 1.540229
H -1.892551 1.091853 1.190645
H -2.804399 2.224461 1.713291
5
Structure 3665 | Energy: -10.834498 Hartree
N 2.553657 -3.074033 -0.606402
N 1.537101 -3.488941 -0.613990
O -1.877582 1.967894 1.533123
H -1.879314 1.074491 1.183539
H -2.791161 2.207098 1.706185
5
Structure 3666 | Energy: -10.834496 Hartree
N 2.396855 -3.141708 -0.764651
N 1.371873 -3.535244 -0.753092
O -1.877582 1.967894 1.533123
H -1.879314 1.074491 1.183539
H -2.791161 2.207098 1.706185
5
Structure 3667 | Energy: -10.834491 Hartree
N 1.988864 -3.617350 -0.359725
N 0.935546 -3.926193 -0.332708
O -1.877582 1.967894 1.533123
H -1.879314 1.074491 1.183539
H -2.791161 2.207098 1.706185
5
Structure 3668 | Energy: -10.834498 Hartree
N 1.988864 -3.617350 -0.359725
N 0.935546 -3.926193 -0.332708
O -1.886037 1.958037 1.562188
H -2.167225 2.294714 0.708981
H -2.369059 1.143319 1.719415
5
Structure 3669 | Energy: -10.834473 Hartree
N -1.402139 2.085711 1.509738
N -2.455456 1.776868 1.536754
O 1.504965 -3.745023 -0.307274
H 1.223777 -3.408346 -1.160481
H 1.021944 -4.559742 -0.150047
5
Structure 3670 | Energy: -10.834484 Hartree
N -1.013147 1.760567 1.449320
N -2.066465 1.451724 1.476336
O 1.504965 -3.745023 -0.307274
H 1.223777 -3.408346 -1.160481
H 1.021944 -4.559742 -0.150047
5
Structure 3671 | Energy: -10.834508 Hartree
N 1.988864 -3.617350 -0.359725
N 0.935546 -3.926193 -0.332708
O -1.497046 1.632893 1.501771
H -1.778234 1.969570 0.648563
H -1.980067 0.818175 1.658997
5
Structure 3672 | Energy: -10.834509 Hartree
N 1.968955 -3.581685 -0.347728
N 0.915638 -3.890528 -0.320711
O -1.497046 1.632893 1.501771
H -1.778234 1.969570 0.648563
H -1.980067 0.818175 1.658997
5
Structure 3673 | Energy: -10.834509 Hartree
N 2.050997 -3.618556 -0.295294
N 0.997680 -3.927399 -0.268277
O -1.497046 1.632893 1.501771
H -1.778234 1.969570 0.648563
H -1.980067 0.818175 1.658997
5
Structure 3674 | Energy: -10.834509 Hartree
N 2.050997 -3.618556 -0.295294
N 0.997680 -3.927399 -0.268277
O 1.230794 2.432722 1.431805
H 1.245175 2.856063 0.571017
H 2.083899 2.009770 1.554762
5
Structure 3675 | Energy: -10.836361 Hartree
N 2.505797 0.675004 -0.819825
N 2.779507 -0.380725 -0.943496
O 1.876729 3.480312 0.385869
H 1.657250 4.124465 -0.289713
H 2.058881 2.650932 -0.064797
5
Structure 3676 | Energy: -10.836361 Hartree
N 2.505797 0.675004 -0.819825
N 2.779507 -0.380725 -0.943496
O 1.876730 3.480313 0.385869
H 1.660384 4.125276 -0.289950
H 2.055725 2.650115 -0.064558
5
Structure 3677 | Energy: -10.834823 Hartree
N 2.615569 -0.182883 -1.319319
N 2.669735 0.477163 -0.444002
O 1.876730 3.480313 0.385869
H 1.660384 4.125276 -0.289950
H 2.055725 2.650115 -0.064558
5
Structure 3678 | Energy: -10.834871 Hartree
N 2.615569 -0.182883 -1.319319
N 2.669735 0.477163 -0.444002
O 1.875944 3.481139 0.385749
H 1.607155 4.098908 -0.296623
H 2.121439 2.663360 -0.055976
5
Structure 3679 | Energy: -10.834235 Hartree
N 2.615569 -0.182883 -1.319319
N 2.669735 0.477163 -0.444002
O 1.561142 3.389203 -0.097723
H 1.292354 4.006971 -0.780095
H 1.806638 2.571424 -0.539448
5
Structure 3680 | Energy: -10.834352 Hartree
N 2.615569 -0.182883 -1.319319
N 2.669735 0.477163 -0.444002
O 0.904502 3.436786 0.008957
H 0.635714 4.054554 -0.673414
H 1.149997 2.619007 -0.432767
5
Structure 3681 | Energy: -10.834326 Hartree
N 2.761247 -0.132310 -1.255390
N 2.790940 0.546865 -0.393638
O 0.904502 3.436786 0.008957
H 0.635714 4.054554 -0.673414
H 1.149997 2.619007 -0.432767
5
Structure 3682 | Energy: -10.834361 Hartree
N 2.761247 -0.132310 -1.255390
N 2.790940 0.546865 -0.393638
O 0.691372 3.202841 0.319071
H 0.331925 3.835287 -0.305689
H 0.978501 2.438387 -0.188194
5
Structure 3683 | Energy: -10.834319 Hartree
N 2.702146 -0.047760 -1.224824
N 2.731839 0.631414 -0.363073
O 0.691372 3.202841 0.319071
H 0.331925 3.835287 -0.305689
H 0.978501 2.438387 -0.188194
5
Structure 3684 | Energy: -10.835590 Hartree
N 0.672479 2.855868 -0.175145
N 0.702172 3.535042 0.686606
O 2.721039 0.299213 -0.730608
H 2.361592 0.931659 -1.355368
H 3.008169 -0.465241 -1.237874
5
Structure 3685 | Energy: -10.834319 Hartree
N 2.702146 -0.047760 -1.224824
N 2.731839 0.631414 -0.363073
O 0.691372 3.202841 0.319071
H 0.331925 3.835287 -0.305689
H 0.978501 2.438387 -0.188194
5
Structure 3686 | Energy: -10.834319 Hartree
N 2.702146 -0.047760 -1.224824
N 2.731839 0.631414 -0.363073
O 0.317693 -2.260273 -2.037374
H -0.630591 -2.140472 -1.960424
H 0.731122 -1.605280 -1.467977
5
Structure 3687 | Energy: -10.834300 Hartree
N 2.706209 -0.034321 -1.235203
N 2.727776 0.617975 -0.352695
O 0.317693 -2.260273 -2.037374
H -0.630591 -2.140472 -1.960424
H 0.731122 -1.605280 -1.467977
5
Structure 3688 | Energy: -10.834583 Hartree
N 2.706209 -0.034321 -1.235203
N 2.727776 0.617975 -0.352695
O 0.257986 -2.613827 -2.582315
H -0.690298 -2.494026 -2.505366
H 0.671415 -1.958834 -2.012919
5
Structure 3689 | Energy: -10.834583 Hartree
N 2.706209 -0.034321 -1.235203
N 2.727776 0.617975 -0.352695
O 0.384249 1.204981 2.584253
H -0.568532 1.188773 2.477193
H 0.764071 0.843543 1.778493
5
Structure 3690 | Energy: -10.834583 Hartree
N 2.680044 -0.859402 -0.877432
N 2.687192 -0.661774 0.202229
O 0.384249 1.204981 2.584253
H -0.568532 1.188773 2.477193
H 0.764071 0.843543 1.778493
5
Structure 3691 | Energy: -10.833768 Hartree
N 2.680044 -0.859402 -0.877432
N 2.687192 -0.661774 0.202229
O 0.726382 1.246803 1.544956
H -0.226399 1.230595 1.437896
H 1.106204 0.885365 0.739196
5
Structure 3692 | Energy: -10.833353 Hartree
N 2.680044 -0.859402 -0.877432
N 2.687192 -0.661774 0.202229
O 0.777068 1.053228 1.580416
H -0.175713 1.037020 1.473356
H 1.156890 0.691790 0.774656
5
Structure 3693 | Energy: -10.833342 Hartree
N 2.720288 -0.854220 -0.848633
N 2.708431 -0.660055 0.231614
O 0.777068 1.053228 1.580416
H -0.175713 1.037020 1.473356
H 1.156890 0.691790 0.774656
5
Structure 3694 | Energy: -10.833406 Hartree
N 2.640482 -1.023325 -0.780933
N 2.628624 -0.829160 0.299314
O 0.777068 1.053228 1.580416
H -0.175713 1.037020 1.473356
H 1.156890 0.691790 0.774656
5
Structure 3695 | Energy: -10.833406 Hartree
N 2.634392 -1.022880 -0.781045
N 2.634714 -0.829605 0.299427
O 0.777068 1.053228 1.580416
H -0.175713 1.037020 1.473356
H 1.156890 0.691790 0.774656
5
Structure 3696 | Energy: -10.833798 Hartree
N 2.634392 -1.022880 -0.781045
N 2.634714 -0.829605 0.299427
O 0.756947 1.272096 1.536502
H -0.195833 1.255888 1.429442
H 1.136770 0.910658 0.730742
5
Structure 3697 | Energy: -10.835638 Hartree
N 0.724727 1.154328 0.945191
N 0.725050 1.347603 2.025663
O 2.666612 -0.905112 -0.189734
H 1.713831 -0.921320 -0.296794
H 3.046434 -1.266550 -0.995494
5
Structure 3698 | Energy: -10.835217 Hartree
N -0.294561 0.965636 1.190523
N -0.294238 1.158911 2.270995
O 2.666612 -0.905112 -0.189734
H 1.713831 -0.921320 -0.296794
H 3.046434 -1.266550 -0.995494
5
Structure 3699 | Energy: -10.835215 Hartree
N -0.291689 0.968762 1.189980
N -0.297110 1.155784 2.271538
O 2.666612 -0.905112 -0.189734
H 1.713831 -0.921320 -0.296794
H 3.046434 -1.266550 -0.995494
5
Structure 3700 | Energy: -10.834275 Hartree
N -0.578943 0.781730 0.737643
N -1.516566 0.361790 0.351266
O 2.666612 -0.905112 -0.189734
H 1.713831 -0.921320 -0.296794
H 3.046434 -1.266550 -0.995494
5
Structure 3701 | Energy: -10.835215 Hartree
N 3.103365 -0.716272 -0.047621
N 2.165741 -1.136213 -0.433998
O -1.015695 0.592891 0.595530
H -1.968476 0.576683 0.488470
H -0.635873 0.231452 -0.210230
5
Structure 3702 | Energy: -10.835214 Hartree
N 3.103365 -0.716272 -0.047621
N 2.165741 -1.136213 -0.433998
O -1.013135 0.599780 0.594160
H -1.965932 0.585153 0.487018
H -0.633863 0.237145 -0.211321
5
Structure 3703 | Energy: -10.834275 Hartree
N -0.576414 0.788641 0.736284
N -1.514037 0.368700 0.349907
O 2.666644 -0.905133 -0.189745
H 1.713847 -0.919760 -0.296887
H 3.045916 -1.267768 -0.995226
5
Structure 3704 | Energy: -10.833666 Hartree
N 0.410622 1.126263 -0.039784
N -0.527001 0.706322 -0.426160
O 2.666644 -0.905133 -0.189745
H 1.713847 -0.919760 -0.296887
H 3.045916 -1.267768 -0.995226
5
Structure 3705 | Energy: -10.833827 Hartree
N 0.672367 1.363987 0.081265
N -0.314126 1.072907 -0.301982
O 2.666644 -0.905133 -0.189745
H 1.713847 -0.919760 -0.296887
H 3.045916 -1.267768 -0.995226
5
Structure 3706 | Energy: -10.834972 Hartree
N 0.672367 1.363987 0.081265
N -0.314126 1.072907 -0.301982
O 2.689190 -0.923645 -0.273839
H 2.024488 -1.612755 -0.326880
H 2.377416 -0.280963 0.369518
5
Structure 3707 | Energy: -10.834956 Hartree
N 0.672367 1.363987 0.081265
N -0.314126 1.072907 -0.301982
O 2.667452 -0.854119 -0.273558
H 2.002749 -1.543229 -0.326598
H 2.355677 -0.211438 0.369800
5
Structure 3708 | Energy: -10.834956 Hartree
N 0.672367 1.363987 0.081265
N -0.314126 1.072907 -0.301982
O 2.667452 1.617397 -2.150703
H 2.002749 1.751221 -2.828771
H 2.355677 2.064697 -1.358951
5
Structure 3709 | Energy: -10.835813 Hartree
N 3.106061 1.795453 -1.952718
N 2.119568 1.504372 -2.335965
O 0.233758 1.185931 -0.116720
H -0.430945 1.319756 -0.794788
H -0.078017 1.633231 0.675032
5
Structure 3710 | Energy: -10.835810 Hartree
N 3.087951 2.107843 -1.854459
N 2.118620 1.811218 -2.275394
O 0.233758 1.185931 -0.116720
H -0.430945 1.319756 -0.794788
H -0.078017 1.633231 0.675032
5
Structure 3711 | Energy: -10.835684 Hartree
N 3.189482 2.115819 -1.932168
N 2.220151 1.819194 -2.353103
O 0.233758 1.185931 -0.116720
H -0.430945 1.319756 -0.794788
H -0.078017 1.633231 0.675032
5
Structure 3712 | Energy: -10.835687 Hartree
N 3.180955 2.120033 -1.944120
N 2.209335 1.825478 -2.361214
O 0.233758 1.185931 -0.116720
H -0.430945 1.319756 -0.794788
H -0.078017 1.633231 0.675032
5
Structure 3713 | Energy: -10.835682 Hartree
N 3.344175 1.829862 -1.782228
N 2.374652 1.615629 -2.250100
O 0.233758 1.185931 -0.116720
H -0.430945 1.319756 -0.794788
H -0.078017 1.633231 0.675032
5
Structure 3714 | Energy: -10.834975 Hartree
N 0.663882 1.325563 0.123577
N -0.305641 1.111331 -0.344295
O 2.914051 1.690229 -2.022525
H 2.249348 1.824054 -2.700593
H 2.602276 2.137530 -1.230774
5
Structure 3715 | Energy: -10.834973 Hartree
N 0.663882 1.325563 0.123577
N -0.305641 1.111331 -0.344295
O 2.914071 1.690238 -2.022400
H 2.250250 1.822784 -2.701582
H 2.601062 2.138658 -1.231769
5
Structure 3716 | Energy: -10.834969 Hartree
N 0.663248 1.314615 0.135067
N -0.306275 1.100382 -0.332805
O 2.914071 1.690238 -2.022400
H 2.250250 1.822784 -2.701582
H 2.601062 2.138658 -1.231769
5
Structure 3717 | Energy: -10.834952 Hartree
N 0.663248 1.314615 0.135067
N -0.306275 1.100382 -0.332805
O 2.881673 1.622708 -2.083010
H 2.206376 1.752856 -2.751254
H 2.590057 2.088068 -1.293991
5
Structure 3718 | Energy: -10.834985 Hartree
N 0.663248 1.314615 0.135067
N -0.306275 1.100382 -0.332805
O 3.007563 1.624073 -2.041377
H 2.332266 1.754221 -2.709622
H 2.715948 2.089433 -1.252358
5
Structure 3719 | Energy: -10.835002 Hartree
N 0.663248 1.314615 0.135067
N -0.306275 1.100382 -0.332805
O 3.036611 1.642580 -1.995383
H 2.361313 1.772729 -2.663628
H 2.744995 2.107941 -1.206364
5
Structure 3720 | Energy: -10.835552 Hartree
N 3.467270 1.783017 -1.754689
N 2.497747 1.568785 -2.222562
O 0.232588 1.174178 -0.105627
H -0.442709 1.304326 -0.773871
H -0.059027 1.639539 0.683392
5
Structure 3721 | Energy: -10.835588 Hartree
N 3.467270 1.783017 -1.754689
N 2.497747 1.568785 -2.222562
O 0.275151 1.138255 -0.098736
H -0.400146 1.268403 -0.766980
H -0.016465 1.603615 0.690283
5
Structure 3722 | Energy: -10.835635 Hartree
N 3.208617 2.070397 -2.077671
N 2.210201 1.798484 -2.443738
O 0.275151 1.138255 -0.098736
H -0.400146 1.268403 -0.766980
H -0.016465 1.603615 0.690283
5
Structure 3723 | Energy: -10.835424 Hartree
N 3.208617 2.070397 -2.077671
N 2.210201 1.798484 -2.443738
O 0.111821 0.705742 -0.324009
H -0.563476 0.835890 -0.992253
H -0.179794 1.171102 0.465010
5
Structure 3724 | Energy: -10.835426 Hartree
N 3.210216 2.081499 -2.066342
N 2.210669 1.816339 -2.434273
O 0.111821 0.705742 -0.324009
H -0.563476 0.835890 -0.992253
H -0.179794 1.171102 0.465010
5
Structure 3725 | Energy: -10.835613 Hartree
N 3.210216 2.081499 -2.066342
N 2.210669 1.816339 -2.434273
O 0.285866 1.257049 -0.689548
H -0.389431 1.387198 -1.357793
H -0.005750 1.722410 0.099471
5
Structure 3726 | Energy: -10.834626 Hartree
N 0.731537 1.422950 -0.498825
N -0.268009 1.157790 -0.866756
O 2.764544 1.915598 -2.257065
H 2.089247 2.045747 -2.925310
H 2.472929 2.380959 -1.468046
5
Structure 3727 | Energy: -10.834616 Hartree
N 0.731537 1.422950 -0.498825
N -0.268009 1.157790 -0.866756
O 2.765151 1.917091 -2.259079
H 2.056428 2.017012 -2.897236
H 2.496128 2.386011 -1.464162
5
Structure 3728 | Energy: -10.834690 Hartree
N 0.841306 1.352367 -0.332537
N -0.158241 1.087207 -0.700468
O 2.765151 1.917091 -2.259079
H 2.056428 2.017012 -2.897236
H 2.496128 2.386011 -1.464162
5
Structure 3729 | Energy: -10.835496 Hartree
N 0.553061 1.725914 -0.499613
N 0.130004 0.713660 -0.533392
O 2.765151 1.917091 -2.259079
H 2.056428 2.017012 -2.897236
H 2.496128 2.386011 -1.464162
5
Structure 3730 | Energy: -10.835467 Hartree
N 0.685287 1.789775 -0.341807
N 0.214635 0.798318 -0.358380
O 2.765151 1.917091 -2.259079
H 2.056428 2.017012 -2.897236
H 2.496128 2.386011 -1.464162
5
Structure 3731 | Energy: -10.835159 Hartree
N 2.945769 2.444648 -2.242021
N 2.475116 1.453191 -2.258594
O 0.504669 1.262218 -0.358865
H -0.204053 1.362139 -0.997022
H 0.235647 1.731138 0.436052
5
Structure 3732 | Energy: -10.835190 Hartree
N 2.945769 2.444648 -2.242021
N 2.475116 1.453191 -2.258594
O 0.781818 1.117892 -0.127961
H -0.003002 1.202888 -0.672340
H 0.593149 1.554067 0.707686
5
Structure 3733 | Energy: -10.834872 Hartree
N 2.945769 2.444648 -2.242021
N 2.475116 1.453191 -2.258594
O 0.877716 0.353138 0.433267
H 0.092896 0.438134 -0.111112
H 0.689047 0.789313 1.268914
5
Structure 3734 | Energy: -10.834863 Hartree
N 2.945769 2.444648 -2.242021
N 2.475116 1.453191 -2.258594
O 0.864948 0.342539 0.451534
H 0.080128 0.427535 -0.092845
H 0.676278 0.778714 1.287181
5
Structure 3735 | Energy: -10.834882 Hartree
N 2.949092 2.442848 -2.233750
N 2.471793 1.454990 -2.266865
O 0.864948 0.342539 0.451534
H 0.080128 0.427535 -0.092845
H 0.676278 0.778714 1.287181
5
Structure 3736 | Energy: -10.835428 Hartree
N 1.049128 0.865629 0.484389
N 0.571828 -0.122229 0.451274
O 2.764912 1.919758 -2.266605
H 1.980093 2.004753 -2.810984
H 2.576243 2.355933 -1.430958
5
Structure 3737 | Energy: -10.834959 Hartree
N 0.501309 0.978401 0.910034
N 0.024010 -0.009458 0.876920
O 2.764912 1.919758 -2.266605
H 1.980093 2.004753 -2.810984
H 2.576243 2.355933 -1.430958
5
Structure 3738 | Energy: -10.834951 Hartree
N 0.477643 0.989139 0.910394
N 0.047675 -0.020196 0.876560
O 2.764912 1.919758 -2.266605
H 1.980093 2.004753 -2.810984
H 2.576243 2.355933 -1.430958
5
Structure 3739 | Energy: -10.834959 Hartree
N 0.477643 0.989139 0.910394
N 0.047675 -0.020196 0.876560
O 3.072684 1.821255 -2.043223
H 2.346478 1.889348 -2.665720
H 2.802775 2.283091 -1.244469
5
Structure 3740 | Energy: -10.834715 Hartree
N 3.231932 2.355574 -2.016443
N 2.801964 1.346239 -2.050278
O 0.318395 0.454820 0.883615
H -0.407811 0.522914 0.261117
H 0.048486 0.916656 1.682369
5
Structure 3741 | Energy: -10.834525 Hartree
N 3.231932 2.355574 -2.016443
N 2.801964 1.346239 -2.050278
O 0.281354 0.424267 0.903914
H -0.112740 0.766299 0.099414
H 0.341332 1.158206 1.521885
5
Structure 3742 | Energy: -10.835043 Hartree
N 0.477643 0.989139 0.910394
N 0.047675 -0.020196 0.876560
O 3.035643 1.790702 -2.022924
H 2.641549 2.132733 -2.827424
H 3.095621 2.524641 -1.404953
5
Structure 3743 | Energy: -10.835041 Hartree
N -0.546581 0.094767 -2.304729
N -0.732488 -0.701450 -1.572437
O 3.035643 1.790702 -2.022924
H 2.641549 2.132733 -2.827424
H 3.095621 2.524641 -1.404953
5
Structure 3744 | Energy: -10.835039 Hartree
N -0.546581 0.094767 -2.304729
N -0.732488 -0.701450 -1.572437
O 3.038069 1.787454 -1.884980
H 2.668295 2.140942 -2.696046
H 3.080207 2.512776 -1.255469
5
Structure 3745 | Energy: -10.835034 Hartree
N -0.546581 0.094767 -2.304729
N -0.732488 -0.701450 -1.572437
O 3.033590 1.775903 -1.648818
H 2.714157 2.136279 -2.478039
H 3.039684 2.496588 -1.012636
5
Structure 3746 | Energy: -10.835027 Hartree
N -0.546581 0.094767 -2.304729
N -0.732488 -0.701450 -1.572437
O 3.136735 1.559939 -1.529880
H 2.865577 1.936993 -2.368820
H 3.164133 2.280002 -0.893556
5
Structure 3747 | Energy: -10.835021 Hartree
N -0.546581 0.094767 -2.304729
N -0.732488 -0.701450 -1.572437
O 3.183565 1.442877 -1.455159
H 2.945916 1.818042 -2.305035
H 3.218238 2.169491 -0.826684
5
Structure 3748 | Energy: -10.835098 Hartree
N -0.546581 0.094767 -2.304729
N -0.732488 -0.701450 -1.572437
O 3.066739 1.387468 -1.469595
H 2.829090 1.762633 -2.319471
H 3.101413 2.114082 -0.841121
5
Structure 3749 | Energy: -10.834638 Hartree
N -0.546581 0.094767 -2.304729
N -0.732488 -0.701450 -1.572437
O 3.089977 1.407526 -1.515990
H 3.428914 2.138519 -0.996099
H 2.132753 1.419825 -1.428118
5
Structure 3750 | Energy: -10.834639 Hartree
N -0.546581 0.094767 -2.304729
N -0.732488 -0.701450 -1.572437
O 3.089846 1.407410 -1.515980
H 3.430940 2.138747 -0.997988
H 2.132806 1.421447 -1.426384
5
Structure 3751 | Energy: -10.834658 Hartree
N -0.440682 0.144994 -2.291643
N -0.626589 -0.651223 -1.559350
O 3.089846 1.407410 -1.515980
H 3.430940 2.138747 -0.997988
H 2.132806 1.421447 -1.426384
5
Structure 3752 | Energy: -10.834658 Hartree
N -0.427506 0.025954 -2.132250
N -0.752004 0.481850 -3.076514
O 3.089846 1.407410 -1.515980
H 3.430940 2.138747 -0.997988
H 2.132806 1.421447 -1.426384
5
Structure 3753 | Energy: -10.834657 Hartree
N -0.427234 0.024793 -2.132906
N -0.752276 0.483010 -3.075858
O 3.089846 1.407410 -1.515980
H 3.430940 2.138747 -0.997988
H 2.132806 1.421447 -1.426384
5
Structure 3754 | Energy: -10.834657 Hartree
N -0.440434 0.144056 -2.292597
N -0.626837 -0.650285 -1.558396
O 3.089846 1.407410 -1.515980
H 3.430940 2.138747 -0.997988
H 2.132806 1.421447 -1.426384
5
Structure 3755 | Energy: -10.834607 Hartree
N -0.440434 0.144056 -2.292597
N -0.626837 -0.650285 -1.558396
O 3.223716 0.978533 -1.790042
H 3.564810 1.709870 -1.272049
H 2.266675 0.992570 -1.700445
5
Structure 3756 | Energy: -10.834730 Hartree
N -0.440434 0.144056 -2.292597
N -0.626837 -0.650285 -1.558396
O 2.988213 0.316144 -2.738423
H 3.329308 1.047481 -2.220431
H 2.031173 0.330182 -2.648827
5
Structure 3757 | Energy: -10.835080 Hartree
N -0.440434 0.144056 -2.292597
N -0.626837 -0.650285 -1.558396
O 2.987844 0.316141 -2.738789
H 2.460062 1.039322 -3.082258
H 2.906281 0.338397 -1.781187
5
Structure 3758 | Energy: -10.835085 Hartree
N -0.430454 0.189343 -2.307227
N -0.616857 -0.604998 -1.573026
O 2.987844 0.316141 -2.738789
H 2.460062 1.039322 -3.082258
H 2.906281 0.338397 -1.781187
5
Structure 3759 | Energy: -10.835188 Hartree
N -1.025474 -0.371001 -1.789307
N -0.021837 -0.044654 -2.090946
O 2.987844 0.316141 -2.738789
H 2.460062 1.039322 -3.082258
H 2.906281 0.338397 -1.781187
5
Structure 3760 | Energy: -10.835222 Hartree
N -1.025424 -0.378492 -1.797664
N -0.021887 -0.037163 -2.082589
O 2.987844 0.316141 -2.738789
H 2.460062 1.039322 -3.082258
H 2.906281 0.338397 -1.781187
5
Structure 3761 | Energy: -10.835316 Hartree
N -1.028777 -0.394590 -1.834460
N -0.018533 -0.021065 -2.045792
O 2.987844 0.316141 -2.738789
H 2.460062 1.039322 -3.082258
H 2.906281 0.338397 -1.781187
5
Structure 3762 | Energy: -10.835266 Hartree
N -1.021391 -0.537967 -1.943313
N -0.019167 -0.128373 -2.123742
O 2.987844 0.316141 -2.738789
H 2.460062 1.039322 -3.082258
H 2.906281 0.338397 -1.781187
5
Structure 3763 | Energy: -10.835629 Hartree
N -1.021391 -0.537967 -1.943313
N -0.019167 -0.128373 -2.123742
O 2.546563 -0.469828 -3.254867
H 2.018781 0.253352 -3.598336
H 2.465000 -0.447573 -2.297264
5
Structure 3764 | Energy: -10.835764 Hartree
N -1.021391 -0.537967 -1.943313
N -0.019167 -0.128373 -2.123742
O 2.697433 -0.355567 -3.224198
H 2.169651 0.367614 -3.567667
H 2.615870 -0.333311 -2.266595
5
Structure 3765 | Energy: -10.835735 Hartree
N -1.021391 -0.537967 -1.943313
N -0.019167 -0.128373 -2.123742
O 2.636789 -0.168461 -3.366817
H 2.054779 0.526317 -3.679968
H 2.597358 -0.156872 -2.406369
5
Structure 3766 | Energy: -10.835735 Hartree
N -1.021391 -0.537967 -1.943313
N -0.019167 -0.128373 -2.123742
O 2.099404 0.932765 -3.851918
H 2.278408 0.068050 -3.478097
H 1.792665 1.492128 -3.132769
5
Structure 3767 | Energy: -10.835738 Hartree
N -1.020290 -0.541492 -1.945295
N -0.020269 -0.124848 -2.121760
O 2.099404 0.932765 -3.851918
H 2.278408 0.068050 -3.478097
H 1.792665 1.492128 -3.132769
5
Structure 3768 | Energy: -10.835726 Hartree
N -1.020290 -0.541492 -1.945295
N -0.020269 -0.124848 -2.121760
O 2.097235 0.935405 -3.851335
H 2.285667 0.054569 -3.522495
H 1.819824 1.463704 -3.097615
5
Structure 3769 | Energy: -10.835725 Hartree
N -1.020290 -0.541492 -1.945295
N -0.020269 -0.124848 -2.121760
O 2.096873 0.936771 -3.850902
H 2.274679 0.045404 -3.545344
H 1.836553 1.451186 -3.081642
5
Structure 3770 | Energy: -10.835417 Hartree
N -0.775592 -0.818940 -2.027473
N -0.264966 0.152600 -2.039582
O 2.096873 0.936771 -3.850902
H 2.274679 0.045404 -3.545344
H 1.836553 1.451186 -3.081642
5
Structure 3771 | Energy: -10.835457 Hartree
N -0.775592 -0.818940 -2.027473
N -0.264966 0.152600 -2.039582
O 2.094360 0.934351 -3.851836
H 2.327461 0.067955 -3.513402
H 1.823669 1.467051 -3.098770
5
Structure 3772 | Energy: -10.835457 Hartree
N -0.775592 -0.818940 -2.027473
N -0.264966 0.152600 -2.039582
O 2.305670 0.981924 -3.459616
H 2.509208 0.131313 -3.066490
H 1.905755 1.521321 -2.771669
5
Structure 3773 | Energy: -10.835538 Hartree
N -0.798048 -0.805689 -2.061169
N -0.242511 0.139349 -2.005886
O 2.305670 0.981924 -3.459616
H 2.509208 0.131313 -3.066490
H 1.905755 1.521321 -2.771669
5
Structure 3774 | Energy: -10.835538 Hartree
N -0.798048 -0.805689 -2.061169
N -0.242511 0.139349 -2.005886
O -0.824960 2.815977 -3.352327
H -1.645517 2.565324 -2.924104
H -0.124755 2.710878 -2.702082
5
Structure 3775 | Energy: -10.835548 Hartree
N -1.038616 -0.803031 -1.961617
N -0.483079 0.142008 -1.906334
O -0.824960 2.815977 -3.352327
H -1.645517 2.565324 -2.924104
H -0.124755 2.710878 -2.702082
5
Structure 3776 | Energy: -10.835548 Hartree
N -1.038616 -0.803031 -1.961617
N -0.483079 0.142008 -1.906334
O 1.940391 1.195920 -3.447098
H 2.143930 0.345309 -3.053971
H 1.540476 1.735316 -2.759151
5
Structure 3777 | Energy: -10.835527 Hartree
N -1.029188 -0.808718 -1.956452
N -0.492507 0.147695 -1.911500
O 1.940391 1.195920 -3.447098
H 2.143930 0.345309 -3.053971
H 1.540476 1.735316 -2.759151
5
Structure 3778 | Energy: -10.835524 Hartree
N -0.903440 -0.738184 -2.024351
N -0.366759 0.218230 -1.979399
O 1.940391 1.195920 -3.447098
H 2.143930 0.345309 -3.053971
H 1.540476 1.735316 -2.759151
5
Structure 3779 | Energy: -10.834454 Hartree
N -0.435425 -0.665565 -1.690712
N -0.834774 0.145612 -2.313038
O 1.940391 1.195920 -3.447098
H 2.143930 0.345309 -3.053971
H 1.540476 1.735316 -2.759151
5
Structure 3780 | Energy: -10.835767 Hartree
N 2.129077 0.772918 -3.075446
N 1.729729 1.584095 -3.697771
O -0.624112 -0.242563 -2.062365
H -0.420573 -1.093174 -1.669238
H -1.024026 0.296833 -1.374418
5
Structure 3781 | Energy: -10.835153 Hartree
N 2.129077 0.772918 -3.075446
N 1.729729 1.584095 -3.697771
O -1.164580 -1.012036 -2.556804
H -0.961041 -1.862647 -2.163678
H -1.564494 -0.472639 -1.868857
5
Structure 3782 | Energy: -10.834858 Hartree
N 2.129077 0.772918 -3.075446
N 1.729729 1.584095 -3.697771
O -1.691429 -1.000907 -3.767443
H -1.487890 -1.851518 -3.374316
H -2.091344 -0.461510 -3.079496
5
Structure 3783 | Energy: -10.834843 Hartree
N 2.039964 0.863362 -2.845825
N 1.695044 1.624980 -3.556982
O -1.691429 -1.000907 -3.767443
H -1.487890 -1.851518 -3.374316
H -2.091344 -0.461510 -3.079496
5
Structure 3784 | Energy: -10.834842 Hartree
N 2.039964 0.863362 -2.845825
N 1.695044 1.624980 -3.556982
O -1.691760 -1.000333 -3.767334
H -1.487741 -1.855235 -3.383883
H -2.086242 -0.466889 -3.071653
5
Structure 3785 | Energy: -10.834720 Hartree
N -1.529957 -1.399129 -3.351375
N -1.874877 -0.637511 -4.062532
O 1.878161 1.262158 -3.261785
H 2.082180 0.407256 -2.878334
H 1.483679 1.795602 -2.566103
5
Structure 3786 | Energy: -10.834842 Hartree
N 2.039964 0.863362 -2.845825
N 1.695044 1.624980 -3.556982
O -1.691760 -1.000333 -3.767334
H -1.487741 -1.855235 -3.383883
H -2.086242 -0.466889 -3.071653
5
Structure 3787 | Energy: -10.834835 Hartree
N 2.039964 0.863362 -2.845825
N 1.695044 1.624980 -3.556982
O -1.692926 -1.001062 -3.767740
H -1.487077 -1.853355 -3.379491
H -2.068404 -0.457208 -3.069606
5
Structure 3788 | Energy: -10.834824 Hartree
N 2.039964 0.863362 -2.845825
N 1.695044 1.624980 -3.556982
O -1.855202 -1.237614 -2.913842
H -1.649354 -2.089907 -2.525593
H -2.230681 -0.693760 -2.215708
5
Structure 3789 | Energy: -10.834807 Hartree
N 2.039964 0.863362 -2.845825
N 1.695044 1.624980 -3.556982
O -1.981025 -1.054710 -3.268174
H -1.840905 -1.934886 -2.914378
H -2.372428 -0.528112 -2.565572
5
Structure 3790 | Energy: -10.834811 Hartree
N 2.039342 0.860059 -2.896426
N 1.694423 1.621676 -3.607583
O -1.981025 -1.054710 -3.268174
H -1.840905 -1.934886 -2.914378
H -2.372428 -0.528112 -2.565572
5
Structure 3791 | Energy: -10.834809 Hartree
N 2.039342 0.860059 -2.896426
N 1.694423 1.621676 -3.607583
O -1.982726 -1.055972 -3.268958
H -1.790236 -1.914536 -2.887737
H -2.396099 -0.528433 -2.579772
5
Structure 3792 | Energy: -10.834796 Hartree
N 2.070133 0.878519 -2.896769
N 1.725214 1.640137 -3.607926
O -1.982726 -1.055972 -3.268958
H -1.790236 -1.914536 -2.887737
H -2.396099 -0.528433 -2.579772
5
Structure 3793 | Energy: -10.834792 Hartree
N 2.092127 0.866312 -2.902621
N 1.747208 1.627930 -3.613778
O -1.982726 -1.055972 -3.268958
H -1.790236 -1.914536 -2.887737
H -2.396099 -0.528433 -2.579772
5
Structure 3794 | Energy: -10.834777 Hartree
N 2.186465 0.524844 -2.486092
N 1.980367 1.306057 -3.229063
O -1.982726 -1.055972 -3.268958
H -1.790236 -1.914536 -2.887737
H -2.396099 -0.528433 -2.579772
5
Structure 3795 | Energy: -10.834848 Hartree
N 2.186465 0.524844 -2.486092
N 1.980367 1.306057 -3.229063
O -1.787576 -0.983031 -3.283544
H -1.595085 -1.841596 -2.902323
H -2.200949 -0.455493 -2.594358
5
Structure 3796 | Energy: -10.834576 Hartree
N 2.530568 0.684879 -2.638292
N 1.636265 1.146023 -3.076862
O -1.787576 -0.983031 -3.283544
H -1.595085 -1.841596 -2.902323
H -2.200949 -0.455493 -2.594358
5
Structure 3797 | Energy: -10.834563 Hartree
N 2.452285 0.848000 -2.562039
N 1.566537 1.253166 -3.068068
O -1.787576 -0.983031 -3.283544
H -1.595085 -1.841596 -2.902323
H -2.200949 -0.455493 -2.594358
5
Structure 3798 | Energy: -10.834925 Hartree
N -1.357061 -1.204137 -2.970636
N -2.242809 -0.798970 -3.476666
O 2.021770 1.069105 -2.874947
H 2.214260 0.210540 -2.493726
H 1.608397 1.596644 -2.185761
5
Structure 3799 | Energy: -10.834926 Hartree
N -1.931808 0.108114 -2.674905
N -2.338708 -0.580228 -3.426831
O 2.021770 1.069105 -2.874947
H 2.214260 0.210540 -2.493726
H 1.608397 1.596644 -2.185761
5
Structure 3800 | Energy: -10.834561 Hartree
N 2.212860 1.394754 -2.439090
N 1.805961 0.706413 -3.191017
O -2.122899 -0.217535 -3.110761
H -1.930409 -1.076100 -2.729540
H -2.536272 0.310003 -2.421575
5
Structure 3801 | Energy: -10.834565 Hartree
N 2.212860 1.394754 -2.439090
N 1.805961 0.706413 -3.191017
O -2.098917 -0.210090 -3.109396
H -1.906426 -1.068655 -2.728176
H -2.512290 0.317448 -2.420211
5
Structure 3802 | Energy: -10.834646 Hartree
N 2.395146 1.126290 -3.046980
N 1.988247 0.437949 -3.798907
O -2.098917 -0.210090 -3.109396
H -1.906426 -1.068655 -2.728176
H -2.512290 0.317448 -2.420211
5
Structure 3803 | Energy: -10.834844 Hartree
N -1.907826 0.115558 -2.673540
N -2.314726 -0.572783 -3.425467
O 2.204055 0.800642 -3.482837
H 2.396546 -0.057923 -3.101616
H 1.790682 1.328180 -2.793651
5
Structure 3804 | Energy: -10.834836 Hartree
N -1.907826 0.115558 -2.673540
N -2.314726 -0.572783 -3.425467
O 2.222652 0.716974 -3.487862
H 2.398862 -0.150576 -3.119322
H 1.823194 1.243385 -2.789668
5
Structure 3805 | Energy: -10.834835 Hartree
N -1.907826 0.115558 -2.673540
N -2.314726 -0.572783 -3.425467
O 2.273958 0.474741 -3.429291
H 2.397493 -0.352303 -2.959980
H 1.877343 1.093380 -2.809506
5
Structure 3806 | Energy: -10.834830 Hartree
N -1.907826 0.115558 -2.673540
N -2.314726 -0.572783 -3.425467
O 2.291083 0.613609 -3.393472
H 2.414617 -0.213434 -2.924160
H 1.894468 1.232248 -2.773687
5
Structure 3807 | Energy: -10.834819 Hartree
N -1.907826 0.115558 -2.673540
N -2.314726 -0.572783 -3.425467
O 2.418715 0.182965 -3.068963
H 2.542249 -0.644079 -2.599652
H 2.022099 0.801604 -2.449178
5
Structure 3808 | Energy: -10.834913 Hartree
N -1.787643 -0.238989 -2.606392
N -2.434909 -0.218236 -3.492615
O 2.418715 0.182965 -3.068963
H 2.542249 -0.644079 -2.599652
H 2.022099 0.801604 -2.449178
5
Structure 3809 | Energy: -10.834909 Hartree
N -1.797123 -0.218587 -2.599613
N -2.425428 -0.238637 -3.499394
O 2.418715 0.182965 -3.068963
H 2.542249 -0.644079 -2.599652
H 2.022099 0.801604 -2.449178
5
Structure 3810 | Energy: -10.834908 Hartree
N -1.771248 -0.078225 -2.320082
N -2.459588 -0.053737 -3.174695
O 2.418715 0.182965 -3.068963
H 2.542249 -0.644079 -2.599652
H 2.022099 0.801604 -2.449178
5
Structure 3811 | Energy: -10.834873 Hartree
N -1.771248 -0.078225 -2.320082
N -2.459588 -0.053737 -3.174695
O -0.288520 -4.034463 -1.467804
H 0.603642 -3.733597 -1.649579
H -0.626717 -3.493677 -0.748551
5
Structure 3812 | Energy: -10.834873 Hartree
N -1.771248 -0.078225 -2.320082
N -2.459588 -0.053737 -3.174695
O -3.807565 -0.228284 1.475649
H -3.416394 0.614451 1.712921
H -3.083045 -0.836926 1.306008
5
Structure 3813 | Energy: -10.834499 Hartree
N -3.400968 -0.227430 1.906739
N -4.089309 -0.202941 1.052127
O -2.177845 -0.079079 -2.751173
H -1.786674 0.763656 -2.513901
H -1.453325 -0.687721 -2.920813
5
Structure 3814 | Energy: -10.834390 Hartree
N -3.400968 -0.227430 1.906739
N -4.089309 -0.202941 1.052127
O -2.950022 0.020565 -2.724528
H -2.558852 0.863301 -2.487256
H -2.225503 -0.588077 -2.894169
5
Structure 3815 | Energy: -10.834391 Hartree
N -3.400968 -0.227430 1.906739
N -4.089309 -0.202941 1.052127
O -2.950022 0.020570 -2.724548
H -2.558430 0.875068 -2.534799
H -2.225926 -0.599924 -2.846305
5
Structure 3816 | Energy: -10.834852 Hartree
N -3.769379 -0.763294 1.492966
N -3.720897 0.332923 1.465900
O -2.950022 0.020570 -2.724548
H -2.558430 0.875068 -2.534799
H -2.225926 -0.599924 -2.846305
5
Structure 3817 | Energy: -10.834902 Hartree
N -3.746203 -0.756569 1.379451
N -3.697721 0.339648 1.352385
O -2.950022 0.020570 -2.724548
H -2.558430 0.875068 -2.534799
H -2.225926 -0.599924 -2.846305
5
Structure 3818 | Energy: -10.834877 Hartree
N -3.746203 -0.756569 1.379451
N -3.697721 0.339648 1.352385
O -3.036994 -0.127345 -2.767056
H -2.645403 0.727153 -2.577307
H -2.312899 -0.747839 -2.888812
5
Structure 3819 | Energy: -10.834883 Hartree
N -3.746203 -0.756569 1.379451
N -3.697721 0.339648 1.352385
O -3.166098 -0.050073 -2.784162
H -2.809634 0.819919 -2.595580
H -2.417587 -0.634178 -2.934836
5
Structure 3820 | Energy: -10.834885 Hartree
N -3.746203 -0.756569 1.379451
N -3.697721 0.339648 1.352385
O -3.165318 -0.052831 -2.784161
H -2.848420 0.833434 -2.600788
H -2.391180 -0.603921 -2.929632
5
Structure 3821 | Energy: -10.834769 Hartree
N -3.128512 -0.582185 -2.768508
N -3.080030 0.514032 -2.795574
O -3.783009 -0.227215 1.363797
H -3.466111 0.659050 1.547170
H -3.008871 -0.778305 1.218327
5
Structure 3822 | Energy: -10.834789 Hartree
N -3.136654 -0.584484 -2.713832
N -3.088172 0.511733 -2.740898
O -3.783009 -0.227215 1.363797
H -3.466111 0.659050 1.547170
H -3.008871 -0.778305 1.218327
5
Structure 3823 | Energy: -10.834847 Hartree
N -3.136654 -0.584484 -2.713832
N -3.088172 0.511733 -2.740898
O -3.735737 -0.112900 1.234297
H -3.418839 0.773365 1.417670
H -2.961599 -0.663990 1.088827
5
Structure 3824 | Energy: -10.834667 Hartree
N -3.136654 -0.584484 -2.713832
N -3.088172 0.511733 -2.740898
O -3.716133 -0.046491 1.246133
H -2.920515 -0.008620 0.712211
H -3.771076 -0.936057 1.606416
5
Structure 3825 | Energy: -10.834666 Hartree
N -3.157309 -0.583222 -2.715696
N -3.067517 0.510472 -2.739033
O -3.716133 -0.046491 1.246133
H -2.920515 -0.008620 0.712211
H -3.771076 -0.936057 1.606416
5
Structure 3826 | Energy: -10.834674 Hartree
N -3.157309 -0.583222 -2.715696
N -3.067517 0.510472 -2.739033
O -3.710552 -0.045917 1.206792
H -2.914934 -0.008047 0.672870
H -3.765495 -0.935484 1.567075
5
Structure 3827 | Energy: -10.834679 Hartree
N -3.157309 -0.583222 -2.715696
N -3.067517 0.510472 -2.739033
O -3.900372 -0.051937 1.173190
H -3.079155 -0.069181 0.678397
H -4.041473 -0.939246 1.515134
5
Structure 3828 | Energy: -10.834766 Hartree
N -2.943896 0.268470 -2.722937
N -2.854104 1.362164 -2.746274
O -3.900372 -0.051937 1.173190
H -3.079155 -0.069181 0.678397
H -4.041473 -0.939246 1.515134
5
Structure 3829 | Energy: -10.834756 Hartree
N -2.943896 0.268470 -2.722937
N -2.854104 1.362164 -2.746274
O -3.908729 -0.059899 1.207014
H -3.087512 -0.077143 0.712221
H -4.049829 -0.947208 1.548958
5
Structure 3830 | Energy: -10.834740 Hartree
N -2.943896 0.268470 -2.722937
N -2.854104 1.362164 -2.746274
O -3.652756 -0.094471 1.256141
H -2.856579 -0.052675 0.723345
H -3.707648 -0.986433 1.610461
5
Structure 3831 | Energy: -10.834586 Hartree
N -3.656175 -0.688888 1.257824
N -3.566383 0.404806 1.234486
O -2.940477 0.862886 -2.724619
H -2.144300 0.904683 -3.257415
H -2.995369 -0.029075 -2.370300
5
Structure 3832 | Energy: -10.834740 Hartree
N -2.943896 0.268470 -2.722937
N -2.854104 1.362164 -2.746274
O -3.652756 -0.094471 1.256141
H -2.856579 -0.052675 0.723345
H -3.707648 -0.986433 1.610461
5
Structure 3833 | Energy: -10.834818 Hartree
N -2.943896 0.268470 -2.722937
N -2.854104 1.362164 -2.746274
O -3.558017 -0.621699 1.115408
H -2.780115 -0.541502 0.560473
H -3.647442 -1.551706 1.341772
5
Structure 3834 | Energy: -10.834490 Hartree
N -3.564390 -1.216096 1.108692
N -3.474598 -0.122401 1.085355
O -2.937522 0.862867 -2.716221
H -2.159621 0.943063 -3.271156
H -3.026947 -0.067141 -2.489857
5
Structure 3835 | Energy: -10.834818 Hartree
N -2.943896 0.268470 -2.722937
N -2.854104 1.362164 -2.746274
O -3.558017 -0.621699 1.115408
H -2.780115 -0.541502 0.560473
H -3.647442 -1.551706 1.341772
5
Structure 3836 | Energy: -10.834831 Hartree
N -2.943896 0.268470 -2.722937
N -2.854104 1.362164 -2.746274
O -3.433272 -0.753066 1.083333
H -2.672353 -0.646176 0.509667
H -3.506604 -1.690870 1.281569
5
Structure 3837 | Energy: -10.834749 Hartree
N -3.039259 0.655783 -3.240639
N -2.758740 0.974851 -2.228572
O -3.433272 -0.753066 1.083333
H -2.672353 -0.646176 0.509667
H -3.506604 -1.690870 1.281569
5
Structure 3838 | Energy: -10.835139 Hartree
N -3.535059 -0.959093 0.556292
N -3.254539 -0.640025 1.568360
O -2.937472 0.861809 -2.713599
H -2.176553 0.968700 -3.287264
H -3.010805 -0.075994 -2.515362
5
Structure 3839 | Energy: -10.835134 Hartree
N -0.097370 3.369262 -2.628096
N 0.331401 3.874990 -1.753356
O -2.937472 0.861809 -2.713599
H -2.176553 0.968700 -3.287264
H -3.010805 -0.075994 -2.515362
5
Structure 3840 | Energy: -10.835136 Hartree
N -0.097370 3.369262 -2.628096
N 0.331401 3.874990 -1.753356
O -2.938826 0.861191 -2.714797
H -2.163310 0.980022 -3.266131
H -3.002562 -0.077506 -2.517474
5
Structure 3841 | Energy: -10.835083 Hartree
N -0.041431 3.421338 -2.654046
N 0.387340 3.927066 -1.779306
O -2.959661 0.869523 -2.703143
H -2.184145 0.988353 -3.254477
H -3.023397 -0.069174 -2.505820
5
Structure 3842 | Energy: -10.835085 Hartree
N -0.050354 3.418723 -2.648020
N 0.396263 3.929682 -1.785333
O -2.959661 0.869523 -2.703143
H -2.184145 0.988353 -3.254477
H -3.023397 -0.069174 -2.505820
5
Structure 3843 | Energy: -10.834787 Hartree
N -0.050354 3.418723 -2.648020
N 0.396263 3.929682 -1.785333
O -2.599512 -0.011933 -2.311287
H -1.823995 0.106897 -2.862621
H -2.663247 -0.950630 -2.113964
5
Structure 3844 | Energy: -10.834790 Hartree
N 0.089903 3.306464 -2.711635
N 0.572805 3.802363 -1.859775
O -2.599512 -0.011933 -2.311287
H -1.823995 0.106897 -2.862621
H -2.663247 -0.950630 -2.113964
5
Structure 3845 | Energy: -10.834797 Hartree
N 0.089903 3.306464 -2.711635
N 0.572805 3.802363 -1.859775
O -2.599157 -0.012456 -2.309458
H -1.824985 0.121941 -2.859104
H -2.667892 -0.957378 -2.146522
5
Structure 3846 | Energy: -10.834784 Hartree
N 0.089903 3.306464 -2.711635
N 0.572805 3.802363 -1.859775
O -2.622409 -0.041507 -2.309823
H -1.848237 0.092889 -2.859469
H -2.691144 -0.986430 -2.146888
5
Structure 3847 | Energy: -10.834812 Hartree
N 0.039235 3.243157 -2.712430
N 0.522137 3.739056 -1.860571
O -2.622409 -0.041507 -2.309823
H -1.848237 0.092889 -2.859469
H -2.691144 -0.986430 -2.146888
5
Structure 3848 | Energy: -10.834823 Hartree
N 0.039235 3.243157 -2.712430
N 0.522137 3.739056 -1.860571
O -2.863818 0.190530 -1.931328
H -2.124847 0.241875 -2.540262
H -2.988388 -0.738475 -1.717823
5
Structure 3849 | Energy: -10.834854 Hartree
N 0.039235 3.243157 -2.712430
N 0.522137 3.739056 -1.860571
O -2.845491 0.161020 -2.073420
H -2.131418 0.263878 -2.705113
H -2.960980 -0.782594 -1.930568
5
Structure 3850 | Energy: -10.834830 Hartree
N -0.027920 3.311737 -2.665269
N 0.492155 3.762755 -1.810354
O -2.845491 0.161020 -2.073420
H -2.131418 0.263878 -2.705113
H -2.960980 -0.782594 -1.930568
5
Structure 3851 | Energy: -10.834836 Hartree
N -0.072681 3.324628 -2.795954
N 0.440333 3.817751 -1.960238
O -2.845491 0.161020 -2.073420
H -2.131418 0.263878 -2.705113
H -2.960980 -0.782594 -1.930568
5
Structure 3852 | Energy: -10.834884 Hartree
N -0.072681 3.324628 -2.795954
N 0.440333 3.817751 -1.960238
O -2.935404 0.229389 -2.337873
H -2.240166 0.382580 -2.980285
H -3.074545 -0.720855 -2.295128
5
Structure 3853 | Energy: -10.834673 Hartree
N -0.236909 3.514724 -2.725928
N 0.604562 3.627656 -2.030264
O -2.935404 0.229389 -2.337873
H -2.240166 0.382580 -2.980285
H -3.074545 -0.720855 -2.295128
5
Structure 3854 | Energy: -10.834682 Hartree
N -0.262110 3.487089 -2.725874
N 0.579361 3.600022 -2.030210
O -2.935404 0.229389 -2.337873
H -2.240166 0.382580 -2.980285
H -3.074545 -0.720855 -2.295128
5
Structure 3855 | Energy: -10.834683 Hartree
N -0.207377 3.433723 -2.799237
N 0.644569 3.539798 -2.115343
O -2.935404 0.229389 -2.337873
H -2.240166 0.382580 -2.980285
H -3.074545 -0.720855 -2.295128
