9
Structure 1 | Energy: -15.222243 Hartree
O -2.406477 1.091437 0.049291
H -2.938370 1.463924 0.755284
H -1.511664 1.004029 0.383610
O -0.960853 -1.425488 -1.382881
H -0.701692 -1.824522 -2.215766
H -1.613679 -0.751446 -1.581814
O 0.488611 0.387809 0.837237
H 1.316879 -0.015159 1.104970
H 0.518671 0.492589 -0.115763
9
Structure 2 | Energy: -15.222161 Hartree
O 1.159329 -0.291369 0.752278
H 0.788213 -0.990138 0.209989
H 1.567946 -0.708877 1.513079
O 0.340051 2.187841 -1.345097
H 0.622520 1.928937 -0.465740
H 0.366052 3.146021 -1.381183
O 0.178633 -2.129307 -1.833543
H -0.080421 -1.226799 -2.029662
H -0.464759 -2.706326 -2.249699
9
Structure 3 | Energy: -15.222141 Hartree
O 0.784360 0.776182 -2.337702
H 0.542922 -0.051679 -2.757745
H 0.020871 1.075517 -1.840126
O 0.315337 -0.953686 1.175974
H 0.792728 -1.771114 1.021062
H 0.937183 -0.328861 1.554113
O -1.912199 0.640513 -0.737679
H -1.701717 0.078358 0.010499
H -2.359739 0.093983 -1.386603
9
Structure 4 | Energy: -15.221546 Hartree
O -1.220606 0.268709 2.067589
H -1.151474 0.383126 1.117741
H -1.817712 -0.465842 2.222510
O 0.159083 -1.057026 -0.294940
H 0.430148 -0.721768 0.561923
H 0.913339 -0.978355 -0.882305
O 0.650078 2.049912 0.419050
H 0.150450 2.139403 -0.394863
H 0.186857 2.550874 1.093256
9
Structure 5 | Energy: -15.221508 Hartree
O 1.003599 -0.158657 -2.750856
H 1.364959 -0.899927 -2.260938
H 0.048332 -0.210702 -2.681170
O 0.611824 0.387846 1.059217
H 0.876615 0.562453 0.153962
H 1.272763 0.784582 1.630049
O -0.473501 -2.090802 -0.401640
H -0.646318 -1.402120 0.243296
H -1.262027 -2.179643 -0.940550
9
Structure 6 | Energy: -15.221400 Hartree
O -2.028502 -0.538256 2.032721
H -2.646512 -1.010991 1.471769
H -1.805529 0.279499 1.583655
O 0.205560 1.564525 -0.791119
H 0.337833 0.616206 -0.733807
H 1.063568 1.961745 -0.952756
O 1.107012 -1.484416 0.133477
H 1.787801 -2.160089 0.124347
H 0.350287 -1.849856 0.595982
9
Structure 7 | Energy: -15.221199 Hartree
O 0.874922 -1.109978 0.055850
H 0.048991 -1.543806 0.278816
H 0.659493 -0.354995 -0.495233
O 0.766030 0.977088 -2.327166
H 0.363247 1.466196 -3.047324
H 1.536198 0.529811 -2.683356
O -1.558546 -0.342586 1.782505
H -0.862971 0.203394 2.154222
H -1.850040 -0.940688 2.473443
9
Structure 8 | Energy: -15.221098 Hartree
O 1.682305 -0.277533 -1.211728
H 2.337564 -0.976618 -1.167028
H 0.858847 -0.677888 -1.497615
O 1.338541 1.710992 1.331524
H 2.246531 1.609608 1.623694
H 1.235466 1.184266 0.536525
O -1.477380 -2.247889 -0.121939
H -2.397405 -2.178668 -0.384339
H -1.318101 -1.569281 0.537008
9
Structure 9 | Energy: -15.221086 Hartree
O 0.256464 -1.163536 -1.296458
H -0.276547 -1.958916 -1.354358
H -0.347392 -0.420699 -1.236027
O -2.048678 1.270669 0.485463
H -1.920341 0.388223 0.838886
H -1.655027 1.885761 1.107386
O 0.900755 1.312221 1.608869
H 1.144686 0.690803 0.920081
H 1.290118 2.158208 1.379104
9
Structure 10 | Energy: -15.221078 Hartree
O 2.485400 -0.280204 -0.135965
H 1.549726 -0.319038 -0.343543
H 2.708936 -1.093308 0.321193
O -1.115497 1.335597 0.492033
H -1.136634 1.249830 -0.463104
H -0.194027 1.396294 0.751452
O -0.061855 -0.835768 -1.776358
H 0.666316 -1.036199 -2.367700
H -0.870874 -1.085472 -2.227165
9
Structure 11 | Energy: -15.221005 Hartree
O -0.484067 0.028910 0.325675
H -0.741227 0.542934 -0.442264
H 0.221841 -0.559310 0.050375
O 2.214932 -1.387105 -0.217609
H 2.707573 -2.209672 -0.245492
H 2.693166 -0.751286 -0.753439
O -0.323727 -1.482756 -2.260206
H -1.031812 -1.865814 -2.781717
H -0.217198 -2.030531 -1.480024
9
Structure 12 | Energy: -15.220795 Hartree
O -0.049759 2.212373 -0.946890
H 0.082290 2.531219 -0.051914
H -0.503862 2.904828 -1.431035
O 0.156963 -2.308045 0.008935
H 0.198173 -1.752904 0.790094
H 0.613108 -1.842454 -0.694801
O 2.177604 -0.146082 -1.794675
H 1.344925 0.329875 -1.808882
H 2.853286 0.453930 -2.116437
9
Structure 13 | Energy: -15.220408 Hartree
O 0.566489 -2.824679 -0.061474
H 0.964709 -1.955377 0.014789
H -0.365267 -2.694860 -0.248764
O -1.969792 0.281732 0.660615
H -1.530692 -0.567597 0.583672
H -1.552631 0.752603 1.384732
O -0.255380 -0.107818 -1.561972
H 0.276801 0.476535 -2.105485
H -0.968896 0.417494 -1.194504
9
Structure 14 | Energy: -15.220349 Hartree
O 0.463112 -0.948363 -1.064863
H -0.219293 -0.948510 -0.390767
H 1.219759 -0.482917 -0.702997
O -2.364978 0.075919 1.387842
H -1.932687 0.712451 0.815094
H -1.675124 -0.421791 1.831097
O -0.754261 1.757298 -1.354278
H -0.572188 1.065710 -1.993533
H -1.256191 2.437767 -1.807177
9
Structure 15 | Energy: -15.220291 Hartree
O -2.003489 -1.206630 0.185372
H -2.417532 -1.594128 -0.588253
H -1.198329 -0.776263 -0.108908
O -0.083287 1.078629 -0.312723
H 0.825979 0.996249 -0.018550
H -0.093438 0.905294 -1.256089
O -0.745221 0.062789 2.709606
H -1.038682 -0.802067 3.002859
H -1.323299 0.330887 1.992641
9
Structure 16 | Energy: -15.220280 Hartree
O -1.587515 0.662839 -1.837304
H -1.096698 -0.091827 -2.168453
H -0.952550 1.263433 -1.442075
O 0.349260 -0.690161 1.208421
H 0.372871 -0.351412 2.105517
H -0.468361 -1.182405 1.112097
O 1.581509 1.339508 -0.722156
H 2.061039 1.905706 -0.114240
H 1.878543 0.440652 -0.567497
9
Structure 17 | Energy: -15.220148 Hartree
O 1.559245 -1.616131 -0.389546
H 1.121879 -0.866854 -0.798663
H 2.419795 -1.314798 -0.091632
O -0.213941 1.819730 1.567650
H -0.307690 2.186998 2.448794
H -0.483038 0.900159 1.613088
O -0.769740 0.417490 -1.481511
H -0.749272 1.342455 -1.228307
H -1.644172 0.084476 -1.270417
9
Structure 18 | Energy: -15.220062 Hartree
O 1.028918 -0.862703 -0.075566
H 0.777718 -0.637320 -0.973442
H 0.766278 -1.773254 0.072815
O -2.030583 1.777418 0.924506
H -1.819195 0.906335 1.266000
H -1.201585 2.245653 0.807864
O -1.325426 -0.997952 -1.801417
H -1.288216 -0.118233 -1.420890
H -2.152453 -1.394298 -1.520300
9
Structure 19 | Energy: -15.220050 Hartree
O -1.438331 -0.182596 2.398539
H -1.784665 -1.002384 2.756426
H -0.660885 -0.404088 1.882186
O 0.525775 1.602614 -0.486549
H 0.333195 2.517563 -0.272376
H 0.236038 1.069871 0.256637
O 0.626145 -1.957390 0.111883
H 0.490559 -1.855981 -0.832269
H 1.547649 -2.189036 0.243261
9
Structure 20 | Energy: -15.219943 Hartree
O -0.423041 -0.733877 0.838146
H -0.378302 -1.672988 0.648012
H -1.229267 -0.401289 0.438790
O -0.648100 2.011817 -0.894929
H -0.387780 2.567178 -0.157435
H -0.248283 2.382076 -1.684322
O 2.597745 -0.843905 1.055943
H 2.493748 -0.254540 0.306326
H 1.756714 -0.868811 1.516525
9
Structure 21 | Energy: -15.219863 Hartree
O 2.440713 -0.508343 0.516654
H 2.247720 0.106848 1.226848
H 1.657708 -1.046990 0.386802
O -0.601197 1.396310 -0.579780
H -0.343276 2.296281 -0.788628
H 0.181451 0.943595 -0.259470
O -1.188271 -0.152912 1.497274
H -1.814716 -0.443066 2.163208
H -1.686229 0.023960 0.696747
9
Structure 22 | Energy: -15.219848 Hartree
O 1.404080 -2.062115 1.048607
H 2.342807 -1.898062 1.157963
H 1.148687 -2.704753 1.713355
O -0.364012 0.159744 -1.321751
H -0.469352 0.992210 -0.857003
H -0.586491 -0.540173 -0.704736
O 2.522565 0.074953 -0.563131
H 2.791351 0.422929 -1.415632
H 2.017917 -0.723808 -0.728664
9
Structure 23 | Energy: -15.219817 Hartree
O -0.335959 -0.451860 2.264582
H -0.035610 -1.344374 2.082124
H -0.800950 -0.474499 3.103254
O 1.412008 0.591219 -0.404898
H 0.755020 0.312303 0.235931
H 2.011576 1.189656 0.045079
O -2.016819 0.185974 -2.077906
H -1.930180 -0.445936 -2.794338
H -1.205665 0.697211 -2.050413
9
Structure 24 | Energy: -15.219794 Hartree
O 2.229890 -0.599237 1.448286
H 1.489207 -0.573135 0.839361
H 2.928775 -0.063024 1.068634
O -0.236787 1.096291 -1.150594
H -0.737190 1.117602 -0.332529
H -0.620678 0.410583 -1.700613
O -0.866801 -1.963961 0.135815
H -0.058969 -2.469470 0.245182
H -1.595438 -2.587759 0.143186
9
Structure 25 | Energy: -15.219779 Hartree
O 1.677396 -0.587673 2.097780
H 1.887460 0.303792 2.382817
H 1.938397 -1.180923 2.804909
O 0.580111 0.714251 -1.972550
H 1.049062 0.447041 -1.179598
H 0.038826 -0.028777 -2.246428
O -0.306256 -0.999084 0.207719
H -0.196139 -1.836508 0.662346
H -0.194093 -0.304828 0.860036
9
Structure 26 | Energy: -15.219765 Hartree
O 2.331867 -0.545022 0.563584
H 2.733099 0.075282 1.175398
H 2.295395 -1.395930 1.004861
O -1.275504 0.168537 -0.427041
H -0.661854 -0.545342 -0.611158
H -1.180673 0.813256 -1.130911
O 1.227737 2.004519 -1.533926
H 1.779565 1.464685 -0.964579
H 0.954119 2.768674 -1.022760
9
Structure 27 | Energy: -15.219601 Hartree
O 0.316703 -1.700722 0.447999
H 0.730675 -1.272125 1.199673
H -0.622520 -1.511629 0.494949
O 2.369683 0.281597 -1.213699
H 1.861501 -0.317815 -1.763740
H 1.761486 0.674410 -0.584506
O -1.675329 -0.463721 2.039623
H -1.905421 -1.041971 2.769538
H -2.477833 -0.012037 1.771184
9
Structure 28 | Energy: -15.219540 Hartree
O 1.171793 2.276656 0.134791
H 1.854844 2.899864 0.390008
H 1.244852 2.147456 -0.812875
O 0.383271 -0.298343 -0.775563
H 0.775113 0.188533 -0.047895
H -0.361463 0.216051 -1.093142
O -0.545270 0.445769 1.843072
H -1.414486 0.510852 1.442674
H -0.169373 1.328225 1.850994
9
Structure 29 | Energy: -15.219539 Hartree
O -0.102029 1.108116 0.692704
H -0.209239 0.718529 1.562652
H -0.443563 2.003312 0.738298
O -1.314262 -1.286268 -1.805504
H -1.264822 -2.044284 -1.219795
H -0.584388 -0.705768 -1.581024
O 1.675769 -1.108133 -0.736142
H 2.246685 -1.438498 -1.432565
H 1.834793 -0.165114 -0.661872
9
Structure 30 | Energy: -15.219473 Hartree
O 0.070673 1.187492 1.444856
H 0.625352 0.773752 2.109109
H -0.019204 2.111708 1.685369
O 1.166154 -0.270267 -2.049396
H 1.353963 0.378864 -1.368628
H 1.064652 -1.118373 -1.612932
O -2.703015 1.016382 0.556674
H -3.077033 0.210075 0.196021
H -1.748591 0.930575 0.514225
9
Structure 31 | Energy: -15.219429 Hartree
O 1.713128 -0.149223 2.346265
H 1.230141 -0.578196 3.055340
H 1.539706 -0.645253 1.543782
O 1.750704 0.885416 -0.306480
H 1.071594 1.559600 -0.372621
H 2.534202 1.305803 0.053375
O -1.150823 -1.068549 0.934828
H -0.865373 -0.251259 0.521735
H -1.602832 -1.583395 0.263477
9
Structure 32 | Energy: -15.219419 Hartree
O -0.097442 -1.201631 0.936148
H 0.384110 -2.026753 1.021960
H -0.446408 -1.167924 0.043295
O -1.701585 0.073943 -1.559401
H -1.927503 0.128542 -2.490029
H -2.484196 0.319746 -1.062220
O 1.338751 1.654140 -0.170252
H 1.883980 0.952150 0.190339
H 0.736793 1.251623 -0.799312
9
Structure 33 | Energy: -15.219409 Hartree
O 0.112746 1.817127 -2.141235
H -0.008709 1.636739 -1.207003
H 0.953964 2.268110 -2.236452
O 0.188643 -0.213344 1.060526
H 0.215018 -1.150953 1.261234
H -0.627654 -0.047533 0.584865
O 2.375108 -0.352587 -1.186111
H 2.098421 -0.589586 -2.073448
H 1.579994 -0.195679 -0.673018
9
Structure 34 | Energy: -15.219368 Hartree
O 0.150840 -0.657656 2.130155
H 1.073529 -0.396026 2.146815
H 0.100704 -1.492369 1.660218
O -1.794189 1.457244 -1.827314
H -1.070982 1.343903 -1.207463
H -2.550776 0.988301 -1.469883
O -2.274589 -0.061594 0.425429
H -3.077334 0.461963 0.465184
H -2.021419 -0.262428 1.328569
9
Structure 35 | Energy: -15.219353 Hartree
O 0.079496 -1.851797 0.424832
H -0.279285 -1.497969 1.241020
H -0.600819 -2.400704 0.029897
O 0.254918 2.778878 -0.790650
H -0.692339 2.806986 -0.642321
H 0.677273 3.098228 0.009175
O -1.410276 0.615393 -0.921762
H -0.845116 0.093815 -0.348488
H -1.075813 0.517915 -1.815475
9
Structure 36 | Energy: -15.219321 Hartree
O -1.563345 2.216581 0.477550
H -2.237166 2.480761 -0.151938
H -1.473127 2.929439 1.112999
O -0.891858 -0.595785 -1.663756
H -0.910167 0.241158 -1.195483
H -0.116176 -1.072915 -1.362505
O 0.267478 0.366587 1.566107
H 0.074786 -0.385603 2.129286
H -0.414634 1.022131 1.724459
9
Structure 37 | Energy: -15.219319 Hartree
O 1.607365 1.351941 -0.723678
H 2.389205 1.375795 -1.278871
H 1.126716 0.551648 -0.944149
O -0.956846 1.250051 -1.811261
H -0.493882 1.920080 -1.304493
H -1.866589 1.540369 -1.901653
O -0.268695 -0.664754 1.472629
H 0.460324 -0.144030 1.815365
H -1.079380 -0.261267 1.788981
9
Structure 38 | Energy: -15.219297 Hartree
O 2.476985 1.144166 -0.365992
H 2.081119 0.393230 -0.812610
H 1.972046 1.296707 0.435174
O -0.703851 -1.916620 0.507089
H -0.660995 -1.262211 -0.192912
H -0.973971 -2.744802 0.105544
O -0.370266 -0.314398 -2.340585
H 0.182337 0.393664 -2.003880
H -0.353060 -0.257388 -3.297948
9
Structure 39 | Energy: -15.219291 Hartree
O -0.742604 1.644651 -2.005035
H -1.626240 1.887666 -1.721814
H -0.232799 1.456051 -1.214700
O 1.365847 -0.185777 0.492593
H 0.936294 -1.042823 0.460268
H 2.132210 -0.230275 -0.082556
O -1.880296 -0.629330 1.379412
H -2.446121 -0.165599 1.999805
H -1.107780 -0.079658 1.233913
9
Structure 40 | Energy: -15.219219 Hartree
O -1.056571 -1.328726 0.180494
H -1.659768 -1.761624 0.787810
H -1.097347 -0.387735 0.362081
O -0.991509 1.706003 -1.695798
H -1.359542 1.622972 -2.577697
H -0.105026 1.340588 -1.722388
O 1.107182 -1.622983 2.115601
H 1.795776 -2.194036 2.461763
H 0.996780 -1.841207 1.188088
9
Structure 41 | Energy: -15.219161 Hartree
O -0.106466 -1.295376 0.735194
H -0.000840 -1.745746 -0.105099
H 0.756807 -1.266207 1.152339
O 1.411638 1.315539 -2.017826
H 1.310873 1.981332 -1.334704
H 0.538151 0.966142 -2.204988
O -1.306070 1.492484 -0.094566
H -0.440384 1.096251 -0.211524
H -1.645723 1.188908 0.749571
9
Structure 42 | Energy: -15.219152 Hartree
O -1.559202 0.568271 1.055914
H -1.548863 0.238441 1.956573
H -1.861096 -0.148423 0.494390
O -1.005928 -1.140484 -1.789624
H -1.488403 -1.741059 -2.361127
H -0.869330 -0.328430 -2.281555
O 1.607546 1.958801 1.288498
H 2.076080 1.173706 0.998338
H 0.698956 1.701434 1.456776
9
Structure 43 | Energy: -15.219151 Hartree
O -1.488802 -0.236817 1.126378
H -0.553251 -0.087851 0.975931
H -1.947612 0.569588 0.882852
O 2.162679 0.498410 -0.851440
H 2.867514 0.597185 -0.208370
H 2.400197 -0.234472 -1.422893
O 1.097836 -2.127481 1.293000
H 0.172414 -2.176431 1.540568
H 1.606278 -2.069998 2.104340
9
Structure 44 | Energy: -15.219115 Hartree
O 0.742476 -1.326430 0.958209
H 1.217509 -0.757116 0.349681
H 0.916156 -1.002802 1.844324
O 1.428521 0.977593 -1.994764
H 1.441721 0.403256 -2.762912
H 1.140255 1.842848 -2.291958
O -2.037249 -1.662004 0.293832
H -1.894394 -2.610430 0.306907
H -1.464580 -1.279252 0.961396
9
Structure 45 | Energy: -15.219106 Hartree
O 1.199208 -0.129967 -1.146693
H 0.688518 -0.827918 -0.731792
H 0.613296 0.329779 -1.751211
O 1.183852 0.927213 2.177693
H 0.979993 -0.001033 2.307648
H 1.658462 1.000255 1.347332
O -1.111136 -2.365252 -1.208490
H -0.752630 -2.026043 -2.030987
H -2.041104 -2.547015 -1.357524
9
Structure 46 | Energy: -15.219003 Hartree
O -1.298116 1.054198 2.022797
H -2.195885 0.718338 1.986868
H -1.239711 1.776578 1.394422
O 0.712688 -2.057466 -0.693246
H 0.250308 -1.575362 -1.381627
H 0.411168 -2.967228 -0.732061
O 1.644335 0.660328 0.406717
H 2.192511 -0.122434 0.323785
H 0.841394 0.397964 0.861186
9
Structure 47 | Energy: -15.218948 Hartree
O -1.171596 -2.062139 -0.224750
H -1.695563 -1.524427 -0.821748
H -0.421443 -2.391668 -0.723531
O 0.561831 0.313609 1.768482
H -0.222893 -0.231066 1.855802
H 1.314606 -0.278752 1.718230
O -2.083746 1.669476 1.128742
H -2.380350 0.759169 1.187550
H -1.305770 1.751175 1.683871
9
Structure 48 | Energy: -15.218930 Hartree
O 0.263798 0.518172 -0.788418
H 0.577101 0.673162 0.104836
H 0.776015 -0.209314 -1.146884
O -1.273549 -0.362338 2.144159
H -0.872959 0.185013 1.465909
H -2.128439 0.020823 2.350170
O -2.856434 0.221124 -0.486125
H -2.715794 0.385187 -1.420681
H -2.443016 -0.619505 -0.279928
9
Structure 49 | Energy: -15.218927 Hartree
O 1.318990 0.486406 -1.326224
H 2.104673 -0.056801 -1.238419
H 0.807704 0.378524 -0.521831
O 2.217433 -0.235973 1.679484
H 2.982250 -0.543230 2.170134
H 1.540081 -0.011594 2.320526
O -1.131073 -1.308486 0.541724
H -0.561288 -1.265390 -0.228717
H -1.774766 -0.602172 0.458846
9
Structure 50 | Energy: -15.218916 Hartree
O 1.010783 0.453851 2.608996
H 1.627277 -0.181337 2.239466
H 0.324764 0.597914 1.954226
O 1.898961 -0.488091 -0.653370
H 2.631259 0.130391 -0.617209
H 1.716971 -0.658998 -1.579522
O -0.968333 -1.387551 -1.692558
H -0.656782 -0.674965 -1.131087
H -1.594348 -1.901283 -1.178482
9
Structure 51 | Energy: -15.218912 Hartree
O -0.492298 1.151451 -2.440704
H -0.178243 2.039648 -2.260268
H -0.903504 1.166100 -3.307188
O 1.477802 -0.812794 0.658765
H 0.881771 -0.156102 0.293264
H 1.546322 -1.522584 0.017211
O -1.430169 -0.257386 1.982713
H -1.220796 0.469677 2.572318
H -0.642339 -0.799655 1.909510
9
Structure 52 | Energy: -15.218846 Hartree
O 1.179389 0.976024 1.148534
H 1.128243 1.493728 0.342650
H 0.292424 0.925056 1.510192
O -0.619704 -2.685358 -0.478100
H -0.722916 -1.881661 0.035229
H -0.088213 -2.465771 -1.245815
O -2.122653 1.037430 1.020531
H -2.857095 1.387627 0.512547
H -2.487271 0.658041 1.822533
9
Structure 53 | Energy: -15.218754 Hartree
O 0.979948 0.115117 -0.198452
H 1.893575 0.361173 -0.356010
H 0.887526 -0.807169 -0.445326
O -0.668268 -1.943389 1.765299
H -0.082344 -2.604905 2.138364
H -0.412978 -1.096336 2.135997
O -1.074236 0.775880 -2.269568
H -1.956540 0.743658 -1.894611
H -0.498842 1.166191 -1.608758
9
Structure 54 | Energy: -15.218728 Hartree
O -0.421217 1.648841 0.204547
H -0.156278 2.082428 -0.609020
H -1.324443 1.915124 0.387240
O -1.333051 -0.929239 -2.147524
H -1.204382 -1.852852 -1.922867
H -0.553071 -0.642039 -2.626310
O 1.896191 0.029823 1.872367
H 1.362349 0.415125 1.174767
H 1.453804 0.214111 2.703283
9
Structure 55 | Energy: -15.218726 Hartree
O -0.361744 -0.652123 -0.823991
H 0.178968 -1.381996 -1.132208
H -1.278583 -0.907990 -0.942476
O 0.624914 0.176430 2.606905
H 0.423749 1.052574 2.941558
H 0.105109 0.050224 1.810687
O -1.167706 1.925675 0.711671
H -0.914572 1.140568 0.222160
H -0.554934 2.013443 1.444404
9
Structure 56 | Energy: -15.218712 Hartree
O -0.963107 2.118374 0.731940
H -0.746284 2.011655 1.660207
H -0.509299 2.904892 0.422831
O 0.419661 -0.957450 -1.829765
H 0.903359 -1.440796 -1.157083
H -0.334157 -0.549210 -1.399432
O -2.436661 -0.476590 -0.835833
H -2.896096 -1.091734 -1.410818
H -3.061006 0.212453 -0.600244
9
Structure 57 | Energy: -15.218703 Hartree
O -0.248678 1.635653 -0.276213
H -0.664331 0.888994 0.159465
H -0.117012 1.391492 -1.194445
O 1.433457 -1.883558 0.544275
H 0.643270 -1.775387 1.077185
H 2.083640 -2.332451 1.088192
O 1.000120 -0.493464 -1.937839
H 1.419429 -0.110747 -2.711013
H 1.623141 -0.421723 -1.212038
9
Structure 58 | Energy: -15.218703 Hartree
O 0.881882 0.908866 0.046723
H 0.899656 0.165710 0.652929
H 0.206877 1.514425 0.359399
O 1.162569 -2.425512 -0.592022
H 0.455384 -1.887646 -0.953516
H 1.975166 -1.923723 -0.681364
O -2.147087 -1.548826 0.983909
H -1.684862 -1.823706 1.778189
H -2.783697 -2.234911 0.773896
9
Structure 59 | Energy: -15.218631 Hartree
O -2.231700 -1.193832 0.298814
H -2.034131 -1.178472 1.237330
H -1.570517 -1.747144 -0.121643
O 1.085557 0.512065 -1.653596
H 0.845008 1.438471 -1.590374
H 0.579463 0.041163 -0.988609
O 0.538721 -0.284129 1.665038
H 0.893810 -0.499994 2.529564
H 1.258444 0.078365 1.144763
9
Structure 60 | Energy: -15.218622 Hartree
O -1.129873 -1.269457 1.728426
H -1.069732 -1.090528 0.787975
H -0.235730 -1.398815 2.050724
O 0.622944 0.586280 -1.363422
H 1.099550 1.212616 -1.911728
H 0.690189 -0.271350 -1.787730
O 1.476807 -1.489130 0.759686
H 1.800725 -0.806174 0.169145
H 2.094826 -1.549012 1.490821
9
Structure 61 | Energy: -15.218609 Hartree
O -1.504901 -0.730005 1.087846
H -1.138811 -1.359455 0.463465
H -1.260924 0.146412 0.783758
O -1.832239 1.677106 -0.677632
H -1.206940 2.190046 -1.193367
H -2.244293 1.048763 -1.273858
O 2.035615 -1.670384 0.879252
H 1.141666 -1.404308 1.103194
H 2.600907 -1.409279 1.608881
9
Structure 62 | Energy: -15.218604 Hartree
O -0.606901 0.210281 0.279147
H -0.918040 -0.689492 0.396122
H 0.275089 0.256768 0.653356
O 1.357770 -0.372052 -1.655634
H 0.478925 -0.645537 -1.385587
H 1.388424 0.584801 -1.595790
O -0.331502 2.133935 -1.919234
H -0.256410 3.048710 -2.197872
H -0.247917 2.120245 -0.963768
9
Structure 63 | Energy: -15.218514 Hartree
O -2.021601 -0.890323 1.674040
H -1.809449 -1.782094 1.956561
H -1.206234 -0.487365 1.369243
O 0.202543 1.663767 -1.426157
H -0.051932 1.763636 -0.506724
H -0.139181 0.818887 -1.725305
O 0.434225 -1.023273 0.341389
H 0.955475 -0.412121 0.865683
H 1.039272 -1.482936 -0.244032
9
Structure 64 | Energy: -15.218504 Hartree
O -0.250110 0.956663 -2.086428
H 0.550961 1.401589 -1.802865
H -0.094690 0.630812 -2.975116
O 0.473179 -0.686473 1.715773
H 0.793572 0.201944 1.883562
H 0.181959 -0.715613 0.802301
O 2.183019 -1.238993 -1.401165
H 2.722392 -1.828982 -1.931337
H 1.928934 -1.719606 -0.610885
9
Structure 65 | Energy: -15.218466 Hartree
O -1.835822 0.242085 -1.378854
H -0.960824 0.634634 -1.397965
H -1.874570 -0.328162 -0.608518
O -1.393589 -1.113675 2.214722
H -0.445322 -1.115544 2.359202
H -1.706234 -2.007230 2.369322
O 0.641774 2.190308 -0.369497
H 0.202029 2.958742 -0.000410
H 1.044418 2.463228 -1.196227
9
Structure 66 | Energy: -15.218465 Hartree
O -0.923476 2.093637 0.801661
H -1.519320 2.774526 0.483162
H -0.233159 1.989826 0.143796
O -0.986135 -0.506878 -1.447187
H -0.912913 -0.747806 -0.521617
H -0.152155 -0.729546 -1.865499
O 1.863595 -1.814859 -0.454889
H 1.447178 -2.616042 -0.131170
H 2.770565 -1.820024 -0.142688
9
Structure 67 | Energy: -15.218452 Hartree
O -0.341902 -1.030810 -1.210807
H -0.001115 -0.455517 -1.898545
H 0.411581 -1.457713 -0.798355
O 0.528829 2.561213 0.706121
H 0.787024 1.826009 1.265495
H 0.103396 3.210836 1.269225
O -1.905320 -0.768930 1.429825
H -1.759193 -0.343904 0.582422
H -1.319331 -1.527164 1.472113
9
Structure 68 | Energy: -15.218424 Hartree
O -0.414330 -0.334715 1.216793
H -0.545684 -0.475496 0.277107
H -1.240000 0.000251 1.571991
O -2.032514 1.139150 -1.476545
H -2.130861 2.013849 -1.857751
H -1.554359 0.604031 -2.113023
O 2.338918 -0.794508 0.861125
H 1.683921 -0.356523 0.314098
H 2.122323 -0.599224 1.774930
9
Structure 69 | Energy: -15.218414 Hartree
O 0.104872 -1.163653 2.214501
H 0.077701 -1.874125 1.570627
H -0.802891 -0.930374 2.418582
O -1.303410 0.051036 -0.679712
H -0.844141 0.476343 0.047112
H -1.011164 0.476495 -1.488208
O 1.805000 0.264684 -2.194195
H 1.352507 -0.513976 -1.864000
H 2.183246 0.715918 -1.436958
9
Structure 70 | Energy: -15.218384 Hartree
O -2.029890 -0.130420 -1.053779
H -2.348711 -0.289752 -1.944312
H -2.767757 -0.274063 -0.457944
O 1.646840 0.680098 0.745163
H 1.070995 1.428742 0.912565
H 1.567727 0.463498 -0.185919
O -1.127776 1.425660 2.250795
H -0.571839 0.651537 2.142355
H -1.005954 1.739295 3.149061
9
Structure 71 | Energy: -15.218354 Hartree
O 0.238413 -1.046131 -1.628862
H 0.753235 -0.391272 -1.153258
H 0.188059 -0.758941 -2.542693
O 0.910374 1.492556 1.797610
H 1.199279 1.201362 2.664690
H 0.690264 2.423414 1.869330
O -2.505844 -1.382039 -0.317872
H -2.816625 -0.638808 -0.838559
H -1.547351 -1.345095 -0.313932
9
Structure 72 | Energy: -15.218225 Hartree
O 2.260943 1.825184 -0.379038
H 1.580204 1.169593 -0.542980
H 3.095811 1.443480 -0.657240
O 1.806605 -0.902239 1.065661
H 0.914809 -0.597369 1.244106
H 1.903559 -1.758701 1.486567
O 0.181668 -1.949336 -1.614253
H 0.330653 -1.987360 -2.561063
H 1.035972 -1.821685 -1.197168
9
Structure 73 | Energy: -15.218192 Hartree
O -0.631672 -1.041596 -2.661258
H -0.505752 -0.480791 -1.893322
H -0.542222 -1.950232 -2.367186
O 0.073038 1.908573 1.321844
H 0.773160 1.465977 0.838082
H -0.382499 2.481345 0.701758
O -1.059835 -0.617535 0.305025
H -0.647466 -0.304769 1.112627
H -0.813640 -1.538485 0.198590
9
Structure 74 | Energy: -15.218186 Hartree
O -2.403318 -0.343637 -0.096777
H -2.759546 0.544143 -0.025861
H -2.879994 -0.785473 -0.802228
O 0.921747 0.241102 0.070663
H 0.050789 0.125322 0.455520
H 0.917527 -0.201889 -0.780118
O 0.556405 -2.458649 0.773827
H 0.899629 -1.809050 1.390520
H 1.020793 -2.335324 -0.056369
9
Structure 75 | Energy: -15.218182 Hartree
O -2.262865 -0.070966 -0.370385
H -2.840727 0.284387 0.307761
H -2.793494 -0.193815 -1.159968
O -0.301622 0.372845 1.602921
H -0.107388 0.620939 0.696935
H 0.535860 0.312481 2.066676
O 1.241299 -1.035626 -1.039899
H 0.957002 -1.240546 -0.146997
H 0.482696 -1.156554 -1.614345
9
Structure 76 | Energy: -15.218160 Hartree
O -1.614898 1.796427 -0.258694
H -1.245159 2.455217 0.332382
H -2.452826 1.517311 0.115568
O -0.027357 -0.124609 1.123762
H 0.114196 0.684116 0.627762
H 0.836864 -0.476192 1.346471
O 1.038906 0.597940 -1.892160
H 0.672519 1.232596 -1.273239
H 0.311857 0.059206 -2.210368
9
Structure 77 | Energy: -15.218087 Hartree
O -1.472499 -1.084325 1.272052
H -2.411970 -0.895157 1.313200
H -1.136041 -1.048998 2.169630
O 2.522343 0.259824 -1.211789
H 1.765424 -0.020484 -1.730047
H 2.192011 0.543797 -0.357197
O 1.768618 -1.318670 0.960237
H 2.580207 -1.829957 0.959849
H 1.055429 -1.917653 0.730735
9
Structure 78 | Energy: -15.218040 Hartree
O 0.425210 1.572885 0.593983
H 0.971741 1.879799 -0.132096
H 0.885408 1.789544 1.407234
O 0.107663 -2.012191 -1.110446
H -0.051143 -2.873337 -1.501977
H -0.732630 -1.550037 -1.090202
O 1.486832 -0.623958 1.633673
H 1.764915 -1.400865 2.122730
H 1.083709 -0.930365 0.818998
9
Structure 79 | Energy: -15.218001 Hartree
O 0.879487 -1.694198 -0.516131
H 1.295995 -1.410616 0.300070
H 1.453528 -1.425691 -1.236188
O 2.280443 1.107598 0.989144
H 2.589981 1.280963 1.880333
H 1.389532 1.457214 0.924842
O 0.068174 0.624047 -1.441015
H 0.663139 0.833140 -2.163779
H -0.251640 -0.268657 -1.585545
9
Structure 80 | Energy: -15.217964 Hartree
O 1.104849 0.518291 -0.419275
H 1.477278 -0.352523 -0.571136
H 1.827849 1.147390 -0.459353
O 0.328507 -0.387702 2.717134
H 0.548927 0.309515 3.337933
H -0.470939 -0.810465 3.036893
O -1.569999 0.617150 -1.701087
H -0.855819 0.689910 -1.064891
H -1.173590 0.418393 -2.551643
9
Structure 81 | Energy: -15.217939 Hartree
O -1.954174 -0.474462 1.667033
H -2.498178 -0.633149 0.893108
H -1.078950 -0.236240 1.355051
O 0.695259 0.127635 -0.727320
H 0.628389 -0.607879 -0.115245
H -0.195084 0.447827 -0.884974
O -1.954443 1.794197 -0.440994
H -1.635475 1.912939 0.455807
H -2.894599 1.611971 -0.386308
9
Structure 82 | Energy: -15.217933 Hartree
O -0.268468 -1.322691 1.207131
H -1.143812 -0.962070 1.052835
H 0.022640 -1.004982 2.064112
O -1.675731 0.929024 -1.872530
H -2.184733 0.116037 -1.880009
H -1.249733 1.005327 -2.728562
O 1.790636 0.202566 -0.667897
H 1.299905 -0.382514 -0.087418
H 2.238230 0.843883 -0.112503
9
Structure 83 | Energy: -15.217923 Hartree
O 0.239945 0.442985 -2.207456
H -0.642997 0.763708 -2.401448
H 0.191163 -0.040727 -1.380568
O 1.854476 -2.256375 0.102905
H 0.994841 -1.839866 0.015515
H 2.450593 -1.602499 0.473281
O -0.727727 -0.734246 0.762900
H -1.011807 -1.419377 0.154635
H -0.731389 -1.116195 1.642781
9
Structure 84 | Energy: -15.217889 Hartree
O 1.237063 0.782951 2.363809
H 0.635471 1.051680 3.060913
H 1.899408 0.215627 2.763237
O -0.263733 -0.267334 -1.068328
H -0.223188 0.062756 -1.968043
H -1.153432 -0.596529 -0.926364
O -1.938745 0.527039 1.114961
H -1.800133 -0.389766 1.360617
H -1.138625 0.828765 0.680382
9
Structure 85 | Energy: -15.217859 Hartree
O 0.373167 1.198376 0.990430
H 1.021438 0.517283 0.800858
H -0.493650 0.795049 0.912608
O 1.845111 -0.856252 -1.764288
H 2.266403 -1.522479 -1.217715
H 2.173073 -0.002540 -1.474970
O -1.507528 -0.881094 -0.635985
H -2.180111 -0.687104 -1.291799
H -0.758002 -0.311754 -0.820788
9
Structure 86 | Energy: -15.217833 Hartree
O -2.230358 -1.222295 -0.782910
H -2.499513 -0.384804 -1.165332
H -1.796901 -1.724651 -1.475624
O 1.663440 0.183689 1.630327
H 1.511345 1.061802 1.275542
H 1.663722 -0.425804 0.889647
O 0.687187 -0.005957 -1.319216
H 1.206349 -0.786105 -1.523986
H 0.054785 -0.255180 -0.642425
9
Structure 87 | Energy: -15.217827 Hartree
O -2.430442 0.176186 -1.113199
H -1.593529 0.487796 -1.463279
H -2.637987 0.717633 -0.349091
O 1.192838 -1.515655 1.034729
H 1.162636 -2.437019 0.769653
H 0.378129 -1.328586 1.505200
O 2.015732 -0.346460 -1.750458
H 2.937664 -0.584932 -1.635286
H 1.501754 -0.909984 -1.168774
9
Structure 88 | Energy: -15.217816 Hartree
O 1.018971 -0.076944 2.702560
H 0.423562 -0.581835 2.145195
H 0.581883 0.751945 2.907494
O -0.247493 1.331847 -0.424481
H -0.446496 2.067450 -1.007040
H 0.546755 1.561477 0.061861
O -1.010800 -1.644226 0.878004
H -1.088606 -2.575608 1.093796
H -1.871118 -1.245967 1.024063
9
Structure 89 | Energy: -15.217795 Hartree
O -2.279152 0.571914 -0.848868
H -2.373030 0.002563 -0.082638
H -1.548130 0.231174 -1.368100
O 0.684668 -1.767369 0.466904
H 1.253536 -1.947979 -0.284001
H 1.135198 -2.091829 1.249103
O 0.633356 -0.258886 -2.587842
H 1.544381 -0.229136 -2.886573
H 0.324702 0.647256 -2.526780
9
Structure 90 | Energy: -15.217766 Hartree
O -2.527535 0.221093 0.035417
H -3.032700 -0.070730 -0.725982
H -3.131900 0.260204 0.779267
O -0.167085 -2.013306 -1.003781
H -0.560192 -2.703188 -0.465619
H 0.655817 -1.758268 -0.582028
O 1.426607 0.536092 0.917189
H 0.632294 0.457628 0.385211
H 1.225021 1.130252 1.642741
9
Structure 91 | Energy: -15.217741 Hartree
O -0.770063 0.146139 0.982349
H -1.388645 -0.045978 0.274868
H 0.092972 0.264463 0.580764
O 0.414596 -0.958822 -2.151875
H 0.943470 -0.879032 -1.355625
H -0.092372 -0.149147 -2.238464
O 2.456145 1.294137 0.378980
H 2.835881 2.130814 0.103549
H 3.098301 0.864041 0.947085
9
Structure 92 | Energy: -15.217739 Hartree
O 1.001201 0.656915 1.621278
H 0.499151 1.437018 1.865134
H 0.376242 0.008945 1.290127
O 2.253031 -0.818599 -0.961315
H 1.733423 -0.026572 -1.112271
H 1.741953 -1.387556 -0.382372
O -0.984203 -1.087162 -0.931332
H -0.476354 -0.920298 -1.727784
H -1.059132 -2.038716 -0.836358
9
Structure 93 | Energy: -15.217725 Hartree
O -2.446090 -1.267212 0.194965
H -2.114691 -1.021024 -0.670857
H -3.360788 -1.533785 0.083764
O -0.778209 0.834612 -0.054418
H -0.977361 0.506572 0.824681
H 0.176558 0.891955 -0.126662
O 0.707913 -1.015322 1.633497
H -0.186112 -1.340493 1.756278
H 0.722723 -0.104568 1.934159
9
Structure 94 | Energy: -15.217714 Hartree
O -0.566929 -1.405369 2.187912
H -0.619914 -1.535388 1.239034
H -0.668629 -0.465777 2.352000
O -1.339128 0.931044 -0.782312
H -0.753899 0.350173 -1.272398
H -1.056341 1.831118 -0.955481
O 2.274804 0.211511 0.855850
H 3.047778 0.260556 1.421709
H 1.988306 -0.703853 0.845024
9
Structure 95 | Energy: -15.217703 Hartree
O -1.099499 -0.171725 0.071611
H -1.717209 0.113784 0.747630
H -0.287706 -0.423083 0.516483
O 2.243873 0.159029 -1.040016
H 2.554957 -0.180190 -1.881589
H 1.543739 0.787105 -1.228223
O -0.423554 -1.633083 -2.271800
H -0.345501 -1.471331 -1.329550
H -0.119886 -2.528676 -2.432387
9
Structure 96 | Energy: -15.217690 Hartree
O -2.086187 -1.723411 -0.280303
H -2.365017 -2.036511 0.582428
H -1.256429 -1.257712 -0.158949
O 0.571710 0.701480 0.315703
H 1.394985 1.026919 -0.053614
H 0.315689 1.305784 1.015245
O 1.908498 -2.168807 0.479411
H 1.114476 -1.896424 0.015269
H 1.666697 -2.900312 1.050832
9
Structure 97 | Energy: -15.217633 Hartree
O -0.230242 -2.722774 -0.934427
H 0.482195 -2.645523 -0.296817
H 0.108523 -3.222643 -1.679726
O 0.456845 0.916196 1.004809
H 0.596595 1.838631 0.781936
H -0.489716 0.783849 1.086025
O 1.865772 0.218109 -1.741063
H 2.311459 1.067322 -1.724032
H 1.703730 -0.035967 -0.830416
9
Structure 98 | Energy: -15.217620 Hartree
O -0.901106 -0.475212 -0.378321
H -1.147913 -1.310812 0.022854
H -1.372648 -0.409651 -1.211057
O 2.435273 1.394626 0.648318
H 2.105252 1.907274 -0.092200
H 2.798105 2.014740 1.283849
O 1.927879 -1.199353 1.524812
H 2.340865 -1.003331 0.681540
H 1.572769 -0.375960 1.865417
9
Structure 99 | Energy: -15.217618 Hartree
O -1.348656 0.686906 -1.143727
H -0.748158 0.264170 -1.760799
H -0.980973 1.547687 -0.934049
O 0.642047 -1.755565 1.862218
H 0.613113 -2.559548 1.339855
H 0.707753 -1.020741 1.249189
O 1.458990 1.901066 -1.115346
H 1.631667 1.658383 -0.203546
H 2.072309 2.602346 -1.343677
9
Structure 100 | Energy: -15.217601 Hartree
O 1.012642 0.790512 1.872660
H 1.462878 0.357265 1.144878
H 1.632349 0.835887 2.603417
O -0.019803 -1.041740 -2.192957
H 0.077968 -0.545068 -1.378189
H -0.695126 -0.602813 -2.713890
O -1.229113 2.390822 0.813363
H -1.010008 2.779469 1.662503
H -0.549170 1.744654 0.612780
9
Structure 101 | Energy: -15.217594 Hartree
O -0.786632 2.026209 1.164465
H -0.931217 2.793576 0.607397
H -0.013378 1.570840 0.825619
O 0.457526 -1.287256 -0.422162
H 1.225373 -1.836788 -0.253300
H -0.027781 -1.216248 0.402169
O 0.339296 -0.013268 2.842918
H 0.166251 0.186236 3.765060
H -0.489132 -0.300824 2.454191
9
Structure 102 | Energy: -15.217582 Hartree
O -1.985815 0.395020 -1.403841
H -2.666445 0.815156 -0.874397
H -2.405889 0.075107 -2.204650
O 0.638740 -1.515075 1.338918
H 0.543631 -2.421361 1.638398
H 1.056348 -1.543460 0.475850
O 0.721815 1.118811 -0.695286
H 0.541028 0.855640 -1.599801
H 0.139926 0.607981 -0.129117
9
Structure 103 | Energy: -15.217570 Hartree
O 0.234595 -0.018896 -2.520570
H 0.566430 -0.036859 -1.620767
H -0.127403 -0.887353 -2.707223
O 0.009703 2.041026 0.278215
H -0.240307 2.839532 -0.190796
H -0.725175 1.803974 0.847292
O 1.571983 0.229246 2.456872
H 1.860297 0.958398 1.904329
H 0.997646 -0.322479 1.922244
9
Structure 104 | Energy: -15.217568 Hartree
O 2.077083 -1.302050 -0.876691
H 2.298316 -1.713905 -1.714255
H 2.892827 -1.212100 -0.380133
O -0.675069 0.519985 1.419604
H -1.114105 0.604659 2.268230
H -0.993638 -0.288994 1.014445
O -0.604041 -0.136692 -2.027259
H -0.043126 0.116174 -2.763143
H -0.120672 0.057504 -1.221820
9
Structure 105 | Energy: -15.217553 Hartree
O 0.062174 -2.664576 -0.492655
H 0.538031 -2.624161 0.339216
H -0.541938 -1.919714 -0.510817
O -1.732170 0.053586 0.673375
H -2.199129 0.688094 0.126166
H -1.041689 0.531839 1.136623
O 2.039488 0.414994 1.625512
H 1.324496 -0.213840 1.741473
H 2.745864 -0.040160 1.162958
9
Structure 106 | Energy: -15.217544 Hartree
O 1.244755 -0.472076 -2.071609
H 0.682615 -0.734716 -2.803115
H 0.697439 -0.456809 -1.284010
O 0.223220 0.684927 1.624468
H -0.328022 0.148221 2.197328
H -0.254729 0.805122 0.801543
O -1.956765 -0.877867 -0.221615
H -2.037847 -1.760637 -0.587997
H -2.843821 -0.522769 -0.137197
9
Structure 107 | Energy: -15.217504 Hartree
O 0.281633 0.418543 -0.806143
H 0.306738 1.258408 -1.268829
H 1.001085 0.422109 -0.171733
O -2.180398 -0.790287 1.154429
H -1.441986 -0.829252 0.543431
H -1.958750 -1.346648 1.903711
O 1.170570 -1.523688 1.806877
H 0.271544 -1.857557 1.826220
H 1.621955 -1.964887 1.084600
9
Structure 108 | Energy: -15.217473 Hartree
O 1.100556 0.749202 0.228011
H 0.948753 -0.143727 0.543790
H 0.682481 0.821183 -0.632298
O -1.308626 0.276126 2.046324
H -2.208736 0.466749 1.775117
H -0.759095 0.997772 1.734345
O -1.614897 -1.162060 -0.689713
H -1.096398 -0.638947 -0.075220
H -1.173338 -1.121449 -1.540281
9
Structure 109 | Energy: -15.217420 Hartree
O 0.240418 -0.489855 1.595390
H 0.585902 0.000545 0.846905
H -0.198471 -1.268298 1.246818
O 1.526765 1.861762 -1.501680
H 1.900566 1.030854 -1.801603
H 1.819273 1.995048 -0.597931
O -1.855686 -1.472598 0.123180
H -2.075161 -1.720717 -0.777020
H -2.661068 -1.151968 0.533846
9
Structure 110 | Energy: -15.217414 Hartree
O 0.655466 -2.579319 0.930704
H 1.220508 -3.339886 1.080192
H 1.064332 -2.052884 0.240925
O 0.807078 1.869920 -0.456345
H 1.157349 2.723964 -0.717129
H -0.047070 2.025709 -0.048608
O -0.144103 0.010735 1.635834
H -0.785878 -0.280950 0.985344
H 0.070947 -0.747518 2.182547
9
Structure 111 | Energy: -15.217389 Hartree
O -0.672363 2.094553 -0.617339
H 0.111331 2.499866 -0.241005
H -0.452534 1.182411 -0.816768
O -1.682640 -1.700713 0.607766
H -1.303971 -1.540728 -0.258896
H -2.636501 -1.692304 0.506932
O 1.269478 0.245009 -2.436662
H 0.802279 0.895501 -2.964561
H 1.684385 -0.369622 -3.045078
9
Structure 112 | Energy: -15.217384 Hartree
O -0.431337 -1.606728 0.781769
H -1.319795 -1.665025 1.138598
H 0.142310 -2.108115 1.364555
O 1.587948 1.185431 -1.746094
H 1.678461 0.701623 -2.569395
H 1.524863 0.537684 -1.041443
O -1.236267 1.220369 -0.242646
H -0.968483 2.133750 -0.123820
H -0.527600 0.775278 -0.711448
9
Structure 113 | Energy: -15.217380 Hartree
O 0.326426 0.991453 -0.391039
H 1.272450 0.878249 -0.501970
H -0.060242 0.115218 -0.338113
O 0.668469 -1.489407 1.605079
H 1.617206 -1.624531 1.563512
H 0.258415 -2.356439 1.619221
O -1.949017 -0.811540 0.079531
H -1.716738 -0.329926 0.875889
H -2.210748 -1.694523 0.347722
9
Structure 114 | Energy: -15.217369 Hartree
O -0.672810 1.200045 0.341347
H 0.191480 1.454322 0.670629
H -1.137994 0.773918 1.063925
O -2.264264 -0.724433 -1.462985
H -2.774954 -0.646250 -2.271175
H -2.782048 -0.326822 -0.760208
O 0.277752 -2.071168 -0.180274
H 1.069763 -2.445672 -0.570857
H -0.232323 -1.679866 -0.892170
9
Structure 115 | Energy: -15.217350 Hartree
O 0.424972 0.264119 2.805763
H 0.333973 1.218834 2.823637
H 0.275704 -0.018577 1.901383
O -1.456794 -0.016720 -0.567575
H -2.260614 0.044979 -0.047809
H -1.539819 -0.790511 -1.128326
O 0.702309 -1.670426 -1.478831
H 0.948254 -1.395721 -2.364348
H 1.468871 -1.538912 -0.917425
9
Structure 116 | Energy: -15.217332 Hartree
O -1.731968 -1.340029 0.220292
H -1.769237 -0.388325 0.106484
H -1.332208 -1.508369 1.075835
O 0.151722 0.130799 -2.506924
H 0.568412 -0.695532 -2.759182
H -0.537549 0.309178 -3.149711
O 0.274083 -0.944875 2.562828
H -0.178533 -0.908182 3.407745
H 0.564154 -0.054032 2.357043
9
Structure 117 | Energy: -15.217326 Hartree
O 0.611164 2.695387 0.109213
H -0.268723 3.048325 0.255213
H 1.017505 3.222219 -0.581754
O 1.269646 -0.135973 -0.133203
H 0.920004 -0.835342 0.422425
H 0.601244 0.550404 -0.180240
O -1.572230 0.065746 0.938530
H -1.315082 0.929225 1.267726
H -2.441130 -0.127347 1.296044
9
Structure 118 | Energy: -15.217325 Hartree
O 0.133882 1.184940 1.420875
H -0.536697 1.854745 1.568410
H 0.845119 1.353373 2.042061
O -0.173610 -2.028765 -1.896313
H -0.125720 -2.880010 -2.335831
H 0.520362 -1.479034 -2.265482
O 2.404238 0.751751 -0.457016
H 2.185934 0.053706 -1.077636
H 1.721861 0.756150 0.217100
9
Structure 119 | Energy: -15.217320 Hartree
O 1.125545 -0.486679 -0.743511
H 1.649285 -1.264225 -0.540530
H 0.644824 -0.252188 0.052743
O -0.088694 1.652344 1.232665
H 0.803751 1.818162 1.542721
H -0.165176 2.048243 0.362319
O -2.618424 0.761972 -0.290636
H -2.882643 0.504745 0.594866
H -3.407120 1.062588 -0.746352
9
Structure 120 | Energy: -15.217251 Hartree
O 1.060610 -0.486742 2.165965
H 1.581194 0.317588 2.212075
H 1.660785 -1.201206 1.943632
O -0.587180 0.236400 -1.158731
H -0.032216 -0.108104 -0.456293
H -0.200919 1.066547 -1.444645
O -0.960199 2.683377 0.680780
H -1.380549 1.829155 0.797832
H -0.977500 2.882306 -0.257420
9
Structure 121 | Energy: -15.217240 Hartree
O -1.054399 0.472664 0.193150
H -1.269268 0.417144 1.126333
H -1.880287 0.421635 -0.292035
O 1.007602 -2.168020 -0.616497
H 1.387691 -1.500280 -1.190730
H 1.707731 -2.477481 -0.038447
O 1.919816 0.159581 2.031142
H 1.295146 0.040238 2.749219
H 1.412332 0.211303 1.218815
9
Structure 122 | Energy: -15.217205 Hartree
O 1.911627 -1.564095 1.380088
H 2.508958 -0.824748 1.509094
H 2.450788 -2.337013 1.201190
O 1.262328 0.616323 -0.622778
H 0.860422 0.618746 0.248172
H 1.013003 -0.206349 -1.048378
O -1.235912 -1.177071 0.980146
H -1.395922 -0.465447 0.357186
H -0.659838 -0.831183 1.664683
9
Structure 123 | Energy: -15.217193 Hartree
O -1.143458 0.381676 1.926439
H -1.417832 1.289508 2.070113
H -1.851808 -0.182583 2.242590
O -0.950067 -1.356490 -0.767677
H -1.673490 -0.746678 -0.609948
H -0.798447 -1.834863 0.049794
O 1.808401 1.012315 0.023208
H 1.387324 0.808001 0.860490
H 1.110925 1.123805 -0.625782
9
Structure 124 | Energy: -15.217164 Hartree
O 2.001053 0.882064 -0.075605
H 2.777758 0.374298 0.167264
H 1.634680 0.480290 -0.865826
O -1.223074 -0.066487 2.113977
H -0.426798 0.275785 2.524929
H -1.518887 0.588459 1.478658
O -0.419652 1.865688 -1.973941
H -0.903409 1.054396 -1.806983
H -0.009251 2.126951 -1.147259
9
Structure 125 | Energy: -15.217157 Hartree
O 2.042057 -1.000462 -0.954436
H 2.796248 -0.957013 -1.545527
H 1.329051 -1.426203 -1.434506
O -0.899366 0.100301 0.628563
H -0.357025 0.143029 -0.161455
H -0.935500 -0.819317 0.898904
O 0.472011 2.702834 0.268802
H 0.394702 3.656060 0.342786
H -0.345447 2.325052 0.599155
9
Structure 126 | Energy: -15.217152 Hartree
O -0.495325 1.683639 -1.368889
H 0.011515 1.317783 -2.096449
H 0.132315 2.023136 -0.727867
O 1.004598 -1.254912 2.227745
H 0.970380 -0.790749 1.389014
H 0.357155 -1.961540 2.187956
O 2.473294 0.693468 -0.475309
H 1.937846 0.937539 0.282197
H 3.308972 0.364564 -0.138331
9
Structure 127 | Energy: -15.217131 Hartree
O -0.810471 -1.184846 -0.288356
H -1.664973 -1.605486 -0.174468
H -0.973433 -0.280728 -0.564244
O -1.773826 0.841964 1.228492
H -2.188978 1.417887 1.873512
H -0.850799 1.096875 1.172560
O 1.210807 2.016289 -0.962927
H 1.971211 1.440199 -0.862941
H 0.462418 1.461694 -1.191899
9
Structure 128 | Energy: -15.217115 Hartree
O 0.554710 -1.420056 1.405097
H 1.446099 -1.066822 1.378023
H 0.221095 -1.418483 0.505764
O -2.455065 0.134140 -1.300690
H -2.206007 1.052982 -1.418109
H -2.723501 -0.199323 -2.159079
O 0.330675 1.146782 -1.417954
H 0.743167 1.848604 -0.910621
H -0.047771 0.527554 -0.790716
9
Structure 129 | Energy: -15.217114 Hartree
O -2.275750 1.016822 -0.567284
H -1.496142 0.780885 -1.073867
H -2.107557 0.770187 0.344298
O -0.733872 -2.115233 0.444524
H 0.138031 -1.798694 0.200234
H -1.329814 -1.887213 -0.271680
O 1.165203 -0.670654 2.374191
H 0.285118 -0.289535 2.357167
H 1.063792 -1.613242 2.520254
9
Structure 130 | Energy: -15.217104 Hartree
O 0.401901 -2.707464 0.794718
H 0.484651 -1.758735 0.909381
H 0.588315 -2.899600 -0.126386
O -0.687813 0.790554 -1.334697
H -0.722233 0.577301 -0.400123
H -1.143746 1.626241 -1.452338
O -1.208195 0.673964 2.119370
H -1.688230 0.013059 2.622224
H -1.850190 1.146832 1.586145
9
Structure 131 | Energy: -15.217100 Hartree
O -1.440577 -0.942980 -1.240340
H -1.272703 -0.198022 -1.820803
H -2.390449 -1.000903 -1.119975
O 0.913895 2.339608 0.929132
H 0.460612 1.495306 0.971293
H 1.825579 2.160937 0.690393
O 1.716946 -2.127940 -0.877198
H 0.947625 -2.161408 -1.449139
H 1.491034 -1.571164 -0.129498
9
Structure 132 | Energy: -15.217090 Hartree
O 0.593618 1.487741 -1.828551
H 0.308158 1.395779 -0.917432
H 1.544959 1.365784 -1.841856
O -0.692827 -1.003552 1.076543
H -0.833571 -1.825839 0.603127
H -1.497241 -0.487479 0.994841
O 2.347828 0.274211 1.562282
H 2.954198 -0.425984 1.811548
H 1.723026 0.378687 2.282558
9
Structure 133 | Energy: -15.217073 Hartree
O 1.300846 1.598980 1.843778
H 1.826140 1.882247 2.594716
H 1.846143 1.700501 1.061190
O 0.115985 -1.507292 -1.336373
H 0.018148 -0.718346 -0.799641
H -0.764757 -1.786607 -1.593986
O -2.631412 -0.058883 -0.190688
H -1.928267 0.565941 -0.002876
H -2.766626 -0.581193 0.602406
9
Structure 134 | Energy: -15.217071 Hartree
O -1.212335 1.590225 -0.292397
H -1.932764 1.515850 0.336516
H -1.584020 1.459188 -1.166914
O 1.505388 -0.842472 1.990774
H 1.423676 -0.055468 2.533026
H 2.115240 -1.433033 2.437322
O 0.208455 -0.369633 -1.650682
H 0.735301 0.386653 -1.385062
H 0.422023 -1.088674 -1.052803
9
Structure 135 | Energy: -15.217065 Hartree
O -0.434472 -0.715979 2.464177
H 0.019254 -1.119748 1.721759
H -0.387981 0.234385 2.342740
O -1.597473 0.578454 -0.749644
H -1.058110 0.720668 -1.529998
H -2.464403 0.299242 -1.050576
O 1.549533 1.033894 1.256082
H 0.837133 1.500832 0.815008
H 2.273020 1.654653 1.362454
9
Structure 136 | Energy: -15.217045 Hartree
O -1.570052 2.098214 -0.332229
H -2.116643 2.815988 -0.006467
H -2.148980 1.350289 -0.492075
O 0.333250 -0.456328 0.620085
H -0.194017 -1.214135 0.359688
H 0.846451 -0.190773 -0.145548
O 0.734542 -0.584184 -2.298207
H 1.359258 -1.026553 -2.876248
H 0.723260 0.341927 -2.547766
9
Structure 137 | Energy: -15.217040 Hartree
O -2.591263 -0.972993 -0.577333
H -2.817390 -1.648669 0.064859
H -2.484705 -1.410415 -1.424332
O 1.197439 1.894038 0.456245
H 1.347228 2.515210 1.171645
H 0.722380 1.146313 0.824096
O -1.684752 1.003112 1.386906
H -1.267520 0.546950 0.653472
H -2.362833 0.420706 1.734899
9
Structure 138 | Energy: -15.217020 Hartree
O 0.452239 -0.877629 -0.046098
H 0.986234 -0.214901 -0.488504
H 0.851367 -1.038036 0.811263
O 0.696884 2.661568 0.218712
H 1.460824 3.159844 -0.078280
H 0.635773 2.774996 1.169232
O -2.381505 0.986872 -0.757297
H -2.394268 0.876118 -1.710010
H -1.466092 0.928458 -0.476770
9
Structure 139 | Energy: -15.217017 Hartree
O -0.925804 1.118175 1.285423
H -1.262916 1.230467 0.394453
H -1.460224 0.443191 1.708379
O 2.031164 -0.048407 -1.493217
H 2.448252 -0.887194 -1.699525
H 2.728955 0.564266 -1.252786
O -0.088889 -2.068683 0.640396
H 0.419269 -2.881108 0.683205
H 0.530328 -1.354608 0.476821
9
Structure 140 | Energy: -15.217009 Hartree
O -1.923501 -0.754021 -0.816104
H -1.965437 -1.296298 -0.026003
H -2.267794 0.111070 -0.585494
O 1.910052 -0.809238 -2.011695
H 1.381986 -1.605617 -1.927935
H 1.338812 -0.066678 -1.805839
O 0.033621 0.218148 1.750358
H -0.160470 1.093133 1.408568
H 0.687197 -0.175397 1.168937
9
Structure 141 | Energy: -15.217004 Hartree
O 2.084078 -0.089183 0.054597
H 2.569447 0.610961 0.495387
H 1.152699 0.054936 0.233100
O -1.007208 -1.858129 1.600340
H -1.892613 -1.883772 1.232252
H -0.842759 -2.712356 2.004495
O 0.333148 -2.741843 -0.964114
H 0.930849 -2.300327 -1.570668
H -0.327254 -2.099149 -0.697837
9
Structure 142 | Energy: -15.216989 Hartree
O -1.176035 -0.495447 -2.086597
H -1.365825 -0.682525 -3.008044
H -0.635103 -1.215373 -1.756144
O 0.281178 1.222059 0.808891
H 1.184195 0.923358 0.684683
H 0.142934 1.962997 0.215606
O 0.650976 -1.999312 -0.094796
H 0.900043 -1.109583 0.162963
H 1.130494 -2.604629 0.474189
9
Structure 143 | Energy: -15.216981 Hartree
O 0.535632 -0.716332 -0.875896
H 1.204550 -0.430116 -1.500966
H 0.072323 -1.455709 -1.274351
O 0.760603 1.578617 2.235945
H 1.349070 1.937224 2.903175
H 1.277300 0.978937 1.694192
O -2.154481 -0.928163 -0.694819
H -3.031651 -0.922870 -0.306701
H -1.527316 -0.795661 0.018763
9
Structure 144 | Energy: -15.216969 Hartree
O -2.513110 0.872342 1.041366
H -3.462031 0.957722 0.930277
H -2.262520 0.014080 0.693960
O 1.114285 -1.063785 -1.263728
H 0.818887 -1.118381 -0.352768
H 1.435090 -0.170962 -1.405287
O -0.009840 0.420338 1.028486
H 0.451287 1.186283 0.680951
H -0.064477 0.529198 1.979935
9
Structure 145 | Energy: -15.216896 Hartree
O 0.208600 -0.537011 -2.511493
H 0.528756 0.174317 -1.953287
H 0.974110 -0.937687 -2.928090
O -0.929233 1.899586 0.301531
H -1.015410 1.600730 1.208916
H -1.697784 1.581788 -0.176405
O -1.248501 -1.229337 -0.299615
H -1.216978 -2.166901 -0.499794
H -0.366383 -0.879297 -0.439004
9
Structure 146 | Energy: -15.216864 Hartree
O -1.152690 -0.134464 1.109239
H -1.340122 -0.898080 1.658640
H -1.570714 -0.286480 0.259388
O 1.930698 0.233886 -1.496450
H 1.802964 0.996114 -0.928312
H 2.724993 -0.213199 -1.197622
O 0.282136 -2.457340 -0.642225
H -0.397611 -3.003344 -1.042120
H 0.130212 -1.556045 -0.933217
9
Structure 147 | Energy: -15.216850 Hartree
O -0.383512 -1.813349 2.051683
H -1.098074 -1.326640 2.467131
H 0.312853 -1.908071 2.704526
O 0.810518 0.739411 -0.744107
H 0.078619 1.271956 -0.426606
H 1.289369 0.426763 0.025984
O -2.282773 1.130734 -0.134900
H -2.388484 0.577708 -0.911482
H -1.830950 0.605509 0.528488
9
Structure 148 | Energy: -15.216835 Hartree
O 0.526854 -0.337335 2.656628
H -0.338921 -0.085650 2.329259
H 0.772337 -1.151877 2.213502
O 0.424403 0.244773 -1.249537
H -0.509914 0.086212 -1.101216
H 0.682765 -0.274148 -2.013774
O -1.016074 -1.588161 0.466355
H -0.086900 -1.642088 0.234365
H -1.165796 -2.205849 1.184780
9
Structure 149 | Energy: -15.216831 Hartree
O -1.197450 2.193923 0.075761
H -0.785954 2.074060 0.933890
H -0.529510 2.010203 -0.587718
O -1.824370 -0.535688 -1.107796
H -1.917305 -1.118072 -1.864289
H -2.507399 0.133978 -1.179260
O 1.062423 0.085722 1.329491
H 1.028773 -0.872530 1.302800
H 1.987581 0.338167 1.308406
9
Structure 150 | Energy: -15.216821 Hartree
O 2.193357 0.213899 0.006651
H 3.034283 -0.247535 0.005168
H 1.759226 0.015903 -0.825472
O -1.902114 -1.272325 0.598983
H -1.124507 -0.758120 0.373131
H -2.436903 -1.341882 -0.194270
O -1.829215 0.898859 -1.867655
H -2.782528 0.827580 -1.946424
H -1.648342 1.546287 -1.183395
9
Structure 151 | Energy: -15.216771 Hartree
O -0.165014 1.010986 1.002725
H 0.746238 0.713849 1.040280
H -0.310014 1.372522 0.126160
O 1.963305 -1.632299 -0.490429
H 2.003642 -2.498193 -0.079712
H 1.042181 -1.364838 -0.499477
O -1.976139 0.460674 -1.899923
H -2.846322 0.330754 -2.282014
H -1.333417 0.273564 -2.586937
9
Structure 152 | Energy: -15.216756 Hartree
O 2.675584 -0.033976 -0.468855
H 1.810992 0.228761 -0.790618
H 3.105396 -0.521019 -1.174654
O -1.047920 0.407062 0.834708
H -1.649981 0.627483 1.548169
H -0.171182 0.685355 1.106684
O -0.462374 -1.375439 -1.757443
H 0.106845 -0.615575 -1.894147
H -0.595761 -1.463953 -0.811682
9
Structure 153 | Energy: -15.216747 Hartree
O 1.004152 1.168618 -0.960031
H 0.334106 1.020228 -1.630181
H 0.575269 1.085029 -0.106115
O 0.129565 -2.603351 -0.005438
H -0.126834 -2.738956 0.908870
H 1.023706 -2.256101 -0.001193
O -1.996174 1.910846 -0.059324
H -2.379617 2.696821 -0.453413
H -2.200782 1.934092 0.877524
9
Structure 154 | Energy: -15.216738 Hartree
O -0.147541 -0.259651 -0.016632
H 0.521212 -0.936648 -0.137156
H 0.116210 0.268809 0.739189
O 0.550028 1.792947 -1.988822
H 0.660579 2.314502 -2.786222
H 0.082802 0.992373 -2.235537
O -1.836353 1.655256 1.372731
H -2.468195 2.333829 1.618508
H -1.462339 1.908469 0.526512
9
Structure 155 | Energy: -15.216736 Hartree
O 1.536022 -2.024497 1.382554
H 2.147710 -1.735860 2.062706
H 1.464810 -1.312435 0.743808
O 2.161990 0.483581 -0.302763
H 2.894134 0.596199 0.306639
H 2.473575 0.742848 -1.172120
O -1.427388 0.352696 -1.984397
H -1.509228 -0.575367 -2.212637
H -2.310342 0.678647 -1.799361
9
Structure 156 | Energy: -15.216711 Hartree
O -0.307073 0.797756 -0.527896
H 0.142391 0.746589 -1.373736
H 0.282014 1.248939 0.079978
O -1.693406 -1.732761 1.541317
H -1.379220 -1.151614 2.236762
H -2.307840 -1.227748 1.005107
O 1.960254 -0.570384 0.422705
H 2.470638 -1.381067 0.373794
H 1.488620 -0.581596 1.257885
9
Structure 157 | Energy: -15.216685 Hartree
O 1.153444 2.289312 -1.028160
H 1.994798 2.749225 -1.001990
H 0.725332 2.526972 -1.852987
O 2.020830 -0.636788 0.051227
H 2.552506 -0.378422 0.806645
H 1.791544 0.165219 -0.422378
O -1.750830 -0.837383 1.454871
H -1.307881 -0.162345 0.936980
H -2.464029 -0.407677 1.931095
9
Structure 158 | Energy: -15.216685 Hartree
O 2.260972 -0.002110 0.183195
H 2.308081 0.955750 0.164038
H 1.602478 -0.267091 -0.461996
O -2.308982 0.798427 1.599268
H -1.816591 1.585722 1.358842
H -1.732389 0.046382 1.450751
O -0.318276 -2.026130 1.131763
H 0.228707 -2.726179 1.493469
H -0.862824 -2.416927 0.445589
9
Structure 159 | Energy: -15.216685 Hartree
O -1.705946 0.763458 -1.918580
H -1.950818 1.295812 -2.678000
H -1.964766 1.251353 -1.134315
O 0.327993 -0.399577 1.599378
H 0.202844 -0.442625 0.649340
H 0.820865 0.402134 1.784918
O 1.296652 1.441331 -0.041191
H 1.557212 2.341081 0.165325
H 0.644660 1.488432 -0.743173
9
Structure 160 | Energy: -15.216684 Hartree
O 0.547417 -0.899598 -0.391046
H 0.967934 -0.077490 -0.650633
H 0.784548 -1.559120 -1.045950
O 2.516001 0.926049 0.701301
H 3.158271 0.604860 1.337238
H 2.946791 1.607986 0.182197
O -0.191634 1.666559 1.413762
H -0.143551 0.717084 1.286183
H -1.112449 1.886087 1.568667
9
Structure 161 | Energy: -15.216674 Hartree
O 0.618709 0.437286 1.270129
H -0.266665 0.502358 1.633390
H 0.710453 -0.443476 0.901427
O -0.071597 -2.183178 -1.888909
H -0.228470 -2.209490 -2.834841
H 0.282940 -1.315815 -1.683794
O -2.078064 -0.850701 0.478120
H -2.902437 -1.143426 0.084657
H -1.864334 0.000010 0.089919
9
Structure 162 | Energy: -15.216664 Hartree
O 1.120746 -2.623072 0.467404
H 1.063103 -3.580346 0.487022
H 0.256355 -2.281523 0.704624
O -0.596824 1.845583 -0.421601
H -1.311706 2.222920 0.094779
H -0.886058 0.980115 -0.717233
O 1.185476 0.113209 -2.258440
H 1.737990 -0.669266 -2.207919
H 1.349906 0.628676 -1.466388
9
Structure 163 | Energy: -15.216658 Hartree
O 0.212922 -1.725524 -0.528906
H -0.035336 -1.351848 -1.376736
H 1.145440 -1.944995 -0.577312
O 0.124628 1.985763 1.633240
H 1.026458 2.307679 1.577001
H -0.417819 2.564858 1.094270
O 1.783342 0.538772 -1.444296
H 1.430070 0.341204 -0.574665
H 1.105648 1.019351 -1.923738
9
Structure 164 | Energy: -15.216649 Hartree
O -1.000563 1.684370 1.122869
H -1.656213 1.210450 0.607500
H -1.244273 1.592546 2.046055
O -1.653801 -0.731010 -1.441993
H -2.015091 0.108012 -1.734568
H -1.170749 -1.105526 -2.181240
O 2.059766 1.802225 0.113729
H 1.672559 2.394578 0.761247
H 2.051112 0.921438 0.493504
9
Structure 165 | Energy: -15.216606 Hartree
O 0.057544 0.352856 -2.717181
H 0.224570 0.587362 -3.632163
H 0.326924 -0.560824 -2.604386
O -0.590275 -1.571645 0.222349
H 0.324698 -1.751115 0.447523
H -1.038895 -2.417279 0.161264
O -0.266167 2.279719 -0.320328
H 0.193284 2.031947 0.484412
H -0.087250 1.597990 -0.970962
9
Structure 166 | Energy: -15.216582 Hartree
O -1.495468 -0.883109 -0.553974
H -2.327865 -1.351945 -0.639940
H -0.890364 -1.462035 -0.086220
O -0.393497 2.532735 0.539604
H -1.080851 1.927400 0.254642
H 0.438055 2.200468 0.195789
O 2.090175 -0.153482 -1.620601
H 2.723995 0.472456 -1.264841
H 1.958884 0.069170 -2.544332
9
Structure 167 | Energy: -15.216576 Hartree
O -0.573702 -0.107498 -2.216093
H -1.011053 -0.770015 -1.677692
H -0.112124 -0.571046 -2.917640
O -0.409598 2.150159 1.556729
H -0.836272 1.292749 1.503015
H -0.803283 2.706147 0.881467
O 1.988867 -0.978963 -0.799042
H 1.834104 -0.033748 -0.747004
H 2.806232 -1.106672 -1.284526
9
Structure 168 | Energy: -15.216571 Hartree
O -2.422595 0.449682 1.464497
H -2.302763 1.381564 1.657674
H -1.556230 0.085815 1.271853
O 1.324623 -0.483127 -1.567226
H 2.018762 -0.856495 -1.020548
H 1.751252 -0.014423 -2.287221
O 0.517363 -2.077055 1.190911
H 0.076575 -1.595916 1.893978
H 0.293670 -1.642356 0.365631
9
Structure 169 | Energy: -15.216544 Hartree
O -0.841499 0.721341 2.722589
H -0.302317 1.057877 2.004182
H -0.748799 -0.233386 2.724201
O 0.900273 -0.624980 -0.173876
H 1.050114 -1.484749 0.224162
H -0.042959 -0.454832 -0.135792
O -1.317765 -0.561148 -1.996847
H -1.004912 -0.217404 -2.835927
H -2.099465 -0.059193 -1.757940
9
Structure 170 | Energy: -15.216543 Hartree
O 0.646553 -1.575089 2.164333
H 0.407220 -0.687483 2.438116
H 1.209978 -1.492067 1.392478
O -0.886372 0.158755 -1.413679
H -0.343610 0.075777 -2.200198
H -1.458394 -0.610531 -1.380843
O 1.693519 2.066376 -0.153113
H 2.087801 1.207210 0.009577
H 0.751321 1.929117 -0.269357
9
Structure 171 | Energy: -15.216495 Hartree
O 2.270390 1.278301 0.249389
H 2.523571 1.004152 -0.634253
H 1.679706 2.028261 0.155828
O -0.035952 -1.588499 -0.369904
H -0.757785 -1.124714 0.058988
H 0.758304 -1.069207 -0.229972
O -0.458375 0.013855 1.897748
H -1.004084 0.790580 1.759940
H -0.488405 -0.191905 2.834151
9
Structure 172 | Energy: -15.216477 Hartree
O -0.851628 1.608843 -0.531293
H -0.821706 2.383200 0.034001
H -0.241294 0.965917 -0.164906
O -2.153997 -0.217518 1.149373
H -1.973958 0.037547 0.242391
H -2.782386 0.415094 1.502950
O 1.092686 -0.766959 0.898197
H 1.673678 -0.029102 0.702989
H 0.963880 -1.251207 0.080271
9
Structure 173 | Energy: -15.216439 Hartree
O -2.145557 -1.261485 -0.770763
H -1.351881 -1.375603 -1.297201
H -2.531985 -0.419185 -1.018360
O -0.087649 1.196799 0.406615
H 0.810530 1.460868 0.197736
H -0.581997 1.196218 -0.415400
O -0.962883 0.638352 -2.484177
H -0.031199 0.667668 -2.710446
H -1.360853 -0.058980 -3.009000
9
Structure 174 | Energy: -15.216424 Hartree
O -2.255228 -1.306099 0.286064
H -1.315587 -1.179873 0.431747
H -2.442473 -2.235929 0.429086
O -0.328058 1.163310 -0.464948
H -0.021824 1.195826 -1.373382
H -0.951430 1.883132 -0.349396
O 1.550825 -0.186243 1.623373
H 0.678318 -0.142512 1.227253
H 2.001913 -0.938235 1.234634
9
Structure 175 | Energy: -15.216384 Hartree
O 2.484902 0.380998 -0.276777
H 1.784503 0.401720 -0.931829
H 2.679027 -0.541116 -0.097551
O -0.203711 -0.865354 1.157085
H -0.517006 -0.194224 0.547560
H -0.723844 -1.656015 1.000870
O -0.216614 0.159075 -1.841596
H -0.034075 -0.739893 -1.561189
H -1.021909 0.136254 -2.362239
9
Structure 176 | Energy: -15.216374 Hartree
O -0.362510 -2.403362 -0.603963
H -0.604306 -1.656736 -1.155477
H -0.941571 -2.391032 0.160652
O 0.588535 1.836024 0.620947
H -0.128416 1.995411 1.237927
H 0.994613 1.002439 0.866558
O 0.954301 0.505837 -2.636393
H 1.238313 1.383177 -2.372380
H 1.134685 -0.084151 -1.901910
9
Structure 177 | Energy: -15.216366 Hartree
O -1.933035 1.171914 1.341616
H -2.702107 0.977947 0.802184
H -1.926620 0.541270 2.064351
O -1.213570 -0.771636 -1.075127
H -1.595002 0.081116 -0.857383
H -0.352369 -0.606648 -1.463972
O 1.250486 1.947569 0.260417
H 1.373548 2.164409 1.186660
H 1.174254 0.993315 0.199770
9
Structure 178 | Energy: -15.216356 Hartree
O -1.966009 1.147380 0.261443
H -1.354953 1.679308 -0.252118
H -2.667404 1.729449 0.560343
O -0.688670 -1.665054 -0.962143
H -0.249715 -0.882079 -0.623978
H -1.245239 -2.004840 -0.258676
O 0.795342 0.367316 1.047297
H 1.445197 0.138146 1.714575
H 0.779028 1.324266 0.983502
9
Structure 179 | Energy: -15.216352 Hartree
O 0.488953 -0.117937 0.798355
H 0.428593 0.675902 1.333386
H 1.128128 0.055147 0.104383
O -0.791648 2.010368 -0.971277
H -0.592170 1.229853 -0.450611
H -1.361613 2.568855 -0.438999
O -0.344153 -2.882777 0.511148
H -1.053776 -2.698434 -0.107355
H 0.432318 -2.412735 0.200918
9
Structure 180 | Energy: -15.216332 Hartree
O -0.601275 -0.701076 -0.072491
H 0.292007 -1.050501 -0.066821
H -1.088864 -1.178714 -0.746448
O -0.803390 1.270254 2.002896
H 0.123250 1.346374 2.238761
H -0.850132 1.225264 1.045880
O 2.092328 0.893936 -1.024065
H 1.941016 1.377565 -1.838497
H 3.030787 0.700766 -0.978570
9
Structure 181 | Energy: -15.216326 Hartree
O 0.760813 -1.204491 -1.422565
H 0.771647 -0.771724 -2.278531
H 1.305964 -1.990434 -1.494703
O -2.256942 1.230997 0.570911
H -1.565213 0.635260 0.276468
H -2.219151 1.258708 1.528978
O -2.101734 -1.609667 -0.941264
H -1.870123 -1.839894 -1.843175
H -1.294314 -1.335926 -0.501687
9
Structure 182 | Energy: -15.216322 Hartree
O -1.929769 -1.656063 0.842306
H -1.931188 -2.560467 1.161889
H -2.666347 -1.568541 0.234119
O 1.022318 1.642600 -0.751045
H 0.179451 1.186486 -0.791334
H 1.409278 1.449263 0.105092
O 2.747143 -0.887394 -0.403308
H 2.213387 -0.688048 -1.174967
H 3.052352 -0.051444 -0.045364
9
Structure 183 | Energy: -15.216320 Hartree
O -0.669599 -0.456834 -1.431769
H 0.196920 -0.158987 -1.148021
H -1.202688 -0.572424 -0.642747
O -0.801576 2.724655 0.232449
H 0.044676 2.395773 -0.077036
H -0.661997 3.622203 0.540691
O 1.480186 -1.761096 -0.164406
H 0.559614 -1.999780 -0.039233
H 1.918792 -2.517756 -0.558336
9
Structure 184 | Energy: -15.216285 Hartree
O -2.571883 -0.976590 -0.534372
H -1.918892 -0.350376 -0.853024
H -2.354794 -1.173295 0.379017
O -0.514170 1.996609 0.243317
H 0.176636 2.636474 0.426207
H -0.106137 1.128531 0.249429
O 2.063008 0.445645 -0.578104
H 2.923822 0.035957 -0.684153
H 2.211352 1.345402 -0.280577
9
Structure 185 | Energy: -15.216281 Hartree
O -0.298095 -2.112564 -0.894786
H -0.262273 -1.355739 -1.483015
H -0.947425 -2.720667 -1.253510
O -1.095326 0.419440 1.007670
H -1.117674 0.400541 0.048904
H -1.139529 -0.489541 1.310800
O 0.235929 2.552824 1.177692
H -0.719769 2.579650 1.255240
H 0.504993 1.639734 1.295851
9
Structure 186 | Energy: -15.216280 Hartree
O -1.761069 1.253743 -1.725745
H -2.585321 1.077530 -1.267880
H -1.165319 1.658868 -1.092456
O -0.202144 -0.796463 0.240292
H -0.477513 -0.588710 -0.654749
H 0.160063 0.006630 0.619681
O 2.477217 1.397472 0.553526
H 1.981563 0.724945 0.082223
H 2.664222 1.051645 1.428467
9
Structure 187 | Energy: -15.216273 Hartree
O 1.002078 0.735229 0.082991
H 1.687326 1.068344 -0.499720
H 1.425674 0.487792 0.907274
O -0.642324 -2.501996 -1.155262
H -0.011544 -3.221200 -1.084906
H -0.449542 -1.884767 -0.446777
O -1.394254 -0.397077 1.471899
H -0.941342 0.022507 2.206005
H -1.797961 0.300130 0.951310
9
Structure 188 | Energy: -15.216259 Hartree
O 1.597324 -1.519741 -0.227428
H 1.510785 -2.452625 -0.433144
H 1.816042 -1.067727 -1.044708
O 1.879202 1.197973 0.989430
H 2.184728 0.288937 0.969523
H 1.067874 1.236190 0.479161
O -0.706095 -0.449657 -2.601402
H -0.062634 0.211118 -2.864890
H -0.379585 -1.299934 -2.902250
9
Structure 189 | Energy: -15.216254 Hartree
O -1.354949 -1.362643 1.182090
H -0.497366 -0.979331 0.987910
H -1.533578 -2.017287 0.504127
O -2.288729 1.401052 0.003852
H -1.625661 0.860560 0.437787
H -1.833188 1.947356 -0.639670
O 2.330948 -0.775852 0.954265
H 1.973024 -1.172087 1.751121
H 3.265621 -0.624252 1.107537
9
Structure 190 | Energy: -15.216253 Hartree
O 2.440931 0.860262 0.725585
H 1.852675 1.132259 0.018440
H 2.223625 -0.048585 0.942094
O -0.494261 -0.560261 -0.753390
H -1.160504 0.083806 -0.505629
H 0.034883 -0.167751 -1.450548
O -0.690266 -0.573786 2.739172
H 0.217532 -0.309058 2.900146
H -0.664512 -1.344380 2.168548
9
Structure 191 | Energy: -15.216228 Hartree
O -0.513691 -1.997936 -0.065249
H -0.261905 -1.126248 -0.376450
H 0.140301 -2.617225 -0.395211
O -2.121362 0.113711 1.577936
H -2.118917 0.392866 0.660245
H -2.572512 -0.731908 1.616404
O 1.041796 -1.230711 -2.323577
H 1.595707 -1.715429 -2.938656
H 1.616358 -0.877497 -1.641515
9
Structure 192 | Energy: -15.216190 Hartree
O -1.349459 -1.755975 1.700150
H -2.196108 -2.201171 1.628960
H -1.295130 -1.388689 2.584599
O 0.393623 -0.030405 -1.303632
H -0.174218 0.419013 -1.932653
H 0.672980 0.620960 -0.657279
O 1.497056 -1.558830 0.764162
H 2.227616 -2.027423 0.355758
H 0.814696 -1.459982 0.097301
9
Structure 193 | Energy: -15.216161 Hartree
O 0.791410 0.948533 1.034746
H 0.080213 1.448074 1.440627
H 1.550184 1.532262 0.974546
O -1.313643 -1.802973 -0.764893
H -1.421422 -2.041100 -1.687805
H -1.053506 -2.597713 -0.294993
O -2.037202 1.458416 1.341214
H -1.795433 1.238075 0.439500
H -2.934749 1.796142 1.320211
9
Structure 194 | Energy: -15.216151 Hartree
O -2.226356 -1.611974 0.022493
H -2.900494 -0.970912 -0.211300
H -1.767745 -1.849523 -0.785806
O -0.393412 1.629142 0.277329
H -1.010715 2.233997 0.693472
H -0.851826 1.216100 -0.457069
O 1.628416 -0.229115 -1.035481
H 2.511707 -0.288002 -0.666130
H 1.012207 -0.234426 -0.300397
9
Structure 195 | Energy: -15.216144 Hartree
O 0.453492 -0.706475 1.811523
H -0.265032 -0.172429 1.467139
H 1.125387 -0.753129 1.128530
O -1.061030 2.537164 -0.876549
H -1.323837 2.981447 -1.685025
H -0.634332 1.716144 -1.129420
O 1.622642 -0.567103 -1.751075
H 2.037364 -1.369997 -2.072723
H 1.376645 -0.047261 -2.518760
9
Structure 196 | Energy: -15.216134 Hartree
O -0.789946 1.061433 -2.334685
H -0.266126 1.448313 -3.038970
H -1.593512 0.720773 -2.732596
O 0.254473 -1.144277 0.048298
H -0.366458 -0.423609 0.171471
H 0.952891 -0.822583 -0.525123
O 2.478224 0.709967 1.270371
H 2.680463 0.195423 0.486512
H 2.731537 0.181861 2.029994
9
Structure 197 | Energy: -15.216131 Hartree
O 1.738661 -0.130370 1.960370
H 1.153428 0.013881 1.214196
H 2.619765 -0.269348 1.607607
O 0.855294 2.097501 -0.090746
H 1.654701 2.524061 0.224030
H 1.083544 1.622389 -0.892157
O -0.955876 1.005767 -2.420464
H -0.896728 0.073630 -2.638899
H -1.637655 1.098191 -1.752089
9
Structure 198 | Energy: -15.216131 Hartree
O -2.107887 -0.187763 -0.220710
H -1.515833 -0.936050 -0.122631
H -1.719028 0.398583 -0.872697
O -1.154274 2.491282 0.375426
H -0.752985 3.362017 0.405016
H -1.875524 2.489277 1.007788
O -0.050657 -0.401868 -2.362845
H 0.794355 -0.193589 -2.766165
H 0.025586 -1.278057 -1.980000
9
Structure 199 | Energy: -15.216119 Hartree
O -0.176799 0.277521 -0.612538
H -0.586755 -0.521650 -0.949203
H 0.747088 0.076467 -0.450953
O 0.271642 -2.446390 1.237001
H 0.980452 -2.087175 1.774256
H -0.535127 -1.994625 1.492188
O 1.875912 0.255210 2.108673
H 1.014686 0.093938 1.718326
H 2.462680 -0.437162 1.798167
9
Structure 200 | Energy: -15.216103 Hartree
O -0.840444 1.612592 -1.392464
H -0.859455 1.652385 -2.350659
H -1.648602 1.179908 -1.110036
O -0.302986 -0.308591 1.393093
H -0.928287 -0.069637 0.706079
H -0.118510 -1.244888 1.296121
O 1.776997 0.125818 -0.700242
H 0.996720 -0.059150 -1.226592
H 1.498093 0.667757 0.040437
9
Structure 201 | Energy: -15.216090 Hartree
O -1.915027 1.892585 -0.320653
H -1.699580 1.030040 -0.680763
H -1.481169 1.960825 0.532113
O 0.318669 -0.346420 1.010082
H 0.663415 0.327958 1.598685
H 0.117105 0.081108 0.175408
O 0.822613 -0.780931 -2.153142
H 1.135573 -1.686392 -2.200954
H 0.305095 -0.617121 -2.943984
9
Structure 202 | Energy: -15.216087 Hartree
O -0.539096 -0.681105 -2.456749
H -0.669017 -1.594351 -2.193721
H -0.389806 -0.173537 -1.656632
O -0.529896 1.942870 0.802859
H -1.100079 2.375226 1.441645
H -1.052883 1.267310 0.366751
O 1.973940 -1.281047 0.175172
H 1.881832 -0.668601 0.907646
H 2.279262 -0.775810 -0.580873
9
Structure 203 | Energy: -15.216084 Hartree
O -0.534068 -0.727338 -0.008433
H -0.650074 -0.526663 0.922348
H -1.202805 -0.236725 -0.490294
O 0.606712 2.517332 -0.255418
H 0.484950 2.854035 -1.145302
H 1.528412 2.649854 -0.025212
O 1.744317 -0.455664 2.282371
H 0.834748 -0.467957 2.586713
H 1.751785 -0.819127 1.394717
9
Structure 204 | Energy: -15.216073 Hartree
O 0.179966 -0.698795 2.307091
H 1.029449 -0.987234 1.967584
H -0.053610 0.106440 1.841109
O 1.015012 1.530858 -0.022176
H 0.847227 2.114414 0.720386
H 0.168804 1.343813 -0.433313
O -2.418250 0.114617 -1.516909
H -1.493049 -0.120345 -1.611184
H -2.870006 -0.650009 -1.154481
9
Structure 205 | Energy: -15.216071 Hartree
O 2.197877 1.653736 0.785738
H 1.920800 0.779494 0.504648
H 2.238240 2.204734 0.001601
O 0.515547 -0.971491 -1.512205
H -0.283396 -1.498153 -1.578572
H 0.805908 -0.781926 -2.406545
O -0.340729 0.302557 1.285944
H 0.042682 0.056078 0.441944
H -0.547561 -0.509864 1.752079
9
Structure 206 | Energy: -15.216070 Hartree
O 1.231010 -0.068430 -0.364822
H 1.894976 -0.113675 -1.055607
H 1.071632 0.860085 -0.184384
O -1.634116 1.556044 1.189148
H -1.654435 2.515024 1.194973
H -1.756671 1.263829 2.094510
O -1.618040 -1.823854 -1.380351
H -1.694980 -1.078955 -0.780938
H -0.855551 -1.661227 -1.939148
9
Structure 207 | Energy: -15.216068 Hartree
O 1.672256 -1.903363 -1.274299
H 2.447001 -1.467510 -0.913905
H 1.109025 -1.221009 -1.644789
O -1.016704 1.101057 1.203982
H -0.487027 0.790384 1.940876
H -1.815450 0.570286 1.184599
O -1.117246 -0.595937 -0.952407
H -1.171961 -0.918676 -1.854037
H -0.927425 0.343206 -0.997890
9
Structure 208 | Energy: -15.216064 Hartree
O -1.260958 -0.549214 0.593476
H -2.187915 -0.340559 0.724987
H -1.220675 -1.407993 0.168064
O 2.002226 -0.833802 1.735969
H 1.067453 -1.029747 1.647122
H 2.256069 -0.308909 0.974300
O 0.785349 0.923929 -1.863859
H -0.087354 1.071507 -2.233591
H 0.907711 -0.024913 -1.794455
9
Structure 209 | Energy: -15.216045 Hartree
O -0.996983 -0.944894 -2.326201
H -0.970298 -1.855398 -2.626790
H -0.423999 -0.881957 -1.559501
O -0.992874 1.064392 1.615846
H -0.616013 0.182870 1.647205
H -1.428640 1.217090 2.456607
O 2.221190 0.912972 1.009822
H 2.323310 1.616604 0.365954
H 1.505618 1.166216 1.596263
9
Structure 210 | Energy: -15.216036 Hartree
O 0.592935 1.490187 -1.257903
H 0.489954 0.606611 -0.899057
H 0.376766 2.108396 -0.557054
O 0.624614 -2.425458 0.392528
H 0.354826 -2.309088 1.305633
H 1.566373 -2.607583 0.395600
O 1.655408 1.029736 1.854536
H 2.236174 1.621919 2.336326
H 1.460244 1.445957 1.012657
9
Structure 211 | Energy: -15.216035 Hartree
O 1.931952 -0.992931 -1.669193
H 1.131991 -1.164426 -1.168460
H 2.629839 -0.812059 -1.036470
O -0.156378 1.763234 1.444608
H 0.197603 2.652395 1.379963
H -0.266923 1.568627 2.377344
O 0.704157 2.248462 -1.283854
H 0.212760 1.564088 -0.825321
H 1.599585 2.233899 -0.940217
9
Structure 212 | Energy: -15.216028 Hartree
O 1.094236 -0.471464 1.230565
H 0.679679 -0.774722 0.420467
H 0.933677 0.471961 1.295910
O -0.114280 1.009700 -2.273977
H -0.988107 0.663598 -2.465626
H 0.014171 1.780593 -2.830136
O -1.873722 0.797818 -0.047865
H -2.657433 0.429800 0.364990
H -1.168650 0.765404 0.601683
9
Structure 213 | Energy: -15.216004 Hartree
O 1.221772 -2.339052 -1.119552
H 1.047423 -1.638907 -1.751597
H 1.739447 -1.957047 -0.408085
O -0.254824 1.757187 0.884728
H 0.066921 1.047170 1.443695
H -1.073607 1.456006 0.486013
O -0.161989 0.157846 -2.361283
H -0.590313 -0.690203 -2.493353
H -0.720043 0.669242 -1.772097
9
Structure 214 | Energy: -15.215999 Hartree
O 0.616634 -1.230620 -0.980747
H 1.474529 -1.578050 -0.728974
H 0.067618 -1.232022 -0.194184
O 0.097154 1.195094 2.461301
H -0.037186 0.351464 2.025034
H -0.417435 1.847690 1.982339
O -1.015898 0.635996 -2.649639
H -0.634457 0.460053 -1.787294
H -0.776348 -0.096311 -3.220980
9
Structure 215 | Energy: -15.215991 Hartree
O 0.653094 1.047493 -0.338767
H 0.866442 0.827971 -1.247818
H 0.820992 0.264603 0.189430
O -1.136840 -2.164317 1.239522
H -0.616885 -1.524847 1.730249
H -0.994837 -1.990236 0.306988
O 2.414259 -1.404636 -0.288121
H 1.854093 -2.124537 0.008608
H 2.762405 -1.651163 -1.147254
9
Structure 216 | Energy: -15.215975 Hartree
O -0.005413 -1.333547 -0.879102
H -0.623430 -0.605521 -0.789026
H 0.387639 -1.266216 -1.751499
O 2.215896 1.705862 0.104315
H 1.669189 2.428513 -0.210292
H 2.138398 0.992887 -0.532669
O -0.752395 0.586630 2.070039
H -1.296873 0.013704 2.613538
H 0.045816 0.099959 1.855332
9
Structure 217 | Energy: -15.215967 Hartree
O 2.663159 0.102921 0.113759
H 2.045485 -0.352659 -0.461574
H 2.237141 0.200253 0.967653
O -0.454170 0.276530 1.871884
H -0.293286 -0.172529 2.704081
H -0.466970 1.218017 2.054988
O -0.246530 -2.263076 -1.781781
H -0.846263 -1.515091 -1.812279
H 0.164817 -2.262206 -0.915247
9
Structure 218 | Energy: -15.215949 Hartree
O 2.440019 -1.086978 1.120914
H 2.232173 -0.536153 0.363633
H 1.641220 -1.564990 1.352270
O -1.630500 1.065927 -0.479645
H -1.763943 0.935309 0.461216
H -0.748162 1.424272 -0.594344
O -0.286374 -0.165928 1.507219
H -0.761549 -0.841346 1.019253
H -0.698988 -0.095777 2.370306
9
Structure 219 | Energy: -15.215928 Hartree
O -1.853986 -0.691510 -1.906887
H -1.356944 -0.150368 -1.290286
H -1.663323 -1.608101 -1.698062
O 0.785887 1.577929 1.756716
H 0.391998 2.012526 2.515705
H 1.061176 0.704130 2.040935
O -0.342648 2.045416 -1.136255
H -0.701307 2.358422 -1.969011
H -0.527401 2.717215 -0.476981
9
Structure 220 | Energy: -15.215926 Hartree
O 0.212532 2.568431 0.496229
H -0.300845 3.373554 0.405113
H 1.053311 2.716626 0.058931
O 0.607564 -0.139277 -1.509993
H 1.191467 0.212659 -0.835243
H -0.223156 0.335536 -1.442574
O 0.644366 -1.327652 2.030725
H 1.333105 -1.714963 1.486923
H -0.158198 -1.828432 1.871983
9
Structure 221 | Energy: -15.215909 Hartree
O -1.484670 -0.596929 1.272926
H -0.788469 -0.854007 1.880624
H -2.253308 -1.132692 1.478484
O -1.967768 1.642739 -0.392110
H -1.618183 0.944488 -0.949177
H -2.535025 1.228032 0.260827
O 1.408435 -2.398121 0.133253
H 0.926785 -2.641777 -0.659676
H 2.302727 -2.731091 0.035980
9
Structure 222 | Energy: -15.215867 Hartree
O 0.556638 2.119821 -1.497287
H 0.207395 1.450627 -0.905434
H 0.856200 1.669844 -2.289677
O -1.880735 -0.091331 1.000546
H -2.151361 0.509582 0.303586
H -2.177100 0.285427 1.831394
O 1.424737 -0.739432 2.291025
H 2.116782 -0.702107 1.627871
H 0.719868 -1.284373 1.935653
9
Structure 223 | Energy: -15.215858 Hartree
O -1.979563 0.681327 -0.843623
H -1.026895 0.610505 -0.930168
H -2.365920 -0.015019 -1.378347
O 2.657136 -0.680069 0.449391
H 2.810537 -0.875628 1.375843
H 2.204948 0.164883 0.408526
O -0.546261 -1.207408 1.052223
H -0.004303 -1.503637 0.318315
H -0.848242 -0.321370 0.842856
9
Structure 224 | Energy: -15.215847 Hartree
O -0.191361 -1.708973 -0.481523
H 0.102145 -2.395164 0.121037
H -0.634496 -2.143615 -1.212836
O -0.735913 2.638430 0.241702
H -0.156989 1.964217 -0.119369
H -0.221248 3.444416 0.316506
O -1.710566 -0.754357 1.645431
H -1.535282 -0.058135 1.009316
H -0.866778 -1.148880 1.874481
9
Structure 225 | Energy: -15.215833 Hartree
O -0.252897 1.037203 1.649428
H 0.438243 1.224710 1.011269
H -0.686205 1.868784 1.851459
O -1.570407 -1.871639 -0.067759
H -0.836036 -1.657013 0.510793
H -2.205376 -2.368713 0.451683
O 2.627838 0.096863 0.314855
H 3.339741 -0.539898 0.403287
H 2.842169 0.842696 0.878669
9
Structure 226 | Energy: -15.215831 Hartree
O 2.013511 1.015037 1.253619
H 2.163156 1.259555 2.168987
H 2.715322 0.411302 1.002491
O -0.451115 -0.846994 -1.455765
H 0.443385 -0.523108 -1.578471
H -0.946550 -0.153319 -1.015939
O -0.706745 0.838401 1.858758
H -0.172668 0.062137 2.038390
H -0.557919 1.079756 0.942413
9
Structure 227 | Energy: -15.215827 Hartree
O 1.124386 1.930672 -0.312156
H 1.216754 1.997495 0.640254
H 0.530299 1.198696 -0.489274
O -1.393415 -1.378683 1.877620
H -2.195844 -1.142556 2.347131
H -0.875318 -1.935016 2.462561
O -1.258240 0.413142 -2.100247
H -2.028063 0.220346 -1.561459
H -1.567717 0.870784 -2.884388
9
Structure 228 | Energy: -15.215799 Hartree
O -0.713549 -1.636220 -0.099718
H 0.163661 -1.992313 0.054497
H -1.343938 -2.294139 0.200035
O 2.383988 0.293639 1.496995
H 1.988328 -0.564325 1.662645
H 2.061683 0.595435 0.645452
O 1.595499 -0.826665 -1.742954
H 1.129328 -1.297245 -2.436733
H 2.499160 -0.704246 -2.040446
9
Structure 229 | Energy: -15.215787 Hartree
O 1.177409 -0.991667 -0.878468
H 0.555751 -0.359784 -0.511936
H 2.056808 -0.705351 -0.623947
O -0.887186 1.013985 1.971355
H -0.576109 1.037650 1.064294
H -1.734759 0.564871 1.969344
O -1.949832 -1.116301 -1.489770
H -1.132789 -1.526314 -1.199217
H -1.711929 -0.370282 -2.043799
9
Structure 230 | Energy: -15.215766 Hartree
O -1.441511 1.823855 -1.474893
H -1.582494 1.532817 -2.377944
H -1.811886 1.152195 -0.898877
O 0.459291 -0.411719 0.856141
H -0.193880 -0.858038 1.398595
H 1.129909 -0.064118 1.447354
O 1.383062 -2.008932 -1.111294
H 0.532625 -1.734202 -0.762909
H 1.826684 -1.221142 -1.431724
9
Structure 231 | Energy: -15.215760 Hartree
O -0.213775 -0.017794 1.166499
H 0.497173 0.063724 1.805239
H -0.823621 0.705120 1.326442
O -0.223166 -0.317300 -2.283804
H -0.540118 -0.017747 -3.138145
H -0.944661 -0.212489 -1.660469
O 1.879072 1.863090 0.521109
H 1.077232 2.210645 0.125698
H 2.429972 1.537264 -0.193339
9
Structure 232 | Energy: -15.215760 Hartree
O 2.131165 0.100387 1.489455
H 1.241473 0.316711 1.775344
H 2.053727 -0.542845 0.782097
O -0.703649 1.996443 0.804470
H -1.398601 1.345489 0.688761
H 0.120154 1.582610 0.539556
O 1.103337 -0.837885 -2.264942
H 0.288822 -1.238042 -2.575638
H 1.652331 -0.676677 -3.034817
9
Structure 233 | Energy: -15.215746 Hartree
O -0.223142 -1.807045 -0.826658
H -0.269387 -0.914809 -0.477577
H -0.815029 -1.848225 -1.580365
O 0.490944 2.406222 1.179197
H 0.304378 1.494168 1.410366
H 1.238260 2.686886 1.711019
O -2.774034 0.046670 -0.348582
H -2.084770 0.709545 -0.423441
H -3.609076 0.483792 -0.526684
9
Structure 234 | Energy: -15.215744 Hartree
O 2.071814 0.462393 -0.766011
H 1.575481 0.501074 -1.585913
H 2.283990 -0.459209 -0.605605
O -2.151942 -0.849158 1.701636
H -1.820480 -1.673316 2.063555
H -1.390364 -0.312845 1.472602
O -1.491041 0.875481 -1.874462
H -1.240465 0.924192 -0.949838
H -2.248782 0.290249 -1.932967
9
Structure 235 | Energy: -15.215735 Hartree
O 0.621965 -0.793880 -2.674274
H -0.283040 -0.495905 -2.563554
H 1.113409 -0.069768 -3.067012
O -1.723331 0.779005 0.419782
H -1.765144 0.668521 1.371692
H -1.498326 1.695839 0.249850
O -0.021831 1.231488 2.382280
H 0.394232 0.584610 1.809102
H 0.227432 2.099493 2.058977
9
Structure 236 | Energy: -15.215733 Hartree
O 2.104576 -0.312971 -0.026321
H 2.238949 -0.284398 0.922999
H 1.266640 -0.753298 -0.181484
O -1.343713 -1.975624 1.385835
H -2.092431 -2.522072 1.632622
H -1.391295 -1.174527 1.911256
O -0.344418 0.953615 -1.415643
H -0.899312 1.712951 -1.226983
H 0.332200 1.242186 -2.031276
9
Structure 237 | Energy: -15.215730 Hartree
O -2.614862 0.052181 0.437815
H -2.870828 -0.663240 1.023251
H -3.327333 0.171551 -0.193244
O 1.546351 -0.745730 -1.116257
H 0.644519 -0.525704 -0.874648
H 1.979643 -1.075326 -0.326502
O 0.602113 -0.716360 2.381562
H 1.085694 0.065857 2.108842
H 0.906377 -0.945903 3.261802
9
Structure 238 | Energy: -15.215714 Hartree
O -1.611731 -1.438869 0.330738
H -2.099208 -1.006830 -0.373386
H -2.254290 -1.867060 0.899833
O 0.618906 -0.184094 2.389003
H -0.321755 -0.327080 2.510657
H 0.986853 -0.997552 2.038305
O 1.399675 0.421724 -1.024956
H 2.080324 0.678332 -0.399687
H 1.419431 -0.535108 -1.089554
9
Structure 239 | Energy: -15.215690 Hartree
O -2.099144 -1.034534 1.455656
H -1.733811 -1.433473 2.247781
H -3.054435 -1.065615 1.536607
O -0.192066 1.773306 -0.732740
H -0.966410 1.214400 -0.642722
H -0.359529 2.573598 -0.231165
O 1.403558 -0.060127 0.112060
H 1.074273 0.767131 0.468859
H 1.258285 -0.038489 -0.835842
9
Structure 240 | Energy: -15.215668 Hartree
O -1.188680 1.627605 0.248533
H -0.482301 1.183445 -0.224576
H -1.413752 2.415046 -0.250846
O 0.657719 -1.565961 -1.771539
H 1.477835 -1.086705 -1.905004
H 0.103125 -1.398331 -2.536009
O 1.999449 1.396092 1.375596
H 1.143313 0.995578 1.212161
H 2.413243 0.901980 2.086031
9
Structure 241 | Energy: -15.215664 Hartree
O 0.882681 0.809787 -1.229172
H 0.779437 0.250280 -2.001425
H 1.102112 0.237677 -0.491174
O -2.593799 -0.297125 1.301186
H -2.574200 0.425104 0.670241
H -2.097844 -1.023014 0.917518
O 0.636121 1.969849 1.511379
H 1.095487 2.753406 1.202977
H -0.106492 1.825370 0.921683
9
Structure 242 | Energy: -15.215659 Hartree
O -1.289758 -0.736998 2.064444
H -0.341837 -0.872173 2.007379
H -1.694360 -1.267678 1.375404
O 0.354285 1.661980 -1.572092
H 0.383384 2.228413 -0.798532
H -0.531881 1.298653 -1.624934
O 2.345501 1.000322 0.887416
H 3.180481 0.705489 0.518671
H 1.998155 1.674838 0.300501
9
Structure 243 | Energy: -15.215658 Hartree
O 1.202851 0.970128 -0.866628
H 0.431228 0.797113 -0.323723
H 0.896961 1.406446 -1.664223
O -1.090311 2.701794 -0.112730
H -0.903190 2.085237 0.597856
H -0.247469 2.982594 -0.474472
O -1.108302 -1.876900 0.151386
H -1.515879 -2.273792 0.923687
H -0.889394 -2.589581 -0.452149
9
Structure 244 | Energy: -15.215657 Hartree
O -0.351388 -0.625979 -1.870661
H 0.421910 -0.205541 -2.251875
H -0.127160 -0.870391 -0.970614
O 1.342140 2.167926 0.968180
H 2.164138 2.524778 0.626034
H 1.251657 2.478602 1.871165
O -1.188608 -0.934261 2.100443
H -1.383257 -1.543345 1.385446
H -0.820097 -0.141439 1.705825
9
Structure 245 | Energy: -15.215642 Hartree
O -1.499059 -0.358105 0.652698
H -0.562156 -0.166466 0.578064
H -1.890069 -0.204131 -0.209568
O 0.617437 1.671788 -1.581864
H 0.882119 2.524763 -1.231915
H 0.502234 1.776429 -2.528367
O 1.958178 -0.785779 1.718152
H 1.386234 -0.070644 2.003729
H 2.856943 -0.538165 1.943981
9
Structure 246 | Energy: -15.215640 Hartree
O -1.539855 0.395907 1.279843
H -1.200402 1.183891 1.708720
H -2.458723 0.304606 1.539547
O -0.493483 -1.962250 -1.659220
H -0.871792 -1.211042 -2.120368
H 0.089208 -1.615128 -0.980938
O 1.633895 -0.297613 -0.765988
H 0.873388 0.275298 -0.882146
H 2.414642 0.222784 -0.965267
9
Structure 247 | Energy: -15.215634 Hartree
O -1.200789 1.606607 -1.707566
H -1.759078 0.830265 -1.632152
H -0.400749 1.337961 -2.163489
O -0.161976 -0.818939 0.266542
H 0.605447 -0.570876 0.785788
H -0.558945 -1.581134 0.692643
O 1.980830 0.534166 -0.417780
H 1.415253 1.004226 -1.033619
H 2.320834 -0.236836 -0.876083
9
Structure 248 | Energy: -15.215623 Hartree
O 1.154631 1.698232 -0.344304
H 1.564381 1.038076 -0.906782
H 1.727139 2.467862 -0.346106
O -1.335038 -1.130677 1.746528
H -1.487167 -0.809603 2.637514
H -2.051660 -0.802248 1.200017
O -1.358381 1.085490 -2.270041
H -0.996963 1.869928 -2.687325
H -0.691413 0.751712 -1.666853
9
Structure 249 | Energy: -15.215619 Hartree
O -1.238405 -1.213910 -2.270119
H -1.236782 -2.152021 -2.070056
H -0.604966 -0.797080 -1.682660
O 1.540168 0.927944 0.218950
H 1.720879 0.161498 -0.328767
H 0.612946 1.145856 0.105547
O -1.535507 -0.037113 1.304223
H -2.038664 0.533150 1.888795
H -1.068678 -0.668163 1.855528
9
Structure 250 | Energy: -15.215617 Hartree
O 1.008210 0.848234 1.742416
H 0.366570 0.965970 1.039196
H 1.024070 1.661057 2.251500
O -1.043907 -2.031750 -1.384841
H -1.969670 -1.853084 -1.561274
H -0.985951 -2.930528 -1.054799
O -1.668321 1.708761 0.771513
H -2.065109 1.585140 1.636018
H -1.799010 2.627216 0.527686
9
Structure 251 | Energy: -15.215607 Hartree
O -0.481375 0.150163 2.535163
H -0.240301 -0.495910 1.868413
H -0.347044 -0.261351 3.391148
O -0.122464 -1.372207 -0.974956
H 0.487474 -1.260052 -1.706725
H -0.213482 -2.314918 -0.822969
O -1.377010 1.551540 -0.761394
H -0.967676 1.130436 -0.002970
H -0.678600 1.981381 -1.258939
9
Structure 252 | Energy: -15.215603 Hartree
O 0.673222 0.313659 -0.323121
H 1.199642 1.002519 -0.733532
H -0.015743 0.073599 -0.945855
O 2.482325 -0.749573 1.345214
H 1.588304 -0.445861 1.514255
H 2.417001 -1.533366 0.796134
O -0.969372 -2.467583 -0.444095
H -1.166026 -1.554194 -0.226983
H -1.803374 -2.898729 -0.640676
9
Structure 253 | Energy: -15.215600 Hartree
O -0.136751 -1.223416 -1.483123
H 0.279411 -1.760228 -2.160415
H -0.670262 -0.564103 -1.931199
O -2.807566 0.422743 0.027463
H -2.293400 0.854456 0.712551
H -2.465656 0.723900 -0.816628
O 1.104731 0.080300 0.913214
H 0.446013 -0.288456 0.321436
H 0.639262 0.618800 1.556213
9
Structure 254 | Energy: -15.215590 Hartree
O 0.605729 -1.499404 0.851265
H -0.337112 -1.354392 0.951788
H 0.752123 -2.446930 0.880643
O 0.182972 0.391586 -2.669149
H -0.727958 0.103225 -2.584627
H 0.292672 0.728662 -3.560459
O -1.639059 0.347330 -0.368464
H -1.574871 0.561319 0.564370
H -1.224170 1.063440 -0.853379
9
Structure 255 | Energy: -15.215587 Hartree
O 1.289424 -0.297832 0.796543
H 0.917315 -0.377950 -0.083910
H 0.557452 -0.308887 1.416377
O -2.280853 -0.481530 0.561221
H -2.953715 -0.502072 1.244540
H -2.578663 0.133107 -0.112290
O -0.874544 0.139858 -2.019287
H -1.410487 0.829752 -2.415396
H -0.678717 0.412884 -1.120844
9
Structure 256 | Energy: -15.215583 Hartree
O -1.449565 -1.655481 0.029175
H -1.462950 -2.481546 -0.458184
H -2.125439 -1.714729 0.707248
O -0.185861 1.755930 -1.861421
H -0.055453 0.897950 -1.452822
H 0.048558 2.419515 -1.209660
O 2.003628 -0.087007 1.998012
H 2.378067 -0.215538 2.871720
H 1.241277 -0.664925 1.927850
9
Structure 257 | Energy: -15.215577 Hartree
O 1.230105 -1.562964 -2.037224
H 1.242882 -1.771191 -1.100976
H 0.441460 -1.964835 -2.406870
O -0.842542 0.641632 0.088266
H -1.153601 1.078785 0.883393
H -0.014482 0.209710 0.307007
O -0.799405 -1.787501 -0.210362
H -1.334925 -1.582946 0.558707
H -1.119772 -1.243403 -0.932451
9
Structure 258 | Energy: -15.215570 Hartree
O 1.603864 0.434744 -1.678999
H 1.206119 -0.134290 -1.017123
H 1.197922 1.299390 -1.591255
O -0.234763 -2.333684 0.946134
H -0.811867 -2.951498 0.492982
H 0.102333 -2.779385 1.725752
O -2.427695 1.126625 -0.061271
H -2.873560 0.397583 0.374382
H -2.379228 0.912717 -0.995072
9
Structure 259 | Energy: -15.215566 Hartree
O -1.126082 1.963586 -1.311535
H -0.752106 1.463674 -0.583310
H -0.723000 2.833850 -1.295281
O -1.859751 -0.033567 0.880916
H -1.947142 -0.373664 1.773544
H -2.222757 -0.694675 0.288252
O 2.023606 -0.748865 1.500792
H 2.977192 -0.840309 1.549796
H 1.807495 0.136899 1.798799
9
Structure 260 | Energy: -15.215546 Hartree
O -1.958671 1.137119 -1.307425
H -1.681108 2.031695 -1.100604
H -2.677864 1.201660 -1.938849
O -1.077949 -1.201610 0.513893
H -1.298133 -0.838297 1.373900
H -0.434747 -0.613477 0.113294
O 1.487024 0.878019 -1.199246
H 0.984512 0.206867 -1.665216
H 1.145369 1.730980 -1.474598
9
Structure 261 | Energy: -15.215539 Hartree
O 2.058936 -0.156480 1.484405
H 2.420727 -0.258880 0.601964
H 2.645618 0.430321 1.965620
O 0.449251 1.465606 -0.598825
H 1.347491 1.246111 -0.343728
H 0.008174 0.643379 -0.821270
O -0.136466 -2.124503 0.413850
H 0.668257 -1.615459 0.529554
H 0.006228 -2.978963 0.825707
9
Structure 262 | Energy: -15.215533 Hartree
O -1.657839 0.339017 -0.367438
H -1.087837 -0.250849 0.129792
H -1.295607 1.223082 -0.281902
O 0.718720 1.933945 -1.940409
H 1.592011 2.285637 -1.756658
H 0.794575 1.376951 -2.717642
O 1.499124 0.546043 1.894483
H 1.631556 0.137449 1.036810
H 1.792221 -0.082694 2.556959
9
Structure 263 | Energy: -15.215518 Hartree
O 0.511466 1.365185 1.729531
H 1.315087 1.098203 1.278979
H 0.279564 2.237152 1.403964
O -0.128416 -0.020071 -2.720164
H 0.663313 -0.393424 -2.327914
H -0.693091 0.268416 -2.000437
O -0.498810 -1.460338 0.414830
H -0.349183 -1.252273 1.339174
H -0.833354 -0.665280 -0.004756
9
Structure 264 | Energy: -15.215512 Hartree
O -0.744083 -2.358817 -1.017095
H -1.681684 -2.556758 -0.974626
H -0.621803 -1.482170 -0.647448
O 0.077602 0.269668 1.683097
H -0.495746 0.734466 2.295734
H 0.582612 -0.366353 2.193519
O 0.363664 -0.088017 -1.959097
H 0.927562 -0.759948 -2.347193
H 0.285101 0.621575 -2.599720
9
Structure 265 | Energy: -15.215506 Hartree
O 0.915332 1.401234 2.332232
H 0.492402 2.013371 1.726839
H 0.219836 0.893320 2.754617
O -1.108991 -0.646558 -1.147628
H -0.731290 -1.488226 -1.410353
H -0.624112 -0.345950 -0.376515
O 2.458991 -0.827601 0.139789
H 3.014413 -1.101971 0.872127
H 3.016903 -0.784603 -0.639297
9
Structure 266 | Energy: -15.215471 Hartree
O -0.583770 1.685690 -1.489923
H -0.270522 1.217564 -0.713512
H -0.662813 1.042259 -2.196923
O -0.504299 -1.923446 1.693633
H 0.222616 -1.919156 2.319464
H -0.914054 -2.789486 1.740144
O 2.303335 0.897611 -0.843662
H 2.263173 1.480184 -1.604639
H 2.518330 0.020914 -1.168113
9
Structure 267 | Energy: -15.215461 Hartree
O -1.284802 -2.111628 -0.503028
H -1.675584 -1.236678 -0.545845
H -1.019165 -2.259886 0.406673
O -1.629029 0.716220 1.302253
H -1.625860 1.296689 2.065885
H -1.106216 -0.055171 1.529650
O 2.077350 1.826340 0.657652
H 1.793200 1.403465 -0.155076
H 2.996719 1.589545 0.794686
9
Structure 268 | Energy: -15.215461 Hartree
O 0.003692 2.743488 -1.104630
H -0.319615 1.856867 -1.276262
H 0.306016 2.764389 -0.194540
O -0.626810 -1.740971 0.075577
H -1.176776 -2.348644 0.573934
H -0.101838 -1.248050 0.709234
O -1.937145 1.347728 1.192020
H -1.879009 1.554489 2.126879
H -1.771601 2.160625 0.710477
9
Structure 269 | Energy: -15.215451 Hartree
O -1.619004 -0.258691 2.401562
H -1.254503 -0.351033 1.519125
H -1.954670 0.636622 2.477999
O 0.625344 1.216349 -1.654440
H 0.187305 0.371778 -1.532333
H -0.059986 1.879363 -1.758471
O 1.372486 -0.136834 0.710649
H 0.795728 0.521067 1.103853
H 2.012089 0.332157 0.171164
9
Structure 270 | Energy: -15.215449 Hartree
O 2.359459 0.705842 -1.167633
H 2.478808 1.122529 -0.311941
H 2.453376 1.390695 -1.832656
O -1.873190 -0.023551 1.100897
H -2.629195 -0.398675 1.556778
H -1.707461 -0.568855 0.329362
O 1.569939 -1.418151 1.466137
H 1.809315 -1.171742 0.570552
H 2.378708 -1.436326 1.981551
9
Structure 271 | Energy: -15.215446 Hartree
O 0.283325 2.533363 0.539489
H -0.499526 2.824071 0.067562
H 0.138238 1.620275 0.795068
O -0.933419 -0.967663 -0.080520
H -1.083166 -1.782323 0.403207
H -1.401535 -0.271236 0.384179
O 2.337519 -0.697790 -1.496221
H 1.436370 -0.663023 -1.823044
H 2.534231 0.159574 -1.113701
9
Structure 272 | Energy: -15.215443 Hartree
O 0.881056 0.434086 -0.747631
H 1.135321 0.377781 0.175549
H 0.028938 0.873246 -0.781302
O -0.779292 -0.092290 2.565389
H -1.397888 0.076417 1.851971
H 0.048563 -0.365072 2.164973
O 0.387510 2.759211 0.022103
H 1.179994 2.809871 -0.515944
H 0.293318 3.602614 0.469194
9
Structure 273 | Energy: -15.215429 Hartree
O -1.343915 2.551879 0.239945
H -1.524361 1.997400 1.001572
H -0.534588 3.032725 0.424003
O -0.895844 -1.369363 -0.934212
H -0.646262 -0.448140 -0.838577
H -0.294722 -1.884240 -0.392324
O 1.234311 0.069471 1.913543
H 1.917480 -0.426690 2.368729
H 1.658839 0.546567 1.197829
9
Structure 274 | Energy: -15.215418 Hartree
O 1.211150 2.346527 -0.890710
H 1.761951 2.817905 -0.262616
H 1.773143 1.714136 -1.342756
O -0.935858 -1.830788 1.043635
H -0.775069 -1.107673 0.434259
H -1.883376 -1.877323 1.185523
O -1.084176 -0.676470 -2.006521
H -1.880462 -0.141754 -1.996571
H -1.358584 -1.595188 -1.979167
9
Structure 275 | Energy: -15.215398 Hartree
O -1.144966 -0.409127 -0.341523
H -1.262678 -0.996096 0.407939
H -0.903933 -0.953536 -1.093602
O 0.361832 1.939410 2.077318
H -0.079734 2.646670 2.551545
H -0.168816 1.148155 2.188746
O 2.139709 -1.133318 1.311559
H 2.420797 -1.421464 0.440896
H 2.547374 -0.280342 1.473829
9
Structure 276 | Energy: -15.215395 Hartree
O 1.194279 0.594445 0.559339
H 1.232125 0.464450 -0.390267
H 1.939398 1.148445 0.800132
O -2.408879 -0.616209 -1.136453
H -1.736630 -1.196509 -0.773930
H -2.016193 -0.157305 -1.881632
O -1.474937 0.726389 1.931739
H -0.883791 0.501580 1.210560
H -1.011800 0.533551 2.749301
9
Structure 277 | Energy: -15.215380 Hartree
O -2.235308 0.249818 -0.598517
H -1.993235 -0.644414 -0.349857
H -2.869410 0.183580 -1.315195
O 1.672274 -0.064919 1.437712
H 0.756540 0.177257 1.588945
H 2.211519 0.681778 1.705567
O 0.128909 -0.763262 -2.664759
H 0.525921 -0.099581 -3.232209
H 0.840513 -1.310489 -2.326746
9
Structure 278 | Energy: -15.215375 Hartree
O -0.561236 -1.143028 1.480619
H 0.289299 -1.296206 1.064435
H -0.635091 -0.199552 1.637139
O 0.400773 2.572244 -0.333488
H 0.468887 3.099753 -1.131726
H -0.531429 2.403279 -0.183360
O -0.435302 -0.296059 -2.754068
H -1.324356 -0.598328 -2.949792
H 0.033311 -1.031565 -2.354665
9
Structure 279 | Energy: -15.215369 Hartree
O -0.986621 1.644016 0.457184
H -1.700532 1.385923 -0.129160
H -0.164667 1.390259 0.032804
O -1.229029 -1.156500 -1.767558
H -1.120154 -1.010659 -0.825770
H -0.767699 -0.447571 -2.219977
O 1.209847 1.333131 2.081792
H 1.638381 1.769711 2.820607
H 0.376539 0.983211 2.403109
9
Structure 280 | Energy: -15.215366 Hartree
O -0.927413 1.352108 -0.299906
H -0.639870 1.790695 -1.103051
H -1.322100 2.020836 0.263232
O 1.063236 -0.629337 2.361581
H 0.812972 -0.673254 1.436634
H 0.917113 0.272825 2.652855
O 1.395909 0.109839 -2.472350
H 1.790357 -0.672560 -2.082025
H 2.012466 0.833251 -2.343424
9
Structure 281 | Energy: -15.215334 Hartree
O -2.066305 -0.038407 0.597842
H -2.532293 -0.706549 1.104322
H -2.142500 0.787632 1.079459
O 2.209463 -0.339467 1.585866
H 2.241625 0.309369 0.880128
H 3.011590 -0.862262 1.527847
O 1.237108 2.271989 0.637232
H 0.706975 1.656271 0.127387
H 0.934122 3.155669 0.419517
9
Structure 282 | Energy: -15.215330 Hartree
O -1.133120 0.233970 1.202005
H -1.975962 0.034109 0.789991
H -0.907861 -0.510337 1.763579
O -0.204488 -2.329824 -1.629733
H -0.469627 -1.876979 -2.432679
H 0.227532 -3.144860 -1.892723
O 1.380780 2.039123 0.665320
H 1.158712 2.571848 1.431467
H 1.218385 1.123212 0.899467
9
Structure 283 | Energy: -15.215329 Hartree
O 0.417535 -2.382138 1.221925
H 1.225215 -1.870700 1.300448
H 0.669740 -3.306616 1.179094
O -0.558594 0.491045 -0.905893
H 0.079049 -0.137781 -1.249515
H -0.251603 0.761550 -0.038326
O 2.051427 0.970914 -0.617599
H 2.482188 0.343644 -1.201609
H 1.832320 1.743390 -1.142349
9
Structure 284 | Energy: -15.215324 Hartree
O -1.222155 -0.901391 -1.452529
H -1.998183 -0.664965 -0.940704
H -0.543509 -1.171929 -0.830960
O -2.036943 0.575635 1.546113
H -2.172551 1.212245 0.841538
H -1.090862 0.440921 1.629011
O 2.124970 -1.800576 -0.108219
H 3.035431 -1.705458 -0.394760
H 1.644157 -1.036013 -0.431255
9
Structure 285 | Energy: -15.215313 Hartree
O 2.654005 -0.179384 1.033128
H 2.626927 -0.562644 1.912026
H 1.796552 0.218524 0.870206
O 0.088330 0.354362 -1.294543
H -0.475621 0.775822 -1.946017
H 0.739690 1.003007 -1.020538
O -1.502813 -0.661296 1.544411
H -2.121462 -0.910671 2.233741
H -1.804316 -1.070007 0.730691
9
Structure 286 | Energy: -15.215301 Hartree
O 0.285270 1.620660 1.260502
H -0.012518 0.713429 1.169194
H 0.742951 1.852344 0.449977
O -2.272048 -0.092063 -1.482592
H -1.469032 -0.031261 -2.003702
H -2.045431 0.149400 -0.582354
O 2.282234 0.136924 -0.665603
H 2.730663 0.981995 -0.735307
H 2.312207 -0.125345 0.256571
9
Structure 287 | Energy: -15.215292 Hartree
O -0.331821 -1.710025 1.409803
H -0.243356 -2.664855 1.386256
H -1.228021 -1.501018 1.139170
O -1.426997 1.838522 -1.129603
H -2.282479 1.883457 -0.698071
H -1.186044 2.733543 -1.376517
O 2.442255 -0.996665 0.522221
H 2.017882 -1.626915 -0.063256
H 1.978099 -1.030953 1.360955
9
Structure 288 | Energy: -15.215273 Hartree
O -0.342747 2.451035 -0.775162
H 0.313314 2.210466 -0.118054
H -0.312306 3.404971 -0.870975
O 0.368215 -1.448849 1.686285
H 0.065867 -0.552303 1.528555
H -0.408528 -2.011337 1.705397
O -2.796295 -0.305056 0.005134
H -1.896923 -0.014543 -0.158643
H -3.197277 0.332972 0.598618
9
Structure 289 | Energy: -15.215271 Hartree
O -1.960261 1.124566 -0.204591
H -2.445185 1.948130 -0.122905
H -2.416472 0.589833 -0.857302
O -0.334314 -1.554827 1.299784
H -0.186584 -1.562528 2.247520
H 0.312491 -0.959278 0.916311
O 0.294695 0.238472 -1.502870
H 0.105356 -0.695148 -1.615097
H -0.538290 0.708218 -1.577478
9
Structure 290 | Energy: -15.215266 Hartree
O -1.559072 0.338028 -1.641545
H -1.612398 1.254951 -1.918113
H -0.695427 0.211018 -1.243945
O 2.070455 -1.073275 0.623773
H 2.892634 -1.196047 1.102352
H 1.578992 -1.894502 0.688094
O 1.146798 2.389406 -0.963971
H 0.735227 2.596913 -0.122757
H 1.389585 3.221689 -1.374396
9
Structure 291 | Energy: -15.215241 Hartree
O 0.942996 0.039405 -1.300178
H 0.052244 -0.283482 -1.449799
H 0.875675 0.974069 -1.095310
O -0.293560 -0.306246 2.296868
H -0.654862 0.316881 2.930321
H 0.210296 -0.954946 2.792251
O -1.428745 2.095489 -1.160180
H -1.057508 2.630498 -0.455879
H -2.175564 2.578073 -1.519991
9
Structure 292 | Energy: -15.215230 Hartree
O -0.700181 1.742197 -0.299618
H -0.965879 1.535139 0.598499
H 0.170856 2.141259 -0.253315
O -0.528502 -2.494210 0.874411
H -0.038263 -3.303479 0.716805
H -0.738252 -2.117705 0.017476
O 2.288667 -1.534584 -0.824296
H 2.321368 -0.722496 -1.333741
H 3.073650 -1.556159 -0.273455
9
Structure 293 | Energy: -15.215229 Hartree
O 0.878600 1.782941 -0.089063
H 0.392876 2.500944 -0.499704
H 0.287478 1.362511 0.538562
O 2.016861 -1.081369 1.297741
H 1.641687 -1.570309 0.562709
H 1.982556 -0.150949 1.067024
O -0.982340 0.608503 -2.425403
H -1.324732 -0.084169 -1.857015
H -1.697377 1.229114 -2.579203
9
Structure 294 | Energy: -15.215206 Hartree
O -0.405471 -1.379294 -1.592569
H -0.529875 -2.023753 -2.292052
H -0.666302 -1.798665 -0.770258
O 1.459119 0.451841 2.290570
H 1.818966 -0.435459 2.233147
H 2.199877 1.060809 2.267700
O 2.401610 -0.351173 -0.692698
H 2.680465 -0.468256 0.217589
H 1.488347 -0.638990 -0.749280
9
Structure 295 | Energy: -15.215170 Hartree
O -1.919442 -0.199394 -1.617737
H -2.516571 -0.931869 -1.453421
H -1.048238 -0.571422 -1.768397
O 1.415846 0.674023 1.223298
H 1.763739 -0.103116 0.781581
H 0.471955 0.541135 1.330526
O -1.592947 2.195388 1.057970
H -0.833479 1.911087 0.545649
H -2.375780 1.866092 0.612072
9
Structure 296 | Energy: -15.215170 Hartree
O -1.537884 -1.464204 -1.340733
H -2.489002 -1.577472 -1.391996
H -1.374496 -0.572597 -1.026979
O -0.285072 1.222023 1.228947
H -0.681334 0.401070 1.527444
H 0.165198 1.036127 0.402637
O 2.557529 0.346041 0.935627
H 3.264824 -0.300768 0.973895
H 2.963667 1.213964 0.978651
9
Structure 297 | Energy: -15.215168 Hartree
O -0.084028 -0.952802 -2.731034
H 0.476528 -1.576015 -2.264703
H -0.839644 -1.442579 -3.061584
O -0.647949 0.292184 1.836328
H -0.600337 0.930115 2.551077
H -0.667368 -0.580071 2.234927
O 1.084043 -1.158733 -0.078067
H 0.962060 -0.220285 -0.234682
H 1.847377 -1.435121 -0.588969
9
Structure 298 | Energy: -15.215159 Hartree
O 1.987734 0.075576 -1.934019
H 1.592165 -0.613863 -2.470937
H 2.937687 0.019769 -2.054747
O 1.062403 -0.362257 1.366935
H 1.205565 0.564682 1.165991
H 0.573033 -0.739648 0.633327
O -2.185229 0.594905 -0.066530
H -2.004052 0.288252 -0.957165
H -1.352695 0.890759 0.306896
9
Structure 299 | Energy: -15.215155 Hartree
O 1.605871 -0.914592 -1.786695
H 2.448718 -0.462120 -1.716275
H 1.090579 -0.677299 -1.013218
O -1.268198 1.520983 0.680438
H -1.758844 0.813021 1.102510
H -1.698874 1.705289 -0.156603
O 1.087456 1.381646 1.975723
H 1.384179 2.238523 2.288465
H 0.889140 1.473227 1.041713
9
Structure 300 | Energy: -15.215148 Hartree
O 0.354468 -1.849396 0.739294
H -0.313103 -2.325212 0.241268
H 0.903107 -1.383120 0.105510
O -1.992654 1.382932 -0.560319
H -2.496772 0.581586 -0.714587
H -1.108474 1.116719 -0.300621
O 2.264219 -0.572888 -1.565499
H 1.818223 0.204592 -1.907118
H 1.957325 -1.324115 -2.076932
9
Structure 301 | Energy: -15.215140 Hartree
O -0.876645 -2.249133 1.427662
H -0.224888 -2.906403 1.176082
H -1.551889 -2.243394 0.746404
O -0.062486 0.081026 -2.076146
H 0.875801 -0.081435 -2.191524
H -0.528724 -0.518506 -2.662039
O -1.727331 0.458526 1.721374
H -1.003738 -0.170079 1.758271
H -2.534217 -0.044298 1.594125
9
Structure 302 | Energy: -15.215136 Hartree
O -1.546035 -0.487507 -1.480291
H -0.628107 -0.579123 -1.217431
H -2.074848 -0.517173 -0.680555
O -1.624352 1.733493 0.476050
H -1.376077 2.416580 -0.149923
H -2.582839 1.704906 0.499962
O 2.728442 -0.253193 -0.865312
H 2.126041 -0.989313 -0.989133
H 3.276224 -0.199180 -1.650874
9
Structure 303 | Energy: -15.215127 Hartree
O 1.682843 0.742432 1.708288
H 1.915559 0.930514 0.796943
H 1.048498 1.407621 1.982568
O 0.411920 -0.979653 -1.079368
H -0.107781 -1.025397 -0.274441
H 1.071901 -1.674054 -1.031210
O -1.446603 1.136490 0.814668
H -1.023543 1.299130 1.660043
H -1.908788 1.940309 0.569007
9
Structure 304 | Energy: -15.215118 Hartree
O 0.403178 1.429175 2.077540
H 0.113524 1.361958 1.165584
H 0.252346 0.575042 2.487184
O -1.093352 -0.218763 -0.487049
H -0.974337 -0.286786 -1.436416
H -1.239437 -1.106640 -0.154750
O 2.290778 -0.509927 -1.643413
H 2.169304 -1.362444 -1.220862
H 2.369290 -0.668757 -2.586122
9
Structure 305 | Energy: -15.215115 Hartree
O 0.937626 1.672493 0.113779
H 0.314102 1.076806 0.533846
H 0.435407 2.415293 -0.226991
O 0.269921 -1.897228 -1.633126
H 0.629889 -1.386994 -2.361257
H 0.974681 -2.015264 -0.993229
O -1.886579 0.711508 1.778996
H -1.669439 1.540736 1.348504
H -2.433405 0.210358 1.170786
9
Structure 306 | Energy: -15.215108 Hartree
O 0.483587 0.257714 2.272344
H 1.094717 -0.092288 1.621114
H 0.324118 -0.436865 2.914396
O 1.730722 -1.134840 -1.033769
H 1.252789 -0.324838 -0.845184
H 1.079412 -1.831320 -1.137688
O -1.632078 -1.276959 -2.035109
H -1.186464 -0.793942 -1.336386
H -2.543227 -1.397567 -1.760607
9
Structure 307 | Energy: -15.215088 Hartree
O 0.441729 -0.271543 0.656544
H 0.673264 -0.743389 1.458937
H -0.381380 -0.644685 0.335052
O 0.442065 1.348393 -1.814601
H 0.628355 0.407848 -1.842160
H 1.084371 1.781865 -2.379962
O -2.004889 -1.823779 0.425636
H -1.630232 -2.324513 -0.301681
H -2.553766 -2.425795 0.931995
9
Structure 308 | Energy: -15.215072 Hartree
O 0.825125 -1.963405 1.653826
H 1.358474 -2.732547 1.863689
H 0.788184 -1.895638 0.697718
O 1.984351 0.309139 -0.546791
H 2.446795 -0.376308 -1.032998
H 2.313911 1.152858 -0.862413
O -1.457639 0.922609 -1.831602
H -0.819955 0.585752 -1.199163
H -1.580235 1.854919 -1.642244
9
Structure 309 | Energy: -15.215069 Hartree
O 0.518119 -1.867088 1.415286
H 0.785274 -1.064877 1.868240
H 0.098660 -1.603310 0.593961
O 0.304665 1.147585 -1.446211
H 0.180021 1.762775 -0.720888
H 0.205057 1.644618 -2.260536
O -2.760988 0.267704 -0.086560
H -2.077721 -0.191638 -0.578741
H -2.333178 0.706709 0.651236
9
Structure 310 | Energy: -15.215067 Hartree
O 0.762818 0.502412 -0.302047
H 1.489541 -0.110239 -0.173151
H 0.800059 0.799617 -1.213301
O -2.392907 -0.504466 1.530276
H -2.000710 -1.026698 2.232803
H -1.981269 -0.779030 0.708536
O -0.680154 -2.187040 -0.912247
H -1.525436 -2.254516 -1.360617
H -0.102829 -2.851788 -1.292901
9
Structure 311 | Energy: -15.215061 Hartree
O -1.244344 0.906732 -1.221676
H -0.928965 0.355390 -0.502899
H -0.506840 1.043260 -1.819630
O -0.038212 -1.378593 1.959208
H 0.332894 -0.638645 1.474598
H -0.992950 -1.301992 1.907282
O 2.780852 0.240215 -0.359936
H 3.611474 -0.044136 0.026463
H 2.818159 0.035123 -1.296224
9
Structure 312 | Energy: -15.215055 Hartree
O -2.592299 0.032045 0.564401
H -3.085139 -0.676384 0.145690
H -3.099759 0.319613 1.325906
O 1.401788 -0.428625 -0.949454
H 1.410005 -0.745418 -0.044102
H 2.039137 0.285980 -1.006139
O 0.622005 1.574188 0.970247
H 1.162954 0.984226 1.498840
H 0.174611 1.037205 0.313301
9
Structure 313 | Energy: -15.215035 Hartree
O 0.011034 0.981891 -2.222095
H -0.600677 1.555403 -1.756290
H -0.362697 0.812335 -3.089087
O 0.417096 -0.335058 0.598397
H -0.005992 0.239121 -0.043010
H 0.922415 -0.985861 0.107278
O -1.656670 -1.827932 1.080967
H -1.909094 -0.946551 1.362997
H -1.508366 -2.348088 1.873137
9
Structure 314 | Energy: -15.215021 Hartree
O 0.809762 1.268350 2.308742
H 0.891543 0.476395 2.843719
H 1.690170 1.498315 2.005263
O -0.753530 -0.953061 -0.193221
H -0.135887 -1.676086 -0.319085
H -1.536928 -1.155778 -0.708275
O 1.100973 0.549243 -1.872580
H 0.613199 0.705361 -1.061535
H 1.492858 -0.323641 -1.804828
9
Structure 315 | Energy: -15.215021 Hartree
O 0.838924 -0.370913 0.729851
H 1.380424 0.379354 0.982753
H 0.997151 -0.534160 -0.202037
O -2.689597 -0.761980 0.452976
H -2.068917 -0.788509 -0.277873
H -3.188588 -1.580909 0.431734
O -0.830450 -0.963974 -2.237897
H -0.027993 -1.487668 -2.194335
H -0.705716 -0.309991 -2.928432
9
Structure 316 | Energy: -15.215005 Hartree
O -2.745119 -0.074767 0.305527
H -2.537459 -0.912934 -0.112128
H -2.167631 0.586205 -0.081413
O 1.119831 0.332329 -0.008520
H 1.782002 0.059935 -0.646814
H 1.261513 1.264548 0.167499
O -0.742382 1.228836 -1.865624
H -1.190049 2.076116 -1.823154
H -1.104464 0.753553 -2.616019
9
Structure 317 | Energy: -15.215000 Hartree
O 0.261213 2.299003 -1.501193
H 0.585075 2.639338 -0.664911
H 0.231275 1.343172 -1.426431
O 0.828469 -0.959862 1.235371
H 1.572650 -1.373902 0.793948
H 0.777339 -0.055927 0.918551
O -2.060365 0.510126 -0.299557
H -2.536744 0.060301 -1.000137
H -1.961720 -0.113399 0.422645
9
Structure 318 | Energy: -15.214997 Hartree
O 1.051794 1.272081 -1.257782
H 1.976968 1.304254 -1.508978
H 1.019533 1.116569 -0.311803
O -0.868411 -2.156761 1.443964
H -0.958931 -1.405479 2.033430
H -1.626663 -2.725700 1.590423
O 1.301388 -1.168042 -2.257608
H 0.943186 -0.312349 -2.501684
H 1.385913 -1.178563 -1.302185
9
Structure 319 | Energy: -15.214989 Hartree
O -1.210689 0.782557 -1.417161
H -2.142039 0.554182 -1.394503
H -0.982612 1.131252 -0.553162
O -0.367466 -1.201636 2.038592
H -0.920411 -1.635526 1.385844
H -0.025595 -0.401623 1.634623
O 2.475815 1.214615 -0.722694
H 2.988700 0.404040 -0.725764
H 1.613421 1.006474 -1.087446
9
Structure 320 | Energy: -15.214967 Hartree
O 2.055155 -0.367128 1.957907
H 1.713723 0.208369 1.270659
H 2.812630 0.073993 2.347451
O -1.129012 0.648638 -0.884521
H -1.397316 0.657346 -1.805404
H -1.778586 1.156681 -0.394588
O -0.273799 -2.180304 0.029025
H 0.221470 -2.968909 0.259028
H 0.326974 -1.436127 0.102255
9
Structure 321 | Energy: -15.214963 Hartree
O 1.197410 -0.286424 2.494491
H 1.264400 0.419714 1.848765
H 0.785281 -1.033702 2.056514
O -1.458424 1.344133 -1.094996
H -2.384139 1.100917 -1.031859
H -0.983196 0.573417 -1.411607
O -1.307430 -0.547583 0.595364
H -2.002094 -1.197554 0.472606
H -1.716530 0.240213 0.958826
9
Structure 322 | Energy: -15.214952 Hartree
O 2.549050 -0.716247 0.068439
H 2.765134 0.142285 0.437644
H 2.482008 -0.607898 -0.882279
O -0.570316 0.817499 -0.784881
H -0.468239 -0.022335 -0.332833
H 0.077515 1.420097 -0.414370
O -1.188387 0.831448 2.388341
H -1.751661 1.112393 1.664542
H -0.341431 0.586416 2.010565
9
Structure 323 | Energy: -15.214948 Hartree
O 0.226062 -1.627291 0.585440
H 0.518391 -0.725738 0.437693
H 0.568207 -2.158709 -0.136108
O 2.624370 0.145118 -0.415050
H 2.463762 0.068323 0.527498
H 1.926938 0.694478 -0.778203
O -1.542160 0.859722 -1.387090
H -1.322263 1.792483 -1.345935
H -2.492710 0.787014 -1.280985
9
Structure 324 | Energy: -15.214926 Hartree
O 0.992966 2.172938 -1.458388
H 1.582665 2.916844 -1.320764
H 1.501951 1.482660 -1.887982
O 0.735475 -0.726742 1.790550
H 1.408687 -0.715883 2.473745
H 0.267030 0.108839 1.840060
O -1.344798 0.530742 -0.227830
H -2.178554 0.732011 -0.657286
H -0.837023 1.343987 -0.198036
9
Structure 325 | Energy: -15.214924 Hartree
O 1.307970 0.517017 0.662720
H 0.362088 0.362719 0.622969
H 1.460406 1.172320 1.346417
O 0.827629 -1.056752 -2.051064
H 0.131822 -1.708830 -1.947447
H 0.466830 -0.210673 -1.778921
O -0.752709 2.240683 1.470571
H -0.341585 3.087661 1.287006
H -1.683649 2.324136 1.254986
9
Structure 326 | Energy: -15.214914 Hartree
O -1.529412 -2.442760 0.221317
H -0.859115 -2.725624 -0.403801
H -1.074040 -2.151937 1.013881
O 0.194441 0.381847 -1.131426
H 0.679730 0.938757 -0.519514
H -0.603152 0.855607 -1.375321
O 0.295355 0.162044 2.419663
H 1.232656 0.322749 2.294240
H 0.004942 -0.401466 1.699797
9
Structure 327 | Energy: -15.214912 Hartree
O -0.698215 -1.855781 0.197805
H -1.577253 -1.514954 0.021136
H -0.802526 -2.742459 0.548549
O -1.760745 1.112118 -1.619114
H -2.361665 1.522147 -2.244302
H -1.318714 1.818912 -1.144626
O 1.424156 -0.438659 1.864129
H 2.234814 -0.005517 1.589697
H 0.731314 -0.149196 1.267244
9
Structure 328 | Energy: -15.214904 Hartree
O -1.198090 1.946983 -0.579557
H -1.663223 1.122517 -0.424675
H -0.270696 1.789542 -0.391801
O 0.247221 -0.283749 2.530596
H 0.251243 -0.960082 3.210776
H -0.396371 -0.548582 1.870489
O 1.849328 1.031995 1.069198
H 1.141112 1.451922 1.561318
H 2.670721 1.243400 1.517207
9
Structure 329 | Energy: -15.214903 Hartree
O 0.779966 -2.062204 -1.800596
H 0.243800 -2.857557 -1.795992
H 1.096567 -1.927864 -0.905154
O 0.704676 1.425405 0.293642
H 0.278020 0.913057 -0.395962
H 1.083800 0.802593 0.916906
O -1.953794 0.628220 -1.633707
H -2.254260 -0.253447 -1.862782
H -1.349227 0.910304 -2.322922
9
Structure 330 | Energy: -15.214878 Hartree
O -1.029610 1.376633 -1.412788
H -0.803939 2.308907 -1.417289
H -0.228845 0.891533 -1.204092
O -0.276953 -1.594781 1.808655
H -0.019529 -0.754923 2.193962
H -0.180302 -2.261901 2.491075
O 2.270131 1.250867 -1.090724
H 2.348828 0.735139 -0.285788
H 2.914143 1.959780 -1.037988
9
Structure 331 | Energy: -15.214878 Hartree
O 2.202264 0.102529 0.814534
H 2.696003 0.889052 1.054710
H 2.324490 -0.536001 1.519828
O -0.613146 -1.109599 -1.409173
H -0.093749 -0.812718 -2.158957
H -0.081748 -1.749077 -0.930872
O -0.384916 0.923404 1.008775
H -0.982367 1.659294 0.861774
H 0.200213 0.876646 0.250140
9
Structure 332 | Energy: -15.214878 Hartree
O -1.761754 0.506321 -0.650808
H -1.634415 1.393405 -0.992786
H -0.900000 0.085911 -0.623693
O 1.274912 -0.371157 2.232815
H 1.839949 -1.030331 1.825003
H 1.535898 -0.303619 3.153366
O 1.808839 0.963250 -1.244194
H 2.264294 1.076216 -2.080789
H 2.466224 0.703795 -0.595643
9
Structure 333 | Energy: -15.214871 Hartree
O 0.118122 1.725281 -1.008774
H -0.576990 1.612435 -0.357493
H 0.360094 0.850952 -1.320379
O 1.998867 -1.043256 1.287141
H 1.046673 -1.022102 1.173263
H 2.346793 -0.227293 0.922120
O -0.449694 -0.876703 -2.192567
H -0.454931 -1.171784 -1.279884
H -0.994649 -1.488079 -2.691901
9
Structure 334 | Energy: -15.214855 Hartree
O -0.719832 -2.060878 1.574919
H -0.347386 -2.364005 0.744570
H -0.316025 -1.214133 1.775077
O 1.719979 0.012696 -0.258933
H 1.991690 0.249999 -1.147724
H 0.767844 -0.102596 -0.274236
O -0.954103 2.076656 -1.437339
H -0.033111 1.991450 -1.691517
H -1.254357 2.935495 -1.741202
9
Structure 335 | Energy: -15.214804 Hartree
O 0.799666 0.997133 1.684495
H 0.857945 0.530591 2.520572
H 0.709532 0.335619 0.995746
O 0.610873 -1.165872 -2.202311
H 0.108685 -1.673997 -2.842393
H 0.101722 -0.377812 -2.002773
O -2.634577 0.779386 1.066360
H -2.641271 1.734411 1.155659
H -1.844455 0.545530 0.575331
9
Structure 336 | Energy: -15.214803 Hartree
O 0.594419 1.499415 -2.203011
H -0.337593 1.725209 -2.181746
H 0.806307 1.252256 -3.105294
O 0.568443 -0.657906 1.092787
H -0.288689 -0.392581 0.753646
H 1.077653 -0.988851 0.350312
O -2.038609 0.114252 -0.999705
H -1.461707 0.847576 -0.777195
H -2.121957 -0.430054 -0.214292
9
Structure 337 | Energy: -15.214798 Hartree
O -0.128152 -1.728450 -0.972137
H -0.172681 -2.664963 -1.174724
H 0.740015 -1.559052 -0.601069
O -1.821760 1.469791 0.434040
H -0.885418 1.449797 0.641294
H -1.906562 1.329295 -0.511030
O 2.441584 0.384228 -0.063065
H 2.170151 0.001457 -0.899667
H 3.351435 0.120709 0.087997
9
Structure 338 | Energy: -15.214773 Hartree
O 0.180590 0.947239 2.268153
H 0.253924 0.463478 1.443120
H -0.332405 1.737771 2.089285
O 0.574198 -0.152971 -1.623618
H -0.062398 -0.252203 -0.912994
H 0.077615 -0.015535 -2.432694
O -1.415763 -2.299254 -0.025778
H -0.812396 -2.978532 -0.333382
H -0.947676 -1.779639 0.630717
9
Structure 339 | Energy: -15.214772 Hartree
O 2.366703 1.013202 0.630158
H 3.050042 0.755676 1.252098
H 1.724686 1.536393 1.114086
O 1.072303 -0.496112 -1.931085
H 1.554492 -1.284063 -2.189378
H 0.367439 -0.372303 -2.569776
O -0.850626 0.738528 1.450074
H -1.612006 0.157728 1.394733
H -0.387148 0.679911 0.612314
9
Structure 340 | Energy: -15.214751 Hartree
O -1.330292 0.515591 -0.737429
H -0.798720 -0.281817 -0.696762
H -0.758260 1.250364 -0.507239
O 0.889381 0.464432 -2.462259
H 1.531865 -0.230069 -2.620286
H 1.377439 1.251173 -2.211408
O 0.484957 -0.633444 1.968311
H -0.019936 0.138730 2.230837
H 0.101512 -1.389577 2.417001
9
Structure 341 | Energy: -15.214744 Hartree
O 0.612079 -0.501154 0.420048
H 0.163224 0.180016 -0.084550
H 1.551409 -0.408876 0.249042
O 0.496795 2.035703 -1.670267
H 1.281336 1.602836 -1.327909
H -0.207590 1.384622 -1.675166
O -2.127768 1.031352 0.187100
H -2.724908 1.158695 0.926896
H -1.512179 1.766972 0.189049
9
Structure 342 | Energy: -15.214735 Hartree
O 1.188036 -1.258705 2.142803
H 0.351144 -1.382600 1.690758
H 0.992430 -1.134206 3.073576
O 1.641146 0.693459 -0.599592
H 1.129285 1.066777 -1.319814
H 2.489376 1.141273 -0.592004
O -1.482370 -0.096042 0.262045
H -0.876530 0.469653 0.744785
H -1.625775 0.308079 -0.595982
9
Structure 343 | Energy: -15.214695 Hartree
O 0.763517 -0.403552 -1.166079
H 0.702948 -1.354350 -1.054740
H 0.831730 -0.018742 -0.290083
O -0.396672 1.566515 1.787598
H -0.302945 0.882009 2.452997
H 0.085890 2.334366 2.100049
O -2.694278 -0.843405 -0.377642
H -2.504985 -0.047182 0.122648
H -3.597380 -1.096927 -0.177085
9
Structure 344 | Energy: -15.214694 Hartree
O 1.409315 -0.959367 -0.564589
H 0.718311 -0.483937 -0.099226
H 2.241611 -0.534271 -0.348543
O -0.676346 1.358461 1.313834
H -0.144355 1.626587 0.562047
H -0.966611 2.158548 1.756207
O 0.103559 -1.492091 2.059178
H 0.506010 -2.311036 2.354903
H -0.765956 -1.709966 1.717763
9
Structure 345 | Energy: -15.214691 Hartree
O 0.022836 -2.682529 1.118280
H -0.669400 -2.251893 1.623694
H 0.858422 -2.458245 1.532518
O 2.074108 0.628251 -0.277341
H 1.677691 -0.046816 0.276940
H 2.406702 0.190955 -1.063624
O -1.479843 0.987863 -1.839079
H -1.116083 0.165255 -1.505784
H -0.867976 1.686692 -1.599607
9
Structure 346 | Energy: -15.214675 Hartree
O 0.470867 -0.582918 1.214142
H 0.713355 -0.361885 0.312796
H 1.078386 -0.119019 1.793641
O 0.418745 2.250464 -0.739551
H 0.617758 1.489738 -1.288895
H 0.079479 2.936998 -1.317182
O -2.694220 -0.518931 0.776926
H -2.728171 -1.477146 0.804527
H -2.433265 -0.218679 1.649761
9
Structure 347 | Energy: -15.214659 Hartree
O 0.891567 0.723573 -1.030237
H 1.194263 1.494889 -1.513483
H 1.194485 -0.049496 -1.510555
O 0.244156 -0.451341 2.365966
H 1.144627 -0.686427 2.598294
H -0.135397 0.000920 3.121934
O -2.601757 0.466874 -0.695268
H -1.774653 0.813017 -1.036112
H -2.584541 0.576725 0.257479
9
Structure 348 | Energy: -15.214655 Hartree
O -0.808605 1.286695 -0.270554
H -0.736998 1.783500 -1.087951
H -0.257357 0.507125 -0.362731
O -0.609842 -1.143604 1.991174
H -0.057553 -1.915672 1.853426
H -0.062030 -0.472231 2.402572
O 2.227432 -0.370700 -1.253660
H 2.945543 -0.620331 -0.668774
H 2.622150 -0.035516 -2.061088
9
Structure 349 | Energy: -15.214653 Hartree
O 0.173598 2.551728 -0.237473
H 0.485732 2.343721 -1.120302
H 0.836467 3.109708 0.174063
O 0.893089 -1.407277 0.336891
H 0.822589 -0.926639 1.163998
H 0.056157 -1.308542 -0.121240
O -0.918200 0.140668 -1.698760
H -0.983567 -0.735930 -2.082679
H 0.010097 0.304552 -1.521289
9
Structure 350 | Energy: -15.214649 Hartree
O -1.065297 0.253982 -0.066331
H -1.953711 -0.104489 -0.018369
H -0.498971 -0.319942 0.453271
O -0.869465 -0.672690 2.415796
H -1.616030 -0.196754 2.784869
H -0.897319 -1.563627 2.770118
O 1.898756 0.226787 -1.574757
H 2.474874 -0.333309 -2.098657
H 0.998255 0.045282 -1.850878
9
Structure 351 | Energy: -15.214644 Hartree
O -0.112178 -2.225738 -0.856789
H -0.808584 -1.693877 -0.466631
H -0.286438 -3.139084 -0.621138
O 0.877280 1.104975 0.018831
H 0.366729 0.967089 -0.781427
H 0.266918 1.055862 0.757164
O -1.220325 -0.495762 1.687874
H -1.275578 -0.557103 2.643528
H -1.819862 -1.151281 1.326016
9
Structure 352 | Energy: -15.214635 Hartree
O 1.368316 -1.720573 -1.802540
H 0.862885 -2.533704 -1.743894
H 2.065586 -1.865241 -2.445179
O 0.163645 1.505679 1.393374
H 0.958143 2.043107 1.387682
H -0.366402 1.790199 2.140493
O -1.533843 -0.293243 -0.769111
H -0.675713 0.113676 -0.903726
H -1.400211 -1.243091 -0.764380
9
Structure 353 | Energy: -15.214628 Hartree
O -0.349719 -1.251263 -1.505889
H 0.553724 -1.019666 -1.730020
H -0.316040 -2.057962 -0.988006
O 1.401935 0.604694 2.297815
H 1.927131 0.611192 3.100446
H 2.012850 0.576957 1.558828
O -0.012096 1.317737 0.334016
H -0.884213 1.205477 -0.049260
H -0.132842 1.484122 1.270940
9
Structure 354 | Energy: -15.214627 Hartree
O 0.116996 2.154060 -0.196569
H 0.604876 1.330766 -0.261704
H 0.111446 2.550821 -1.069867
O -1.644985 -1.956109 0.915084
H -1.271972 -1.304426 1.511958
H -2.259201 -2.488807 1.424062
O 1.042255 0.371134 2.243584
H 1.745012 -0.222849 1.972648
H 1.412854 0.972201 2.892787
9
Structure 355 | Energy: -15.214626 Hartree
O -1.038720 -1.732348 -0.396255
H -0.666111 -0.852389 -0.313088
H -0.699707 -2.108552 -1.210896
O -1.437180 1.738802 1.111659
H -0.835019 2.035832 1.796687
H -1.030769 0.982020 0.684811
O 0.922980 -1.249549 -2.207140
H 0.953775 -1.822447 -2.975861
H 1.560112 -0.547029 -2.350725
9
Structure 356 | Energy: -15.214626 Hartree
O -0.001402 -0.445050 0.541940
H 0.851335 -0.735170 0.212166
H -0.291134 -1.092011 1.188159
O -2.225670 0.357242 -1.402084
H -1.421770 0.753400 -1.743979
H -2.870693 0.365715 -2.111987
O 1.328234 1.614643 -1.007381
H 1.047862 1.310202 -0.142050
H 1.102076 0.927504 -1.637287
9
Structure 357 | Energy: -15.214618 Hartree
O -1.179753 0.328184 1.294850
H -0.773074 -0.274525 1.920499
H -1.458658 1.102889 1.786931
O 1.620452 -1.908456 -0.017172
H 1.724532 -1.598156 -0.918820
H 0.818196 -1.512419 0.328701
O 1.394535 2.478013 0.394219
H 0.526586 2.685157 0.746139
H 1.749453 3.286501 0.019426
9
Structure 358 | Energy: -15.214583 Hartree
O -2.270872 -1.812496 -0.353328
H -1.894711 -1.245850 0.323058
H -2.344244 -1.289121 -1.153825
O 0.282054 1.929336 0.586278
H 1.193685 2.226389 0.558402
H 0.296798 0.971522 0.635899
O 1.567951 0.507844 -1.980332
H 2.245182 0.162946 -2.565562
H 0.755695 0.037175 -2.177310
9
Structure 359 | Energy: -15.214567 Hartree
O 1.406831 0.613448 1.677014
H 0.758629 0.381581 1.009066
H 1.713500 1.500577 1.479388
O 1.264847 -2.502986 -0.171343
H 0.683257 -2.859111 0.503206
H 2.047679 -3.056885 -0.192741
O -2.095001 0.827856 0.549342
H -1.705893 1.615839 0.164934
H -2.235250 1.006004 1.481374
9
Structure 360 | Energy: -15.214561 Hartree
O 2.390035 -1.250096 0.914071
H 3.277864 -1.226038 1.276372
H 2.078031 -0.344291 0.866424
O -1.432851 -0.105181 1.367522
H -0.489427 0.065874 1.339608
H -1.652853 -0.612546 0.583769
O -0.314460 -1.468802 -2.195253
H 0.229222 -2.129568 -2.628717
H -1.162454 -1.460127 -2.643495
9
Structure 361 | Energy: -15.214561 Hartree
O 0.948583 1.732694 1.885745
H 0.531005 1.098501 2.471843
H 0.993901 1.329310 1.016649
O -1.152934 -0.091353 -0.089528
H -1.976370 0.286267 -0.404875
H -1.378045 -0.768206 0.551785
O 0.838723 -0.121215 -2.462470
H 1.015517 0.479025 -1.735458
H 1.638379 -0.172004 -2.989784
9
Structure 362 | Energy: -15.214557 Hartree
O -0.280348 0.377464 2.575837
H -0.242598 0.696373 1.671982
H -1.138220 -0.034467 2.696125
O 0.798577 -1.869661 -0.070003
H 0.403568 -1.582584 0.755614
H 0.548318 -1.232013 -0.741468
O 0.539982 2.020767 -1.176270
H 0.808018 1.757748 -0.293621
H 1.338790 2.120273 -1.697896
9
Structure 363 | Energy: -15.214548 Hartree
O 2.799406 0.447544 0.843546
H 2.038915 0.031393 1.254100
H 2.607482 0.529367 -0.092707
O 0.396670 -1.187589 -1.794435
H 0.030623 -1.033158 -2.667504
H 0.482067 -0.333122 -1.367023
O -0.191851 0.199946 1.215119
H -0.148133 0.724810 0.413434
H -0.964501 -0.363965 1.143669
9
Structure 364 | Energy: -15.214539 Hartree
O 2.010636 0.286733 -1.731103
H 1.711930 0.056627 -0.849112
H 1.297188 0.766442 -2.156508
O -1.131341 -1.023475 0.613579
H -2.070755 -0.925656 0.446183
H -1.027506 -1.212082 1.548316
O 0.461198 1.567996 1.458877
H -0.280684 1.793419 0.894177
H 0.113534 1.426273 2.341563
9
Structure 365 | Energy: -15.214524 Hartree
O -0.273440 -0.383916 0.609770
H -0.331195 -0.625427 1.536279
H -0.824645 -0.998352 0.121158
O 0.571613 0.742950 -2.707178
H -0.195234 1.241402 -2.418076
H 1.119466 0.591081 -1.934597
O 1.558010 1.527933 0.121387
H 1.947406 2.370107 -0.121932
H 2.275368 0.949886 0.388502
9
Structure 366 | Energy: -15.214517 Hartree
O 1.573611 -1.329011 -1.027514
H 2.013579 -0.478714 -1.086714
H 2.218232 -1.999361 -1.262447
O -0.646049 0.566994 2.457048
H -0.859359 -0.340556 2.682750
H -1.067106 1.128735 3.110688
O 0.711475 2.065593 -1.853647
H 0.583382 2.178226 -2.797574
H 0.405720 1.184707 -1.628606
9
Structure 367 | Energy: -15.214515 Hartree
O -0.969666 2.698831 0.255836
H -1.910278 2.841228 0.378533
H -0.760390 1.842290 0.633514
O -0.610088 -1.241140 -1.246897
H -1.163920 -1.006069 -1.993959
H 0.155303 -0.663362 -1.267798
O -2.088972 -0.042749 1.360119
H -3.020233 -0.271640 1.381392
H -1.891272 0.419238 2.177170
9
Structure 368 | Energy: -15.214501 Hartree
O -2.253993 -0.432218 -0.819020
H -3.111815 -0.007309 -0.879645
H -1.910211 -0.254217 0.058608
O 1.156965 -0.013143 -2.000368
H 0.359582 0.519712 -2.018673
H 1.274393 -0.317764 -1.098424
O -0.492140 0.519252 2.759786
H -0.036218 1.320446 3.024953
H 0.036029 0.105491 2.074272
9
Structure 369 | Energy: -15.214493 Hartree
O 0.301686 1.526715 1.989699
H 0.393572 2.405693 2.362576
H -0.601237 1.443892 1.676698
O 0.459647 -0.531244 -1.242472
H -0.466740 -0.759522 -1.143555
H 0.933698 -1.343400 -1.431590
O -2.467330 -0.895675 -0.863737
H -2.612717 -0.331986 -1.626107
H -2.413183 -1.798224 -1.183993
9
Structure 370 | Energy: -15.214487 Hartree
O 1.529006 -1.413277 -1.537855
H 0.630312 -1.734505 -1.441719
H 1.534180 -0.495785 -1.258068
O 0.553341 0.657714 1.275560
H -0.261442 0.538924 0.783516
H 0.792715 1.584207 1.209241
O 0.116966 -2.090091 0.568625
H 0.904175 -2.341499 1.055644
H -0.326173 -2.899734 0.307481
9
Structure 371 | Energy: -15.214481 Hartree
O -0.656535 2.080412 1.353869
H -0.662783 2.428704 2.247589
H -1.530958 1.726016 1.180989
O 1.218664 -1.444477 -0.176629
H 0.565833 -1.744427 -0.812184
H 1.204316 -2.061220 0.557884
O -1.707522 -0.043067 -2.142010
H -0.837037 -0.259352 -1.802056
H -1.661778 0.848215 -2.493596
9
Structure 372 | Energy: -15.214467 Hartree
O 1.858632 -0.793850 -1.256939
H 2.177193 -0.480176 -0.408288
H 1.810767 -0.034290 -1.840787
O -0.114603 0.791124 1.167907
H 0.663790 0.489634 1.640450
H -0.755428 1.070073 1.824884
O -0.824699 -1.609820 -0.749212
H -1.681092 -1.379179 -1.114573
H -0.393282 -0.790856 -0.497683
9
Structure 373 | Energy: -15.214464 Hartree
O -0.614330 -0.666354 -1.740871
H -0.502875 -1.360737 -1.088574
H 0.252633 -0.291159 -1.907320
O -0.134104 2.680623 0.115341
H -0.380833 2.870514 -0.791938
H -0.195061 3.503508 0.604455
O 1.766303 -1.526475 -1.110053
H 1.753207 -2.007448 -0.280243
H 2.683101 -1.324280 -1.306747
9
Structure 374 | Energy: -15.214458 Hartree
O -2.302462 1.290949 -1.029504
H -2.749822 1.754282 -1.740330
H -2.577651 0.373005 -1.071328
O 1.010200 0.347373 -0.996127
H 0.520466 -0.466657 -0.863445
H 0.857342 0.899449 -0.226754
O 1.390527 -0.917108 1.574421
H 0.825480 -0.719439 2.323914
H 1.934501 -1.668316 1.819102
9
Structure 375 | Energy: -15.214455 Hartree
O 0.449345 1.521904 -1.469858
H -0.197782 2.000325 -1.991798
H 0.703708 0.746479 -1.973957
O 2.471710 -0.321220 1.469475
H 1.769259 -0.363116 2.121316
H 2.923795 0.515786 1.592467
O -1.592055 -0.290318 0.782430
H -2.502485 -0.463924 0.535308
H -1.359077 0.568194 0.423587
9
Structure 376 | Energy: -15.214445 Hartree
O 0.914348 -1.112008 -2.464266
H 0.722539 -1.680572 -3.212615
H 1.571884 -0.475706 -2.752132
O 1.293060 0.560891 0.843090
H 1.947849 1.063460 1.331725
H 1.179905 0.991998 -0.006281
O -2.031748 -0.183842 -0.400275
H -1.482099 0.601932 -0.377135
H -1.527048 -0.895385 -0.001436
9
Structure 377 | Energy: -15.214435 Hartree
O 1.201763 1.142613 1.610771
H 1.563439 0.330813 1.249865
H 1.150775 1.032521 2.562286
O -0.959792 -0.521231 -1.831817
H -0.319008 -0.247891 -1.172446
H -1.764896 -0.026255 -1.667818
O 0.661292 -2.553798 -0.407602
H 1.263549 -3.232578 -0.096739
H -0.226274 -2.833233 -0.174724
9
Structure 378 | Energy: -15.214419 Hartree
O 2.245750 -0.349791 0.740649
H 2.221835 -0.907229 -0.039590
H 1.527814 -0.629730 1.311877
O -0.897452 1.936548 -1.698297
H -1.215963 2.023987 -0.797745
H -1.565689 2.313796 -2.273823
O 0.615580 1.928495 1.953133
H 0.742578 2.545161 2.676794
H 0.817448 2.397784 1.141280
9
Structure 379 | Energy: -15.214417 Hartree
O 2.215385 -0.482126 1.378912
H 2.393028 -0.868094 2.238885
H 1.948453 0.427475 1.525450
O 0.947140 1.102433 -0.906032
H 1.360668 1.962019 -1.007003
H 1.624665 0.441327 -1.060909
O -0.973049 -1.816051 0.714084
H -1.385281 -2.523738 0.214749
H -1.398897 -0.997658 0.451449
9
Structure 380 | Energy: -15.214416 Hartree
O -0.194868 -0.643883 1.403486
H -0.367038 0.145634 0.886667
H 0.472506 -1.149704 0.935664
O -0.265101 2.486436 -1.151394
H 0.316659 3.245845 -1.221694
H -1.053957 2.684913 -1.659726
O -1.507020 -0.368529 -1.942876
H -1.030519 -1.141285 -2.252533
H -1.436072 0.301429 -2.625674
9
Structure 381 | Energy: -15.214414 Hartree
O -1.793315 0.176583 0.196260
H -2.535223 -0.421507 0.086973
H -1.626438 0.581126 -0.657318
O 0.104238 -0.402111 -2.780497
H -0.778058 -0.778115 -2.764237
H 0.029597 0.481891 -3.145265
O 0.021877 1.680355 1.702573
H -0.014386 2.370176 1.037048
H -0.241670 0.861696 1.277801
9
Structure 382 | Energy: -15.214399 Hartree
O 1.512178 -2.456120 0.388219
H 0.675031 -2.537093 0.849423
H 1.436973 -2.956182 -0.426877
O 0.653721 0.248369 -0.072251
H 0.473918 0.852732 -0.795096
H 1.568680 -0.027824 -0.153830
O -1.518994 0.916155 -1.831728
H -2.178154 0.225828 -1.736611
H -1.002166 0.709719 -2.612985
9
Structure 383 | Energy: -15.214396 Hartree
O 0.096147 2.350083 -0.371185
H -0.861222 2.400674 -0.402297
H 0.390794 2.958524 0.309317
O -1.673600 -1.185279 0.676780
H -2.227879 -1.414795 -0.071675
H -0.953299 -0.647274 0.342406
O 2.174783 -0.772289 1.543654
H 3.044480 -0.864497 1.937627
H 2.119489 0.114249 1.181600
9
Structure 384 | Energy: -15.214386 Hartree
O 1.738421 -0.734434 -0.099089
H 0.781408 -0.732720 -0.034245
H 1.972155 -1.301599 -0.836511
O -0.685539 0.460807 2.635291
H -1.026864 0.079748 3.446697
H 0.265967 0.532304 2.733335
O -1.792199 -1.130644 -1.362134
H -1.086238 -1.746361 -1.568539
H -2.273886 -1.490877 -0.614939
9
Structure 385 | Energy: -15.214382 Hartree
O -0.528928 0.833283 2.511839
H -0.397789 -0.115030 2.571740
H -0.703068 1.152594 3.399429
O -0.692449 -0.865150 -1.360165
H -0.225927 -1.612006 -0.979833
H -0.195060 -0.075945 -1.136901
O 1.733396 1.645775 -1.504774
H 2.381652 0.969881 -1.297352
H 2.120943 2.491900 -1.272462
9
Structure 386 | Energy: -15.214371 Hartree
O -1.866948 1.990524 -0.949903
H -1.741816 1.874240 -0.006028
H -1.204908 2.616806 -1.249192
O 0.323677 -0.639400 1.788176
H 0.157109 -1.498066 1.394430
H -0.286378 -0.018765 1.384773
O -2.209587 -0.804018 0.988138
H -2.153329 -1.605026 1.512840
H -2.741635 -0.177404 1.482476
9
Structure 387 | Energy: -15.214370 Hartree
O -0.919486 0.011217 1.505003
H -1.221125 0.820348 1.087388
H -1.558874 -0.672287 1.294993
O -1.327845 -1.666132 -0.981262
H -2.020317 -1.237763 -1.488283
H -1.083050 -2.464703 -1.452905
O 1.099174 2.564989 0.248064
H 0.172242 2.759718 0.096513
H 1.163500 2.138872 1.105021
9
Structure 388 | Energy: -15.214354 Hartree
O 0.000513 -1.141762 0.183449
H 0.732690 -0.532918 0.298810
H 0.333176 -2.023357 0.362965
O -1.085738 2.205145 -0.091471
H -1.406694 1.545234 -0.709203
H -1.642024 2.980396 -0.189554
O 0.485257 0.684399 -2.143289
H 1.132292 0.419910 -1.486415
H 0.338965 1.626162 -2.034794
9
Structure 389 | Energy: -15.214349 Hartree
O -1.451437 -1.555556 0.719361
H -2.099852 -0.849050 0.741435
H -1.116233 -1.661465 1.611841
O 2.452740 1.339176 -0.552662
H 1.622052 1.455013 -1.018095
H 3.129074 1.180017 -1.213971
O 0.043377 0.606791 1.134972
H -0.325446 1.382406 1.562152
H 0.958828 0.537711 1.412942
9
Structure 390 | Energy: -15.214349 Hartree
O 2.210313 0.375065 -0.422660
H 1.470730 0.187711 0.158715
H 2.959706 -0.129763 -0.100697
O 0.475702 -2.457646 0.657650
H 0.374323 -1.725296 0.046525
H 1.334249 -2.851040 0.489637
O -2.076140 1.294668 -1.434232
H -1.312814 1.857163 -1.289235
H -2.169055 1.180692 -2.382106
9
Structure 391 | Energy: -15.214343 Hartree
O -2.746636 0.353938 0.151352
H -3.154095 -0.085998 0.900028
H -2.237518 1.089802 0.496898
O 0.292116 1.106597 1.628774
H 0.668945 0.961515 0.758694
H 1.001012 1.412582 2.197921
O 0.467955 -1.631845 -1.824812
H 0.546420 -1.835210 -2.758931
H 1.148545 -2.129660 -1.367573
9
Structure 392 | Energy: -15.214301 Hartree
O -0.354434 0.609032 -2.104538
H -1.197282 0.886532 -2.468796
H -0.178576 1.162959 -1.341427
O 0.980079 -1.687633 1.345021
H 0.484997 -2.294891 0.791649
H 0.518427 -1.626771 2.183627
O -1.885579 1.547598 1.088210
H -2.016074 0.597853 1.120549
H -2.470671 1.937107 1.740928
9
Structure 393 | Energy: -15.214295 Hartree
O 0.447702 0.175857 0.684081
H -0.479600 0.001125 0.856306
H 0.665843 -0.244572 -0.150038
O -2.483113 1.111928 0.531413
H -3.185555 0.470111 0.410028
H -1.879209 1.015256 -0.207533
O 1.356960 1.532177 -2.001935
H 1.677007 1.819160 -1.144438
H 0.431606 1.302233 -1.897361
9
Structure 394 | Energy: -15.214269 Hartree
O 0.338287 -0.526942 1.589073
H -0.301559 0.047920 1.164559
H 0.383318 -1.333160 1.071303
O 0.646356 2.145328 -1.088694
H 0.461469 2.981446 -1.520910
H 1.023178 1.561135 -1.749612
O 2.199034 -0.607723 -1.469759
H 3.146249 -0.525024 -1.343122
H 2.062716 -1.078669 -2.294209
9
Structure 395 | Energy: -15.214249 Hartree
O -1.876677 1.480207 -1.607307
H -1.150939 1.199500 -2.168190
H -1.613661 1.316849 -0.699432
O 1.786076 0.802263 -0.593402
H 2.489065 0.159093 -0.703986
H 1.157233 0.431568 0.028876
O -1.777929 -1.734928 0.026247
H -0.859350 -2.007545 -0.018301
H -2.254451 -2.231954 -0.641572
9
Structure 396 | Energy: -15.214245 Hartree
O -0.094181 -0.619686 0.991734
H -1.040774 -0.512350 1.103636
H 0.317838 0.207576 1.248596
O 2.727528 0.552912 -0.470313
H 2.174645 0.078819 -1.094528
H 2.438905 1.467668 -0.472940
O -0.020404 1.735785 -1.432122
H -0.338628 2.014507 -0.571227
H 0.003446 2.514368 -1.991880
9
Structure 397 | Energy: -15.214234 Hartree
O 1.777517 0.188310 -1.438865
H 1.169325 -0.417426 -1.010767
H 2.653180 -0.198604 -1.378765
O -0.467940 -0.058113 2.552873
H 0.158077 0.532087 2.128780
H -0.484686 0.167762 3.484961
O -2.318064 0.898543 -1.278083
H -1.681496 1.242525 -0.648362
H -2.189577 1.374734 -2.100775
9
Structure 398 | Energy: -15.214232 Hartree
O -1.784579 -0.014666 -1.266525
H -0.854572 0.217794 -1.232892
H -2.045175 -0.010674 -2.189658
O -1.876815 0.400364 1.410682
H -1.502949 -0.237122 2.022175
H -2.679164 0.014643 1.053549
O 0.041386 -2.520999 -0.882364
H -0.766593 -3.026505 -0.990645
H 0.124815 -2.315221 0.050795
9
Structure 399 | Energy: -15.214215 Hartree
O 0.367066 0.800029 2.494774
H 0.205886 0.184345 1.777114
H -0.440444 1.300782 2.626206
O 1.965763 -0.202466 -0.608136
H 1.748297 0.017335 0.299876
H 2.708889 -0.808476 -0.583530
O -0.880901 1.416953 0.250080
H -1.114743 1.053006 -0.606046
H -1.692376 1.499727 0.754804
9
Structure 400 | Energy: -15.214197 Hartree
O -1.096185 2.012061 0.788757
H -0.756842 1.503542 1.527904
H -1.883447 2.466882 1.094463
O 1.314696 -0.324772 -0.378400
H 0.790172 -0.867852 -0.970031
H 1.232217 -0.700613 0.500252
O -0.843548 -0.095079 -2.619635
H -0.413454 0.724381 -2.367452
H -0.155417 -0.704110 -2.894672
9
Structure 401 | Energy: -15.214195 Hartree
O -1.693534 1.651267 -1.370275
H -1.035734 1.014025 -1.085136
H -1.434067 2.504618 -1.017333
O -1.394548 -0.833764 1.140353
H -1.755939 -1.535768 1.685032
H -1.924776 -0.792037 0.342101
O 2.306843 -0.120450 0.211118
H 2.790891 0.438715 0.821956
H 2.139468 0.398927 -0.577757
9
Structure 402 | Energy: -15.214183 Hartree
O -2.270023 1.118986 1.372812
H -1.946481 0.909164 2.251092
H -1.550836 0.957339 0.759020
O 0.061056 -1.932293 -1.047698
H 0.270588 -2.491185 -1.798581
H -0.721147 -1.427496 -1.278839
O 1.603997 -0.142703 2.036180
H 0.948032 -0.383726 1.379135
H 1.178323 -0.192980 2.894296
9
Structure 403 | Energy: -15.214167 Hartree
O 1.285510 1.697283 -0.315759
H 1.420245 1.882394 -1.247243
H 1.842811 2.302345 0.177613
O -0.513649 -2.489799 1.168246
H 0.330729 -2.036126 1.132240
H -0.507398 -3.039629 1.954207
O -1.192581 -0.410935 -1.110517
H -2.073706 -0.750773 -1.278503
H -1.145039 -0.193652 -0.177448
9
Structure 404 | Energy: -15.214165 Hartree
O 0.857172 0.795488 -2.109910
H 1.418464 0.534277 -2.842577
H 1.430523 0.969822 -1.360927
O 1.081513 -1.204852 1.021820
H 1.324444 -1.467414 1.911839
H 0.473754 -0.466805 1.099304
O -2.794484 -0.614144 0.221834
H -2.662343 -0.287964 -0.670487
H -2.830934 0.149629 0.800982
9
Structure 405 | Energy: -15.214149 Hartree
O -1.755888 -0.375373 -1.015701
H -0.837315 -0.456177 -0.751549
H -2.291622 -0.579197 -0.246581
O -0.246777 2.462128 0.454658
H -0.587548 3.283978 0.813164
H -0.848375 1.764513 0.722055
O 1.599545 -0.194616 -2.249300
H 0.826781 -0.208775 -2.817390
H 2.289093 -0.690300 -2.695295
9
Structure 406 | Energy: -15.214147 Hartree
O 2.172639 -1.190713 -0.611533
H 3.120805 -1.216510 -0.754353
H 1.987603 -1.723796 0.164149
O -1.681270 0.137855 0.331585
H -1.222297 0.809581 -0.176566
H -2.039436 -0.495707 -0.293238
O 0.796436 1.391633 2.081410
H 1.137403 1.846038 2.854293
H 0.376732 0.585448 2.388009
9
Structure 407 | Energy: -15.214142 Hartree
O -1.519030 0.669744 1.116479
H -1.699228 0.003180 0.450670
H -1.792655 0.308172 1.961757
O 1.110096 2.337357 1.278911
H 0.566040 1.821056 0.680978
H 1.758530 1.741479 1.659109
O 0.190842 -0.292463 -0.643240
H 0.977911 -0.471886 -1.161334
H 0.171669 -0.929068 0.074017
9
Structure 408 | Energy: -15.214133 Hartree
O 0.311589 -1.399193 -0.308813
H 0.099430 -0.464477 -0.271718
H -0.386989 -1.867565 0.152399
O 0.323535 2.482790 1.471551
H -0.256408 3.148400 1.096429
H -0.231211 1.762650 1.777726
O -2.379275 0.417807 -1.262551
H -1.736034 0.641390 -1.938083
H -2.773676 1.239230 -0.962882
9
Structure 409 | Energy: -15.214132 Hartree
O 1.597790 -1.096140 1.370671
H 1.357972 -1.013211 0.445635
H 1.956411 -0.250825 1.648037
O -0.351966 1.553852 -1.267857
H 0.159560 2.251259 -0.853063
H -0.416737 0.834951 -0.636134
O -2.390286 1.084938 0.688668
H -2.333063 0.480199 1.431034
H -2.925151 0.659025 0.015906
9
Structure 410 | Energy: -15.214120 Hartree
O -1.379564 -1.824154 -1.457093
H -1.411058 -1.181819 -2.168777
H -2.247083 -1.837661 -1.048033
O -0.190642 0.565576 2.229532
H -0.418011 0.656281 1.302081
H 0.717200 0.258632 2.270728
O 1.943371 1.267875 1.047998
H 1.790069 2.195617 1.237429
H 2.257721 1.210795 0.143555
9
Structure 411 | Energy: -15.214107 Hartree
O 1.064076 2.156159 0.413811
H 1.267764 3.086107 0.296376
H 0.858942 2.025258 1.341650
O -1.569331 -0.891289 -1.413969
H -0.702242 -0.833588 -1.820067
H -1.436861 -0.921031 -0.464414
O 1.076586 -2.469191 -0.190088
H 0.543942 -2.107251 0.520814
H 0.503473 -3.028672 -0.717926
9
Structure 412 | Energy: -15.214099 Hartree
O 1.373543 0.092183 0.296593
H 1.122650 0.925743 -0.106286
H 0.963789 -0.606432 -0.217351
O -1.195772 1.188570 2.325434
H -1.951966 0.996783 1.767333
H -0.719880 0.365364 2.451716
O -2.059510 -1.095788 0.941947
H -1.127000 -0.915129 0.808240
H -2.529429 -0.737719 0.186267
9
Structure 413 | Energy: -15.214095 Hartree
O -0.105777 -2.671701 0.114716
H 0.229576 -3.447253 -0.339311
H -0.892323 -2.386000 -0.354135
O 0.217663 2.295910 -0.328065
H -0.195340 1.551913 -0.770767
H 0.846991 1.938272 0.301323
O 0.311422 0.314961 2.262036
H 0.216769 -0.378972 2.917467
H 1.214364 0.634332 2.314847
9
Structure 414 | Energy: -15.214089 Hartree
O 0.393546 -2.058985 -1.831544
H -0.170281 -2.302846 -2.568234
H 1.199473 -1.691836 -2.200031
O -0.682905 0.857029 2.036788
H 0.199987 1.093319 2.327920
H -0.910974 1.445801 1.314694
O 2.482486 0.100730 0.643777
H 2.366007 0.329872 -0.280354
H 1.607807 -0.014093 1.020396
9
Structure 415 | Energy: -15.214087 Hartree
O 0.972222 -1.245190 0.366962
H 0.455070 -1.627484 -0.344716
H 1.828685 -1.012999 0.002737
O 1.541949 1.360050 -1.865817
H 2.154049 0.621615 -1.854201
H 1.455228 1.671349 -0.962678
O -1.496965 -0.810963 1.934120
H -1.571900 0.078382 1.582636
H -0.663687 -0.860373 2.406662
9
Structure 416 | Energy: -15.214077 Hartree
O 0.616180 -1.991631 -1.391295
H -0.319430 -2.185162 -1.306080
H 1.086003 -2.825154 -1.323434
O 0.434823 1.169229 1.778535
H 0.305574 2.117779 1.718230
H 0.862942 0.993741 2.618777
O -1.894282 1.924729 0.795123
H -1.991139 2.170095 -0.127106
H -1.712413 0.983271 0.820993
9
Structure 417 | Energy: -15.214063 Hartree
O -1.268610 -1.291861 -1.773790
H -2.168012 -1.546226 -1.989329
H -0.736895 -2.090123 -1.786315
O -1.568386 0.632493 1.448155
H -2.517499 0.580400 1.319472
H -1.157812 0.133524 0.739250
O 2.285038 1.620546 0.357680
H 3.214120 1.428461 0.216257
H 2.237043 2.347663 0.981449
9
Structure 418 | Energy: -15.214056 Hartree
O 1.858667 0.685086 1.597362
H 1.662780 0.800685 0.665511
H 1.241878 0.034593 1.938726
O -1.438870 -0.380791 -1.559790
H -2.103414 0.210223 -1.200385
H -1.510684 -0.341369 -2.515498
O 1.940713 -1.915515 -0.464759
H 2.406542 -1.079471 -0.400523
H 2.069349 -2.376950 0.366277
9
Structure 419 | Energy: -15.214051 Hartree
O -0.668255 -0.747697 2.606363
H 0.055365 -1.267959 2.961022
H -1.083100 -1.270588 1.917460
O -0.980085 0.256422 -1.553665
H -0.204971 -0.032851 -2.039059
H -1.201805 -0.439373 -0.931735
O 1.362171 -1.425850 1.029729
H 1.240418 -0.563573 0.627552
H 1.700885 -2.011265 0.349545
9
Structure 420 | Energy: -15.214034 Hartree
O -0.509615 0.577714 1.137341
H -1.467011 0.537855 1.093906
H -0.263011 1.504599 1.124282
O 1.038627 -2.463744 -0.276696
H 0.083335 -2.540878 -0.316144
H 1.279129 -1.666498 -0.752768
O 2.079052 -0.364545 0.614217
H 1.204642 -0.473167 0.993293
H 2.366538 0.528402 0.814439
9
Structure 421 | Energy: -15.214023 Hartree
O 1.660261 -1.587176 -1.147976
H 2.450941 -1.467120 -1.677592
H 1.655306 -2.498065 -0.847380
O -0.332661 1.427517 1.090449
H 0.297662 2.064224 0.747833
H -0.414265 0.729232 0.437894
O -1.676939 1.115252 -1.812432
H -0.743606 0.912803 -1.723010
H -1.860895 1.198893 -2.750117
9
Structure 422 | Energy: -15.214013 Hartree
O 0.701905 -1.297854 1.223619
H 0.516175 -0.583405 1.836112
H 0.820547 -0.905083 0.356581
O -0.721844 2.354076 -0.234055
H -0.890656 2.601298 0.677247
H -0.216006 3.065174 -0.632245
O 0.996954 -0.051703 -2.720565
H 1.050596 -0.796027 -2.117909
H 0.857888 0.734633 -2.189127
9
Structure 423 | Energy: -15.213981 Hartree
O -0.486681 -0.623444 1.343103
H -1.180691 -0.412796 0.715361
H 0.314500 -0.779147 0.839153
O 1.186666 1.579002 -1.250096
H 1.570939 0.879650 -1.782382
H 1.603065 1.540363 -0.386842
O -1.761822 0.015225 -1.534881
H -1.733721 -0.865928 -1.156899
H -0.886503 0.205104 -1.878178
9
Structure 424 | Energy: -15.213970 Hartree
O -1.708193 1.498205 -0.984117
H -1.006387 2.048127 -1.337862
H -2.279405 2.066488 -0.463664
O -1.062805 -1.539579 1.120585
H -0.407434 -1.994791 0.588270
H -1.892425 -2.008695 1.012196
O 1.243872 -0.241825 2.445312
H 2.054997 -0.703332 2.223549
H 0.662678 -0.307588 1.685063
9
Structure 425 | Energy: -15.213957 Hartree
O -0.834773 -0.892493 1.215892
H -0.702665 -0.608085 0.309393
H -0.043979 -0.657679 1.705389
O -2.073926 0.777623 -1.707110
H -1.122247 0.728549 -1.597622
H -2.453599 0.909854 -0.836219
O 1.980799 0.142150 -0.563931
H 1.517660 -0.682678 -0.722842
H 1.897555 0.672394 -1.358916
9
Structure 426 | Energy: -15.213944 Hartree
O 1.044357 -1.505718 -0.317583
H 1.678340 -2.133932 0.033834
H 1.338622 -1.268127 -1.199093
O -0.760202 2.217827 0.636142
H -0.218323 1.712179 0.027228
H -0.380893 2.110153 1.510567
O -2.112532 -1.073209 -1.619019
H -2.634892 -1.842682 -1.853843
H -1.199708 -1.359764 -1.550253
9
Structure 427 | Energy: -15.213911 Hartree
O -0.685506 -1.589719 0.174969
H -0.534008 -1.559994 -0.771734
H -1.421203 -2.186329 0.326321
O 1.063923 2.082645 -0.717908
H 0.465857 2.563620 -1.293294
H 0.928351 1.147854 -0.884867
O 1.516854 -0.337359 2.448599
H 0.709425 -0.139081 1.970231
H 1.268963 -0.834655 3.230479
9
Structure 428 | Energy: -15.213906 Hartree
O 1.417607 -0.916939 2.168311
H 1.910593 -0.410499 1.519801
H 0.818362 -0.309862 2.607017
O 1.174640 0.144483 -0.912968
H 0.915284 -0.692429 -1.303355
H 0.370081 0.601183 -0.659595
O -1.950045 -0.625319 0.613307
H -2.660164 -0.333679 1.188431
H -1.378728 0.130162 0.461862
9
Structure 429 | Energy: -15.213898 Hartree
O -2.082171 -0.203082 1.066508
H -1.410619 -0.539079 1.663338
H -2.779222 -0.860668 1.024089
O 0.192416 1.505322 -1.670750
H 0.124894 0.685248 -2.163708
H -0.553581 2.051961 -1.925234
O 1.966064 0.135756 2.070994
H 1.455286 -0.414370 1.473869
H 1.478710 0.953157 2.191121
9
Structure 430 | Energy: -15.213893 Hartree
O 0.245818 -1.695255 -1.154897
H -0.439538 -2.361958 -1.078237
H 0.932941 -1.920439 -0.524616
O 1.666916 2.109490 0.199635
H 1.142063 1.673228 -0.474377
H 1.236546 2.943129 0.399425
O 0.881926 -0.280513 2.304353
H 1.346578 0.364855 2.840720
H 0.375317 -0.834343 2.901604
9
Structure 431 | Energy: -15.213886 Hartree
O -0.169375 2.482901 1.149239
H -0.526990 1.602170 1.277720
H 0.578013 2.575470 1.743329
O 0.858658 -0.005058 -0.044323
H 1.631789 -0.248928 -0.557047
H 1.075846 -0.142279 0.879846
O 0.052762 -1.233255 -2.142589
H -0.412614 -1.052913 -1.323447
H -0.428070 -0.791969 -2.845551
9
Structure 432 | Energy: -15.213875 Hartree
O -0.248471 -0.009542 -1.812416
H 0.678548 -0.255894 -1.807118
H -0.697290 -0.578890 -1.184320
O 2.178232 0.511003 0.988023
H 2.531158 0.571060 1.877925
H 1.298117 0.892043 1.005180
O 2.162040 -1.843563 -0.137014
H 2.566126 -1.876535 0.732307
H 2.390684 -2.658876 -0.587652
9
Structure 433 | Energy: -15.213873 Hartree
O -2.534806 0.358268 -0.111696
H -2.805045 0.954750 -0.812596
H -1.776641 0.754661 0.322077
O 0.503581 0.217884 -2.231950
H 0.355583 -0.053847 -1.324014
H 0.618602 -0.579841 -2.752039
O 2.599090 -0.577030 1.078296
H 2.672475 -1.528582 1.174494
H 1.795393 -0.307295 1.527078
9
Structure 434 | Energy: -15.213866 Hartree
O -0.216898 2.808518 -0.277561
H 0.375422 3.488718 -0.604005
H -0.008521 1.999922 -0.749634
O 0.640742 -1.881912 1.021018
H 1.034163 -2.360461 1.753343
H 0.733217 -2.431373 0.240231
O 1.669327 -1.285660 -1.591975
H 0.825056 -1.012632 -1.227622
H 1.514249 -1.550342 -2.500812
9
Structure 435 | Energy: -15.213860 Hartree
O -1.091606 -0.032869 -2.182595
H -0.202873 -0.033132 -2.543478
H -1.673088 -0.385062 -2.859307
O 0.520164 1.333970 0.283106
H 1.068146 0.630846 0.637255
H 1.045387 1.802600 -0.368518
O 1.899393 -0.804293 -1.039737
H 1.175729 -1.433102 -1.008090
H 2.577112 -1.120701 -0.439176
9
Structure 436 | Energy: -15.213841 Hartree
O 0.509718 2.046028 1.946090
H -0.340237 2.488644 1.987914
H 0.407437 1.288807 1.366216
O 0.424914 -1.347179 -1.683165
H -0.028892 -0.654003 -1.199786
H 0.500907 -1.055484 -2.593784
O 2.513687 -0.182620 0.143415
H 3.141944 -0.025197 -0.564118
H 2.803595 -0.968292 0.611136
9
Structure 437 | Energy: -15.213835 Hartree
O 0.767119 -2.455683 0.639783
H -0.052008 -2.175658 0.226626
H 1.320497 -2.827515 -0.049865
O -0.982451 0.812185 -1.289634
H -1.274141 1.664739 -1.618505
H -1.469611 0.140358 -1.770688
O 2.711382 0.392398 -0.450346
H 2.304219 0.219581 0.400797
H 3.419109 -0.245468 -0.561429
9
Structure 438 | Energy: -15.213821 Hartree
O -1.794267 0.172758 0.582344
H -1.523123 -0.425273 -0.116886
H -2.125936 0.968891 0.162503
O 1.486808 -0.390920 -1.886307
H 1.340770 0.467259 -1.483453
H 0.650349 -0.675438 -2.259769
O 2.141740 1.016451 1.491386
H 1.498283 0.864486 2.186340
H 2.999532 0.763499 1.838226
9
Structure 439 | Energy: -15.213815 Hartree
O -2.187126 -1.578595 -0.208255
H -1.841776 -1.940536 0.610167
H -2.094318 -0.625164 -0.158697
O -0.081075 0.992554 0.669805
H -0.053107 0.161468 1.147930
H -1.001058 1.172432 0.466427
O 0.724155 -1.209633 -1.561768
H 0.015533 -1.227225 -2.208016
H 1.073515 -0.316417 -1.547537
9
Structure 440 | Energy: -15.213812 Hartree
O 0.110150 -1.712062 -1.670327
H -0.275103 -1.470917 -0.825631
H -0.553100 -2.208671 -2.153626
O -0.953375 0.484460 1.436654
H -1.749062 0.003204 1.201358
H -0.899559 1.245736 0.855577
O 1.289180 2.445582 0.527533
H 2.220457 2.235128 0.619858
H 1.217960 3.400498 0.471384
9
Structure 441 | Energy: -15.213798 Hartree
O 1.174162 -1.333523 1.809728
H 0.514753 -0.637014 1.821381
H 1.602103 -1.305224 0.951727
O -1.590583 0.319268 -0.107180
H -2.548343 0.371944 -0.104124
H -1.341415 -0.281920 -0.811861
O 0.463575 2.232627 -1.360327
H 1.069658 2.299779 -2.100762
H 0.966583 1.910436 -0.609817
9
Structure 442 | Energy: -15.213798 Hartree
O -0.300069 0.959977 0.800386
H 0.309876 1.221926 1.492796
H -0.603181 0.074143 1.009003
O -0.794531 -0.476561 -2.736507
H 0.054432 -0.528996 -3.179906
H -0.816458 -1.176693 -2.081204
O 2.186675 -0.866605 -0.053769
H 1.407487 -0.550097 0.407512
H 2.180693 -0.469619 -0.926957
9
Structure 443 | Energy: -15.213789 Hartree
O 0.795453 0.769759 -0.746547
H 0.088667 0.280822 -0.320548
H 0.492629 1.673928 -0.850834
O -2.207081 -0.528868 1.222697
H -2.910983 -0.868286 1.778940
H -2.422638 0.382749 1.016356
O 0.459498 -0.658772 2.128190
H 1.206599 -0.818403 1.548148
H 0.812250 -0.381207 2.975901
9
Structure 444 | Energy: -15.213777 Hartree
O 1.775875 0.009322 -1.552306
H 1.334557 -0.778592 -1.875588
H 1.132414 0.720594 -1.564599
O 0.716259 -1.430340 1.258163
H 0.719992 -1.404147 0.299315
H 1.123082 -2.258198 1.521289
O -0.266850 1.561808 -0.046996
H -0.495097 2.425117 -0.397270
H -1.089058 1.108498 0.149410
9
Structure 445 | Energy: -15.213776 Hartree
O 0.471543 0.858158 2.494232
H -0.311073 0.304679 2.458812
H 0.424154 1.464909 1.752809
O -0.870215 -0.352639 -1.764671
H -1.806012 -0.224428 -1.597536
H -0.794237 -0.952354 -2.509424
O 2.135011 -1.646547 -0.685084
H 2.834592 -1.464705 -1.315648
H 2.236146 -1.024998 0.038476
9
Structure 446 | Energy: -15.213772 Hartree
O -2.296666 -0.656325 1.575614
H -2.670741 -1.538802 1.612824
H -2.996147 -0.062883 1.295164
O -1.352220 1.724266 -0.340256
H -1.535468 0.885842 -0.768689
H -0.636641 2.140459 -0.824837
O 1.324145 -0.403964 0.727285
H 1.895169 -1.012483 0.254287
H 0.586164 -0.913393 1.067809
9
Structure 447 | Energy: -15.213772 Hartree
O 0.220996 -1.735747 -1.568915
H 0.867925 -1.401072 -2.193060
H 0.664396 -1.830603 -0.723634
O -1.453718 0.636423 0.380832
H -1.357501 -0.306019 0.230387
H -2.299748 0.770230 0.812592
O 0.882273 1.398400 2.229211
H 1.825522 1.457067 2.065106
H 0.569086 0.598025 1.803297
9
Structure 448 | Energy: -15.213749 Hartree
O -0.298847 -1.152483 2.240405
H 0.439888 -1.391625 2.803577
H -0.433372 -1.876407 1.625639
O -1.468202 1.182319 -1.256711
H -0.981692 0.429256 -1.597726
H -1.826938 1.653944 -2.011010
O 2.750300 0.538835 -0.528207
H 2.110665 0.506503 0.185875
H 2.595055 1.352426 -1.012003
9
Structure 449 | Energy: -15.213742 Hartree
O -0.125332 1.999219 -1.018985
H -0.910792 2.531836 -0.879513
H -0.300468 1.132193 -0.647914
O 1.152703 -2.016664 1.080258
H 0.430187 -2.606264 1.304828
H 1.007770 -1.196020 1.555258
O -1.477262 1.244140 1.847637
H -0.695781 1.567933 2.299894
H -1.554193 0.309140 2.047504
9
Structure 450 | Energy: -15.213741 Hartree
O 0.183515 0.617406 -1.845773
H 0.671341 0.615903 -2.671670
H 0.825655 0.687902 -1.136699
O -1.558873 -1.918958 0.200656
H -0.677032 -2.159809 0.491235
H -2.164566 -2.153966 0.906344
O -2.365937 1.414935 -0.081109
H -1.567448 1.072562 -0.487664
H -2.185565 1.519665 0.855154
9
Structure 451 | Energy: -15.213738 Hartree
O -0.902590 0.043003 -1.817667
H -0.117756 -0.079551 -1.279989
H -1.656321 0.042345 -1.224381
O 1.041557 -0.559054 2.592183
H 1.115352 -1.511439 2.679391
H 0.154581 -0.316682 2.865345
O 1.014746 2.188892 -0.690366
H 0.136666 2.558657 -0.579280
H 1.606414 2.917013 -0.890009
9
Structure 452 | Energy: -15.213735 Hartree
O -1.852117 1.443092 0.242684
H -2.036911 2.271591 0.689364
H -2.534460 1.319315 -0.420028
O -0.281661 -1.255244 -0.490075
H -0.515840 -0.330301 -0.391438
H 0.017119 -1.377853 -1.393284
O 0.835549 0.969051 1.866252
H 1.543517 0.714584 1.271172
H 0.717124 1.916822 1.777955
9
Structure 453 | Energy: -15.213710 Hartree
O -1.962003 0.483971 1.710724
H -1.391454 0.988274 1.127429
H -2.858497 0.794510 1.569437
O -0.296855 -1.805276 -1.409774
H -0.438009 -2.731599 -1.204614
H -0.690700 -1.293966 -0.700171
O 1.620018 0.373761 0.815258
H 1.018962 0.188341 0.091075
H 1.213392 1.054812 1.354623
9
Structure 454 | Energy: -15.213710 Hartree
O 1.354357 1.999398 0.602187
H 1.170920 2.902533 0.336146
H 2.180269 1.743169 0.187077
O -0.085923 -0.484857 -1.237595
H 0.532451 -0.803310 -0.577073
H 0.372357 -0.487172 -2.080247
O -1.343342 0.128787 1.750897
H -0.769440 0.886276 1.620754
H -0.799873 -0.583983 2.092497
9
Structure 455 | Energy: -15.213668 Hartree
O -0.546206 -0.688153 -1.272208
H -1.328379 -0.243374 -1.604561
H -0.795917 -1.593272 -1.075984
O 1.852511 1.228872 1.201666
H 1.954490 1.460125 2.126983
H 2.510285 1.725208 0.710675
O -1.609572 -1.100579 2.010438
H -0.842091 -0.899025 1.471512
H -2.361524 -1.170501 1.419026
9
Structure 456 | Energy: -15.213662 Hartree
O 0.657619 2.115155 0.288490
H -0.190776 2.512350 0.082229
H 1.310600 2.817703 0.276556
O 0.641661 -2.478693 -0.391367
H -0.068978 -2.005298 0.045643
H 0.433590 -2.502470 -1.327438
O -1.189552 0.431190 2.311878
H -0.373200 -0.044086 2.478529
H -1.612525 0.575572 3.160606
9
Structure 457 | Energy: -15.213662 Hartree
O 0.120511 -2.300720 -0.195948
H 0.681895 -1.528479 -0.103352
H -0.604990 -2.200424 0.423479
O 0.149081 2.558323 1.233881
H 0.186937 2.920560 2.121259
H 0.295385 1.613115 1.306440
O -1.392366 -0.264514 -1.947939
H -1.700184 -1.146631 -2.165217
H -0.434006 -0.296232 -1.922840
9
Structure 458 | Energy: -15.213660 Hartree
O -2.351869 0.590056 -0.243503
H -2.834407 0.203527 -0.976875
H -2.993003 1.030704 0.317637
O 1.006265 -1.086030 1.220020
H 1.163338 -0.648372 2.058990
H 1.798415 -0.977184 0.690171
O 0.781626 0.040496 -0.899120
H 0.257777 -0.645963 -1.316788
H 0.175941 0.604834 -0.414602
9
Structure 459 | Energy: -15.213655 Hartree
O 0.609163 -0.641703 -2.621158
H -0.317420 -0.435833 -2.482797
H 0.744011 -0.722345 -3.567420
O -0.837994 0.599064 0.769556
H -1.102754 1.455515 1.110853
H -0.574536 0.726403 -0.143933
O 1.512039 1.740121 0.111405
H 1.416595 2.603783 0.517692
H 1.641546 1.105932 0.819305
9
Structure 460 | Energy: -15.213642 Hartree
O -1.799533 -1.920627 -0.367618
H -1.444711 -1.731259 -1.238435
H -1.966427 -1.078573 0.060391
O 0.133800 0.143662 0.256618
H 0.962396 -0.019559 -0.198218
H 0.103143 -0.447007 1.011773
O -0.914518 2.366234 1.271912
H -0.957956 1.633868 1.889847
H -1.751373 2.393021 0.803888
9
Structure 461 | Energy: -15.213639 Hartree
O 1.942434 -0.242677 -0.764309
H 1.071369 -0.011831 -1.092999
H 2.404946 0.578211 -0.584517
O -0.792735 2.299509 0.051889
H -1.296067 1.485474 0.115860
H -0.836738 2.589661 -0.861327
O -0.404340 -2.365348 -1.606651
H 0.229566 -2.217371 -0.902125
H -1.018676 -1.628766 -1.595354
9
Structure 462 | Energy: -15.213638 Hartree
O -0.006742 -1.822933 -1.395637
H -0.533534 -1.348685 -0.749371
H -0.136479 -2.759756 -1.235538
O 0.702334 2.333529 1.002664
H 0.614089 3.089568 1.586364
H 1.075574 1.617243 1.520076
O -1.297485 -0.866368 1.844864
H -0.578390 -1.388652 2.205713
H -2.097862 -1.130081 2.303058
9
Structure 463 | Energy: -15.213636 Hartree
O -1.726008 -0.120247 -1.858464
H -1.147040 0.602923 -2.107265
H -1.233019 -0.933898 -1.981078
O -0.500730 0.753051 0.300244
H 0.078412 1.470119 0.034733
H -0.033675 -0.067251 0.129792
O 1.736341 -0.809450 -0.965632
H 2.390500 -0.648192 -1.648393
H 2.191132 -1.220593 -0.227921
9
Structure 464 | Energy: -15.213594 Hartree
O -1.186976 -0.342449 1.373835
H -1.789884 -0.655526 2.051010
H -0.627357 0.323745 1.777707
O 1.222786 2.178816 -1.012489
H 0.771323 1.380064 -1.292248
H 0.994218 2.868469 -1.638767
O 0.854443 -1.991334 1.038928
H 1.273790 -2.850122 0.956938
H 0.234930 -1.907112 0.311467
9
Structure 465 | Energy: -15.213593 Hartree
O 0.424135 -0.884053 2.304338
H -0.303604 -0.279333 2.146886
H 1.059139 -0.426142 2.858582
O -0.555954 0.089607 -1.063887
H -0.910176 0.863831 -1.505693
H 0.156320 0.388184 -0.495024
O -0.300406 2.611186 0.513473
H -0.897896 2.128202 1.087776
H 0.552732 2.640154 0.950974
9
Structure 466 | Energy: -15.213587 Hartree
O 0.118047 -2.119493 -1.379833
H -0.775742 -2.307269 -1.086639
H 0.664493 -2.863812 -1.120052
O 0.735718 1.249680 0.702062
H 0.267648 1.763502 0.041013
H 0.501506 1.609564 1.559801
O -2.335392 0.301262 1.422923
H -1.987874 0.335038 2.316333
H -1.638476 0.600247 0.835551
9
Structure 467 | Energy: -15.213574 Hartree
O -0.613720 -1.980366 0.142099
H 0.094397 -2.133446 0.770763
H -0.236960 -2.063978 -0.736059
O -1.777465 2.069502 -0.070370
H -0.901583 1.777781 0.190051
H -2.406847 1.620998 0.497794
O 0.367349 0.680429 -1.559918
H 0.202611 -0.263619 -1.518373
H 0.319004 0.936869 -2.482951
9
Structure 468 | Energy: -15.213568 Hartree
O -0.448046 0.242464 -2.074890
H -0.861128 0.140114 -2.934523
H -1.145282 0.198274 -1.417615
O 1.775622 -1.462362 1.198748
H 1.033022 -1.059115 1.652649
H 1.457971 -1.761463 0.344509
O -0.921369 1.921451 1.573924
H -1.024480 2.746012 2.053047
H -1.424516 2.000395 0.761089
9
Structure 469 | Energy: -15.213567 Hartree
O -0.055309 -0.831838 -2.010612
H 0.532178 -1.139694 -2.703552
H 0.187776 -1.293986 -1.205982
O -0.469523 0.169213 2.701339
H 0.226435 0.369345 2.072310
H -0.602933 -0.780531 2.684715
O 2.273659 -0.384800 -0.219282
H 1.975994 0.282898 0.401739
H 3.117508 -0.712101 0.098337
9
Structure 470 | Energy: -15.213563 Hartree
O -0.962262 2.614146 0.996786
H -0.097984 2.282772 0.745200
H -1.545646 1.856600 1.073507
O -1.272095 -1.147428 -0.720021
H -0.893301 -0.329321 -1.047596
H -2.156359 -1.217230 -1.085115
O 1.308271 -1.853521 0.438280
H 0.645930 -1.359350 -0.048742
H 2.121225 -1.815647 -0.069422
9
Structure 471 | Energy: -15.213558 Hartree
O 1.443091 2.242908 -0.993119
H 1.358076 2.919740 -1.667473
H 1.125347 2.620119 -0.170410
O -1.044445 -1.629155 0.747476
H -1.963876 -1.376036 0.850750
H -0.538289 -1.129671 1.391221
O -0.962564 -0.794166 -2.340530
H -0.935525 -0.057236 -1.727102
H -0.062102 -1.106222 -2.449521
9
Structure 472 | Energy: -15.213535 Hartree
O 0.452594 -1.417835 1.589034
H 0.546753 -0.549735 1.192022
H 1.238358 -1.919860 1.363989
O -0.312967 0.146195 -2.480277
H 0.565789 0.512291 -2.362591
H -0.207233 -0.734437 -2.845509
O 2.036140 -1.370462 -0.834902
H 2.536846 -2.062789 -0.398934
H 2.142794 -1.494910 -1.780009
9
Structure 473 | Energy: -15.213530 Hartree
O 0.995983 1.081527 -0.611015
H 1.931629 0.996944 -0.804651
H 0.517494 0.803911 -1.394646
O 1.954860 -1.605262 1.107987
H 2.652544 -2.221557 1.339299
H 1.125005 -1.998715 1.384797
O -0.690168 -0.539893 2.144197
H -1.307665 -0.606622 1.413214
H -0.854020 0.299399 2.578745
9
Structure 474 | Energy: -15.213527 Hartree
O 1.103261 -0.881900 1.045293
H 0.713334 -1.750852 1.159136
H 2.048243 -1.006480 0.937639
O 1.905448 1.903229 -0.151035
H 2.811139 2.165131 -0.327725
H 1.930592 1.008376 0.193485
O -2.173691 -1.219088 0.053909
H -1.307919 -1.564983 0.279488
H -2.059593 -0.637753 -0.700493
9
Structure 475 | Energy: -15.213499 Hartree
O 0.893313 -1.523176 -1.606146
H 0.603175 -0.704157 -2.012483
H 1.708643 -1.782266 -2.039977
O -1.214509 0.997722 1.036310
H -0.685067 0.222865 1.234748
H -1.148379 1.152708 0.092014
O 2.899655 0.127298 0.158816
H 2.601057 0.686103 -0.561370
H 2.122699 -0.132348 0.657828
9
Structure 476 | Energy: -15.213461 Hartree
O 0.889470 0.249909 -1.256101
H 1.461202 0.544121 -0.544313
H 0.804250 0.980095 -1.872271
O 0.561661 -0.974519 2.387867
H 1.027490 -0.247118 2.804977
H 0.731880 -0.917772 1.445586
O -2.762636 0.201767 -0.570525
H -2.725258 -0.084981 -1.485112
H -1.916208 0.602895 -0.363776
9
Structure 477 | Energy: -15.213443 Hartree
O 0.155391 2.210914 -0.975730
H -0.062866 2.842135 -1.664211
H 0.984911 1.797145 -1.222291
O 0.405837 -2.134087 0.815912
H 0.974450 -2.317655 1.566292
H 0.353704 -1.180562 0.725579
O -1.566896 -0.564665 2.141341
H -1.452585 -0.005236 1.370585
H -2.125486 -0.087671 2.758224
9
Structure 478 | Energy: -15.213438 Hartree
O 0.878160 1.463357 1.474408
H 1.527735 1.906111 0.924770
H 1.353531 1.044766 2.194758
O -0.630861 -2.306671 -0.729181
H -0.006508 -2.990722 -0.978875
H -0.148511 -1.655401 -0.216079
O 2.175952 0.840713 -1.627783
H 2.027697 0.448535 -2.490516
H 3.082827 0.649267 -1.380769
9
Structure 479 | Energy: -15.213422 Hartree
O -1.564054 1.255894 1.985792
H -0.667183 1.188809 2.319263
H -1.900462 2.115550 2.246410
O -0.202616 -0.406969 -1.534013
H -0.350233 -1.133472 -2.142693
H -0.178175 0.398725 -2.053963
O 1.213302 1.916915 0.427952
H 0.345403 2.100726 0.063184
H 1.847583 2.014722 -0.284937
9
Structure 480 | Energy: -15.213415 Hartree
O -1.071104 2.542760 0.810919
H -1.010127 1.678244 1.221986
H -0.376559 3.086285 1.188128
O 0.415132 -0.052653 -0.439615
H 0.586154 0.800918 -0.036802
H 0.871418 -0.711824 0.087058
O -2.001477 -1.202854 -0.781891
H -1.633884 -0.529580 -1.357798
H -2.881069 -1.405138 -1.106682
9
Structure 481 | Energy: -15.213401 Hartree
O 1.543112 1.441072 -0.813670
H 1.078512 2.162653 -0.385243
H 2.217533 1.135597 -0.203799
O -2.580920 -0.010778 0.227709
H -1.732990 0.421227 0.107394
H -2.439166 -0.756323 0.814357
O 0.431538 -1.040919 0.936458
H -0.001306 -1.101023 1.790345
H -0.250659 -1.115577 0.266291
9
Structure 482 | Energy: -15.213389 Hartree
O -1.024578 -2.553366 -0.123415
H -1.297546 -3.453214 -0.312742
H -1.176193 -2.401267 0.811453
O -0.359365 0.526173 0.952749
H -1.008442 0.105113 1.519756
H -0.462414 1.473995 1.058109
O 1.497894 0.025713 -1.416375
H 1.584477 0.266388 -0.491892
H 1.470488 -0.932153 -1.459175
9
Structure 483 | Energy: -15.213369 Hartree
O 2.644273 0.776780 0.115514
H 2.399359 0.823570 -0.810720
H 1.999556 1.290350 0.606110
O -0.409146 0.231635 1.911637
H -0.980684 0.958960 1.657804
H 0.005374 0.472687 2.742394
O -1.490850 -0.203034 -1.749723
H -2.442025 -0.262951 -1.858197
H -1.120564 -1.045857 -2.019218
9
Structure 484 | Energy: -15.213365 Hartree
O -1.033759 -0.001186 1.839021
H -1.390077 0.482835 2.586579
H -0.879318 -0.901678 2.131187
O 1.741148 2.135776 -0.675161
H 1.335430 2.912351 -0.284762
H 2.561792 1.977091 -0.204575
O 2.209998 -0.140983 1.146239
H 3.133304 0.013739 0.937295
H 1.768465 -0.373475 0.327040
9
Structure 485 | Energy: -15.213363 Hartree
O -1.607295 -0.070790 -1.398113
H -2.388660 0.448602 -1.597567
H -1.523923 -0.103222 -0.443075
O 1.088437 0.490799 2.015632
H 0.194167 0.645484 2.326183
H 1.570880 1.313547 2.117720
O 1.585582 -2.454340 -0.121067
H 0.856091 -3.046407 0.072300
H 1.231664 -1.562931 -0.135966
9
Structure 486 | Energy: -15.213354 Hartree
O 2.027648 -1.067655 -1.379694
H 1.729995 -1.803820 -1.917788
H 2.930756 -1.255154 -1.116370
O -0.990505 1.695125 0.423270
H -0.538380 1.530047 1.252981
H -0.747585 2.578198 0.138209
O 0.284518 -0.724103 0.761348
H -0.358751 -0.869866 0.064893
H 0.973103 -1.383295 0.654544
9
Structure 487 | Energy: -15.213346 Hartree
O 0.942187 1.426864 2.214497
H 0.080393 1.847850 2.227326
H 1.575220 2.084485 1.919703
O -0.193751 -1.186702 -1.108475
H -0.351060 -0.467925 -0.493088
H 0.424465 -0.865832 -1.767975
O 1.826554 1.239781 -0.286633
H 2.692618 0.951451 0.008138
H 1.768069 1.049772 -1.225017
9
Structure 488 | Energy: -15.213295 Hartree
O 0.975855 -0.315793 -2.192356
H 1.107288 -0.931737 -1.468879
H 0.482165 0.429545 -1.844732
O -0.255482 0.518105 1.294356
H -0.924657 0.456031 1.978783
H 0.400025 -0.158260 1.475821
O -2.170379 -0.529274 -0.248581
H -2.910169 -0.520989 0.361938
H -2.442817 -0.046759 -1.031554
9
Structure 489 | Energy: -15.213281 Hartree
O -1.201649 -0.122386 1.836656
H -0.449168 -0.622018 1.513825
H -1.290707 -0.315521 2.772000
O -1.194139 1.904923 -1.692471
H -0.579636 1.209136 -1.934040
H -0.701110 2.558328 -1.192399
O 2.366945 -0.520123 0.428398
H 2.021347 0.288848 0.810784
H 3.032478 -0.857530 1.031152
9
Structure 490 | Energy: -15.213279 Hartree
O -2.355265 1.183354 1.111362
H -2.894872 0.694756 0.486719
H -2.275718 2.079279 0.778059
O 0.562444 -2.113684 -0.492779
H 0.912142 -1.360932 -0.011984
H 1.278627 -2.470436 -1.021833
O 1.244502 -1.022387 2.136948
H 0.488438 -0.433008 2.169981
H 1.960682 -0.542404 1.716481
9
Structure 491 | Energy: -15.213274 Hartree
O -2.079000 -0.807936 1.413707
H -1.271740 -1.316960 1.510173
H -2.714315 -1.161629 2.039308
O 0.328547 1.968002 -0.238961
H 0.857236 1.225349 0.059442
H -0.519829 1.909221 0.204763
O -1.655679 0.072417 -1.692972
H -1.014405 -0.163995 -2.366001
H -2.250504 0.716990 -2.081300
9
Structure 492 | Energy: -15.213273 Hartree
O 0.560031 0.083283 2.528475
H -0.072473 0.801503 2.593133
H 0.921429 0.102146 1.640142
O -1.475231 -0.304787 -0.469175
H -1.244735 -0.057614 0.428525
H -0.784595 0.032706 -1.042943
O 0.021719 2.457757 -1.289528
H 0.257709 3.335417 -1.596307
H 0.835660 1.956704 -1.208682
9
Structure 493 | Energy: -15.213266 Hartree
O 2.339981 1.125059 0.069714
H 3.249420 1.228325 0.356663
H 1.922221 0.502627 0.668174
O -1.853406 -0.271838 -0.545319
H -1.519008 -0.270841 -1.444355
H -2.752432 0.061150 -0.576282
O 0.745426 -1.983471 -1.745945
H 1.522681 -1.544854 -1.394407
H 0.440416 -1.465234 -2.493267
9
Structure 494 | Energy: -15.213253 Hartree
O -0.712624 -1.037951 -0.430035
H 0.088973 -0.523102 -0.541635
H -0.466992 -1.963099 -0.492199
O -1.368288 1.769123 0.918913
H -0.466874 2.063006 0.773403
H -1.626217 1.253549 0.152269
O 0.718405 -1.023353 2.227307
H 0.625907 -0.944394 3.178780
H 1.495085 -0.520315 1.974696
9
Structure 495 | Energy: -15.213248 Hartree
O 0.057073 -0.231493 2.127109
H -0.171990 -0.142154 1.199946
H 0.779726 0.374870 2.300881
O -0.269960 1.449996 -2.236572
H -0.230491 0.605316 -1.783750
H -0.781421 2.044662 -1.684423
O -2.728197 -0.454210 0.767653
H -2.430984 0.410770 0.478577
H -2.151917 -0.727834 1.483978
9
Structure 496 | Energy: -15.213235 Hartree
O -1.430499 -1.743230 -1.216548
H -1.295257 -0.985498 -0.644155
H -2.326579 -2.052936 -1.070869
O 1.376109 1.439616 0.602384
H 0.420556 1.376132 0.656948
H 1.738279 0.691054 1.080480
O 1.412194 0.687896 -2.345966
H 1.255159 1.634157 -2.350763
H 2.172749 0.529016 -1.783469
9
Structure 497 | Energy: -15.213224 Hartree
O 0.930472 -0.168249 -1.178560
H 1.631045 -0.404520 -1.789670
H 1.012781 -0.743958 -0.415746
O 2.601735 1.226026 0.224053
H 3.045525 1.864316 0.785948
H 1.672562 1.463308 0.203478
O -2.147249 -1.323028 -0.847945
H -2.404645 -0.431982 -0.603249
H -2.065314 -1.827981 -0.036528
9
Structure 498 | Energy: -15.213205 Hartree
O 0.456229 -1.927744 -1.435101
H -0.219102 -2.558298 -1.177398
H 0.897972 -2.284665 -2.208128
O -0.372850 1.682749 1.448409
H -1.191882 1.192815 1.544535
H -0.093640 1.592927 0.535139
O 2.130494 1.764462 0.794769
H 2.050953 0.829704 0.994750
H 2.584333 2.175321 1.533223
9
Structure 499 | Energy: -15.213156 Hartree
O 0.397107 -0.267807 -1.780707
H -0.520707 -0.514507 -1.910465
H 0.470796 0.097672 -0.896912
O -1.875061 -2.262759 -0.134534
H -2.649783 -1.852844 -0.524232
H -1.107180 -1.900523 -0.580889
O -0.225702 0.273975 1.925149
H 0.513036 -0.129328 2.385263
H 0.014434 1.185229 1.746149
9
Structure 500 | Energy: -15.213133 Hartree
O 1.052564 -2.309385 1.144430
H 1.329605 -2.866958 0.414743
H 0.824305 -2.888847 1.873964
O -0.417037 1.364194 -1.265809
H -1.028425 0.772386 -0.823026
H -0.221071 2.078305 -0.656111
O -1.328602 1.202342 1.814344
H -1.876095 1.568980 2.511423
H -0.682795 1.871335 1.578821
9
Structure 501 | Energy: -15.213125 Hartree
O 1.291563 -0.727599 1.606083
H 1.835223 0.057774 1.693853
H 0.642898 -0.549103 0.922363
O 1.212368 1.029523 -2.281822
H 1.521197 1.762493 -1.745661
H 1.604271 1.128950 -3.151658
O -2.303235 -0.390917 0.872190
H -2.079728 0.351003 0.306778
H -3.054680 -0.125115 1.405828
9
Structure 502 | Energy: -15.213123 Hartree
O 1.007304 2.107841 1.078371
H 1.699083 2.483534 0.530302
H 1.269866 1.210248 1.291650
O 1.875387 -0.121580 -1.118023
H 1.825915 0.764927 -0.755054
H 0.976288 -0.445703 -1.199593
O -2.374655 -1.356147 -0.739053
H -1.557748 -1.152799 -0.279267
H -2.845545 -2.002389 -0.209219
9
Structure 503 | Energy: -15.213104 Hartree
O 0.454047 -1.364441 2.372791
H 1.355422 -1.120519 2.153457
H 0.117032 -1.890565 1.644977
O 1.148702 1.426480 -0.808806
H 0.993237 1.775631 0.070974
H 0.307401 1.106225 -1.140070
O -1.753300 0.407175 1.125532
H -2.590197 0.735802 0.791318
H -1.661179 -0.497570 0.820506
9
Structure 504 | Energy: -15.213100 Hartree
O -2.802221 0.268240 0.500156
H -2.683107 -0.512899 -0.043641
H -2.144202 0.909380 0.224383
O -0.216181 -1.561183 -1.309810
H -0.158559 -2.225695 -0.620468
H -1.059894 -1.681072 -1.750108
O 0.803255 0.585766 1.335769
H 1.267394 1.419739 1.240082
H 1.058847 0.213920 2.182228
9
Structure 505 | Energy: -15.213093 Hartree
O 2.110239 0.932025 -0.452915
H 1.686451 0.345637 0.176875
H 1.554506 1.709466 -0.535652
O -0.150610 -0.564556 2.804368
H -0.967058 -0.307649 2.371356
H 0.571911 -0.263126 2.250119
O -1.970114 0.477792 -1.311410
H -2.710564 0.954575 -0.931275
H -2.235940 0.192098 -2.187655
9
Structure 506 | Energy: -15.213080 Hartree
O -0.060812 0.943129 2.040769
H 0.525605 1.422011 1.451813
H -0.382367 0.177476 1.560687
O 0.943568 -2.563917 -0.171522
H 0.873912 -1.837561 0.451089
H 0.050633 -2.842225 -0.384355
O -1.824599 0.519526 -1.477798
H -2.602747 -0.035979 -1.555204
H -1.185294 0.203903 -2.119484
9
Structure 507 | Energy: -15.213057 Hartree
O -1.210795 -0.925791 0.668471
H -2.010989 -1.443599 0.560555
H -0.500678 -1.407645 0.239927
O -0.721303 2.225301 -0.594273
H -1.209822 1.424264 -0.394834
H -1.358592 2.939949 -0.651095
O 0.769119 -0.017612 2.786888
H 1.403874 -0.729020 2.681647
H -0.047109 -0.409697 3.103324
9
Structure 508 | Energy: -15.213020 Hartree
O 0.504374 -1.255977 -1.237452
H 0.245562 -0.926438 -0.374606
H -0.050252 -2.014569 -1.429878
O 0.284822 0.379023 2.619446
H -0.397530 0.999881 2.356729
H 0.402669 0.470640 3.566973
O 1.669308 0.995140 -0.709140
H 2.504237 0.953399 -1.179504
H 1.743213 0.416938 0.052641
9
Structure 509 | Energy: -15.213006 Hartree
O 0.538439 2.445967 0.305944
H -0.381196 2.592327 0.536015
H 0.745786 3.033538 -0.423349
O -0.609285 -0.027975 -0.066674
H -1.530168 -0.165562 -0.297183
H -0.146577 -0.849539 -0.242803
O 1.467118 -1.876107 -1.475958
H 2.046330 -1.112428 -1.513349
H 1.506330 -2.218818 -0.580915
9
Structure 510 | Energy: -15.213005 Hartree
O -1.433625 -0.524099 0.047244
H -2.101436 -1.039347 0.504003
H -1.616105 0.400341 0.226721
O 1.606797 -1.670999 1.776517
H 1.165295 -2.010387 0.995505
H 2.517757 -1.494258 1.533615
O 0.403445 0.971057 -2.022150
H 1.197317 1.487975 -2.172663
H 0.532646 0.121449 -2.448254
9
Structure 511 | Energy: -15.213003 Hartree
O 0.042925 0.060715 1.415779
H 0.486308 -0.099754 2.251090
H 0.540484 0.739734 0.955923
O -1.706084 -1.543669 -0.912770
H -1.626544 -0.590303 -0.982454
H -2.640366 -1.755153 -0.962573
O 0.043568 1.699613 -2.158761
H -0.843001 1.488865 -1.859308
H 0.382316 0.924602 -2.611197
9
Structure 512 | Energy: -15.212957 Hartree
O 1.141770 0.562957 -1.361510
H 1.072303 1.494333 -1.580130
H 0.668383 0.428358 -0.538170
O 0.414046 -2.489590 1.031640
H -0.247542 -2.196952 0.401756
H 0.752805 -1.707512 1.471738
O -0.907687 2.290149 -0.366977
H -0.996271 1.493024 0.159174
H -1.787169 2.656720 -0.477553
9
Structure 513 | Energy: -15.212955 Hartree
O -0.033687 -1.455090 2.364997
H 0.662463 -1.077128 1.824070
H -0.862447 -1.073805 2.068555
O 2.067197 0.673992 -0.196420
H 2.748471 0.512776 0.459296
H 1.230098 0.415730 0.194288
O -0.324688 0.764415 -2.284840
H 0.547639 1.073287 -2.032383
H -0.903587 0.902309 -1.532543
9
Structure 514 | Energy: -15.212928 Hartree
O -1.676833 2.274474 -0.350039
H -1.369599 1.479985 -0.791033
H -1.281973 3.021834 -0.803513
O -0.989863 -0.270506 1.141615
H -0.391675 -0.203846 0.394744
H -0.833874 -1.121711 1.555386
O 1.358075 0.645311 -0.956153
H 1.059849 1.462979 -1.359353
H 2.109148 0.334791 -1.465621
9
Structure 515 | Energy: -15.212907 Hartree
O -0.511882 2.000781 2.115189
H 0.201954 1.947347 1.476703
H -0.870546 1.116750 2.214934
O -0.678004 -1.273004 -0.625296
H -0.340763 -0.459999 -1.006583
H -1.597713 -1.349294 -0.886837
O 1.994232 -1.931785 0.318943
H 1.491093 -2.542563 0.861063
H 1.795588 -1.046285 0.629619
9
Structure 516 | Energy: -15.212905 Hartree
O -0.450369 0.908629 -1.033078
H -0.326959 0.890113 -1.984135
H -0.026290 0.125703 -0.676309
O 0.026805 -0.276332 2.345419
H 0.486345 -1.092180 2.553516
H -0.884973 -0.385212 2.622715
O 1.880918 -1.407922 -1.545924
H 1.035231 -1.712837 -1.880485
H 2.292774 -0.892569 -2.242254
9
Structure 517 | Energy: -15.212876 Hartree
O -0.340062 0.449401 -2.197662
H -0.263361 -0.145458 -2.946221
H 0.068114 0.014641 -1.446346
O 2.076117 -1.323179 0.802774
H 1.951923 -0.607463 1.429204
H 1.209130 -1.562533 0.469410
O 2.094196 1.340326 -1.294310
H 2.337493 2.226060 -1.017954
H 2.629063 0.727254 -0.786225
9
Structure 518 | Energy: -15.212874 Hartree
O -1.421142 -1.645897 -1.794659
H -1.731119 -1.638906 -2.702374
H -1.344209 -0.731975 -1.513715
O 0.782668 1.349868 1.519754
H 0.387520 2.223001 1.479921
H 1.538663 1.406760 2.107396
O 1.058019 -0.592631 -0.395276
H 0.340313 -0.843162 0.189724
H 0.878196 0.299004 -0.699810
9
Structure 519 | Energy: -15.212852 Hartree
O 1.634964 -0.005150 -0.077858
H 0.943473 0.456886 0.400101
H 1.652839 -0.906645 0.249384
O -0.977815 -2.078622 -1.629691
H -0.816768 -2.612696 -2.410022
H -0.136660 -1.700780 -1.365529
O -1.246973 1.999997 -0.741320
H -0.519308 2.213869 -0.154077
H -2.053282 2.049077 -0.224071
9
Structure 520 | Energy: -15.212833 Hartree
O 1.509181 0.571370 -2.122127
H 0.667877 0.677086 -1.673670
H 1.554119 -0.335426 -2.431645
O -0.667336 -0.712992 2.081236
H -1.380501 -0.641104 1.443807
H -0.225876 0.138084 2.110748
O 2.643096 -0.220507 0.979569
H 1.990970 -0.514224 1.618751
H 2.792339 0.714180 1.135054
9
Structure 521 | Energy: -15.212831 Hartree
O -0.772012 -0.418158 -2.608831
H -0.392566 -1.249625 -2.317684
H -1.692310 -0.415735 -2.338377
O -1.292278 0.729454 0.482480
H -1.197237 -0.223963 0.437187
H -0.751363 1.102352 -0.216409
O 0.145911 0.240137 2.540008
H -0.279705 0.714148 3.257125
H 0.952676 0.712962 2.326336
9
Structure 522 | Energy: -15.212820 Hartree
O -2.189010 -0.579037 -1.360348
H -2.800046 -1.295788 -1.178727
H -1.407736 -0.966220 -1.760098
O 0.841009 -1.287388 -0.245593
H 1.139253 -1.909163 0.421141
H 0.236133 -1.757928 -0.822486
O 0.828572 1.851380 1.739221
H 1.615256 1.888631 1.191652
H 0.114716 1.523252 1.188920
9
Structure 523 | Energy: -15.212820 Hartree
O -0.782924 -0.546037 1.684213
H -0.106697 -0.979376 1.159793
H -1.598827 -1.033444 1.554456
O -2.229724 0.503451 -0.833099
H -1.612213 0.142160 -0.194164
H -1.754814 0.606841 -1.660057
O 1.804709 -1.152150 -0.369958
H 1.149314 -0.819084 -0.986087
H 1.484400 -1.994963 -0.042606
9
Structure 524 | Energy: -15.212811 Hartree
O 1.094139 -0.032995 -0.570349
H 1.200019 -0.278758 0.350776
H 1.738921 0.652086 -0.757487
O -1.699900 0.954885 1.686607
H -0.823183 1.293398 1.878606
H -1.828792 0.175345 2.230473
O -1.769001 -1.252520 -1.705492
H -0.907043 -1.220821 -1.285831
H -1.748632 -1.969431 -2.342449
9
Structure 525 | Energy: -15.212790 Hartree
O -0.175241 -0.800292 -1.648050
H 0.267158 -0.272465 -0.980394
H -1.020259 -0.382821 -1.826274
O 1.198470 1.675096 1.518068
H 0.345717 1.690825 1.079146
H 1.098173 1.150595 2.314891
O -1.974790 -1.405211 1.172855
H -2.634770 -0.712074 1.108996
H -2.369684 -2.129183 1.662767
9
Structure 526 | Energy: -15.212767 Hartree
O 0.762108 1.503802 -2.118694
H 0.084570 2.159763 -2.294019
H 0.581793 0.750829 -2.684925
O 0.037237 -1.738202 0.095079
H -0.020929 -1.074288 0.784952
H -0.321287 -1.348786 -0.704861
O -1.305547 1.574620 -0.870492
H -0.740767 2.061699 -0.267277
H -2.212937 1.745617 -0.610698
9
Structure 527 | Energy: -15.212762 Hartree
O 0.237903 -0.648524 0.520828
H -0.591566 -0.895089 0.934675
H 0.527809 -1.397952 -0.003015
O -1.000002 1.142934 -1.994571
H -0.762453 0.768701 -2.845223
H -0.900964 0.447977 -1.340877
O -1.622485 1.247567 1.854835
H -2.286826 1.515906 1.217076
H -2.065957 1.139243 2.698451
9
Structure 528 | Energy: -15.212757 Hartree
O 0.185357 -1.085855 -0.354720
H 0.746013 -0.420802 -0.759010
H 0.019837 -1.759043 -1.017684
O -0.598624 2.732146 0.488645
H -0.169926 3.106844 -0.283306
H -1.004239 1.906859 0.215758
O 1.002222 0.879536 1.566818
H 1.450797 0.081590 1.853442
H 0.083806 0.649452 1.412989
9
Structure 529 | Energy: -15.212749 Hartree
O -1.818765 -1.114506 -0.750084
H -0.941593 -0.834803 -1.019190
H -2.246518 -0.357496 -0.345036
O 1.216828 0.468771 0.901812
H 1.543277 1.311034 1.224477
H 1.942490 -0.156283 0.954823
O -0.542601 -1.214960 2.543509
H -0.799284 -0.292745 2.604538
H 0.385195 -1.267908 2.781168
9
Structure 530 | Energy: -15.212736 Hartree
O 1.428182 1.156517 0.941939
H 1.410449 0.803514 0.050224
H 1.664488 0.435157 1.528368
O 0.047590 -2.177544 -1.471408
H -0.784441 -2.554779 -1.178992
H 0.151022 -2.401868 -2.398267
O -1.969527 0.185817 1.336809
H -1.419119 0.048672 2.110329
H -2.326236 -0.668800 1.086853
9
Structure 531 | Energy: -15.212719 Hartree
O 1.951987 1.138405 0.235206
H 1.455666 1.335720 -0.561546
H 1.668797 1.760950 0.907770
O -0.631817 -0.092454 -2.430800
H -1.550506 0.174581 -2.361575
H -0.287906 -0.161064 -1.537992
O -1.765772 0.441724 2.146324
H -1.504061 0.866804 2.965412
H -2.054619 1.132928 1.547246
9
Structure 532 | Energy: -15.212688 Hartree
O -1.300309 -0.983458 -0.554085
H -1.001725 -1.314226 -1.403509
H -0.766329 -1.408530 0.119918
O 0.747457 1.911332 1.801716
H 1.456088 1.931003 2.447892
H 0.923359 2.607720 1.165956
O 1.679724 -1.252026 -1.279859
H 1.777219 -1.321612 -0.328154
H 2.199496 -1.956989 -1.670953
9
Structure 533 | Energy: -15.212687 Hartree
O 1.303205 0.648110 0.201757
H 0.767800 0.993238 0.918910
H 2.156561 1.083563 0.249344
O 0.296829 -2.675904 -0.483910
H 0.688434 -3.342391 -1.051827
H -0.544558 -2.429739 -0.873214
O -2.138614 0.542750 1.470961
H -1.335075 0.029017 1.573405
H -1.947284 1.248629 0.850302
9
Structure 534 | Energy: -15.212679 Hartree
O -0.153740 0.510381 2.300666
H 0.632845 0.690329 1.782030
H -0.641943 -0.179100 1.846382
O 0.478201 -1.973651 -1.878161
H 1.097138 -2.307127 -1.225628
H 0.703456 -1.055435 -2.040114
O -2.229653 0.394056 -0.811147
H -3.010411 0.577899 -1.337179
H -1.467084 0.634982 -1.340800
9
Structure 535 | Energy: -15.212677 Hartree
O -1.509525 0.579322 -0.105076
H -0.738316 0.661671 0.459315
H -1.197261 0.560894 -1.011857
O 0.109717 -2.224208 1.418534
H 0.069679 -2.226950 2.376906
H -0.694181 -2.638973 1.099463
O 1.418976 0.007115 -2.209614
H 0.557625 0.350247 -2.455429
H 1.943913 0.749571 -1.904179
9
Structure 536 | Energy: -15.212673 Hartree
O 0.327021 -0.716223 1.143327
H 0.917854 -0.008183 1.407291
H -0.505789 -0.312271 0.891632
O -0.266161 2.092677 -1.907747
H -0.699504 2.634200 -2.570360
H 0.311257 1.483488 -2.372038
O -1.071687 -2.227305 -1.084541
H -0.670428 -1.363776 -0.968775
H -1.649748 -2.171881 -1.847996
9
Structure 537 | Energy: -15.212659 Hartree
O -1.918932 1.019907 -0.567270
H -2.819172 0.727084 -0.412662
H -1.723288 0.860338 -1.492668
O 0.906581 -2.192088 1.138044
H 0.162721 -2.620491 0.709988
H 0.785724 -2.291800 2.084373
O 0.357214 -0.029403 -0.352153
H 1.109083 -0.623039 -0.303375
H 0.467216 0.625766 0.339760
9
Structure 538 | Energy: -15.212659 Hartree
O 1.548650 0.054745 1.691649
H 1.312589 -0.848789 1.472600
H 2.449559 0.193363 1.392906
O -1.864816 -2.241241 -0.058648
H -1.202302 -2.319108 -0.747924
H -1.444761 -1.817746 0.692547
O -1.416991 2.157907 0.471783
H -0.967577 2.534178 -0.287518
H -0.927777 1.375009 0.732224
9
Structure 539 | Energy: -15.212657 Hartree
O -0.015322 -0.756684 -2.167550
H 0.753270 -1.330025 -2.142485
H 0.067589 -0.138439 -1.438853
O -0.252925 2.397656 1.455469
H -0.608104 3.274138 1.295104
H -0.924525 1.900902 1.926931
O 2.052766 -0.625136 1.220495
H 1.840204 -0.538262 0.289172
H 2.933975 -0.267391 1.345308
9
Structure 540 | Energy: -15.212625 Hartree
O 1.169661 0.950348 1.447679
H 0.832088 1.846989 1.401200
H 1.490566 0.813597 2.341221
O 0.850287 -0.141564 -2.570853
H 0.645019 0.307072 -3.393458
H 0.109195 -0.001338 -1.978226
O -1.598900 2.031475 0.439830
H -1.423741 1.300378 1.035570
H -1.141536 2.798694 0.789520
9
Structure 541 | Energy: -15.212608 Hartree
O 0.545516 -0.057111 -1.772394
H 0.082515 0.039606 -2.606875
H 0.167724 -0.816423 -1.324265
O 0.684335 1.427581 1.865590
H 0.040536 0.733724 1.710112
H 1.418331 1.032813 2.340454
O -0.748691 -2.730393 -0.089631
H -0.614528 -1.839497 0.239606
H -0.774847 -3.313575 0.671489
9
Structure 542 | Energy: -15.212598 Hartree
O 1.281050 1.663022 1.031177
H 1.141038 2.547834 1.374085
H 1.471269 1.094869 1.780256
O 2.073699 -0.624876 -0.259732
H 1.745688 -0.771315 -1.149144
H 1.355292 -0.823037 0.344182
O -0.615719 -1.812554 -1.880695
H 0.036265 -2.408402 -2.254825
H -1.273756 -1.649249 -2.559229
9
Structure 543 | Energy: -15.212590 Hartree
O -1.576228 -0.992866 0.813010
H -2.274733 -1.347065 1.366830
H -1.108912 -1.739386 0.432977
O -0.720877 0.302536 -2.332893
H -1.629772 0.402622 -2.043097
H -0.169055 0.772682 -1.704767
O 0.890591 -1.230895 2.310924
H 1.616477 -1.607213 1.809359
H 0.630554 -1.881538 2.966007
9
Structure 544 | Energy: -15.212565 Hartree
O -0.380074 1.032996 -2.177817
H -0.061794 1.282886 -1.308142
H 0.278527 1.318349 -2.814149
O -1.935115 -0.295564 0.533528
H -1.031897 -0.077433 0.771657
H -2.500850 0.375491 0.920461
O 0.390376 -2.251916 1.628893
H 0.252317 -3.173150 1.400073
H 0.175214 -1.731095 0.852658
9
Structure 545 | Energy: -15.212562 Hartree
O -0.859068 -1.043711 -1.398364
H -0.739706 -0.501900 -0.615884
H -1.294524 -0.499236 -2.057169
O -0.979566 1.386101 2.058858
H -0.669880 0.649442 2.589439
H -0.292861 1.583775 1.418976
O 2.633053 -0.658258 -0.418683
H 2.716559 -0.504954 -1.361877
H 1.734012 -0.431856 -0.172597
9
Structure 546 | Energy: -15.212562 Hartree
O -0.580494 -2.186755 0.079306
H -0.999314 -1.337444 0.232091
H -1.118160 -2.851067 0.514858
O -0.289863 2.748705 -0.428296
H -0.829927 2.256287 -1.049540
H 0.003328 3.544919 -0.875699
O -1.060593 -0.073770 -2.250885
H -1.409117 -0.965224 -2.313596
H -1.566171 0.382001 -1.575050
9
Structure 547 | Energy: -15.212558 Hartree
O 1.334981 0.399128 -1.160740
H 1.522125 0.150890 -2.068174
H 2.111796 0.183052 -0.641153
O 1.549178 -1.809756 0.465261
H 2.477854 -1.762498 0.700668
H 1.133957 -1.006187 0.784566
O -1.132914 2.274359 -1.340448
H -1.787159 1.990777 -0.698860
H -0.930281 1.517081 -1.893222
9
Structure 548 | Energy: -15.212558 Hartree
O 0.640782 2.210494 1.364587
H 0.637572 2.942713 0.744969
H -0.243169 2.144730 1.731199
O 1.233760 -1.316616 -0.073770
H 1.269622 -0.361907 -0.159396
H 2.135721 -1.626755 0.028050
O -1.463141 -0.970831 -1.606775
H -2.201097 -0.636778 -2.120507
H -1.070180 -1.688437 -2.107487
9
Structure 549 | Energy: -15.212549 Hartree
O 0.006654 0.815429 2.041770
H -0.804701 0.611703 2.511112
H 0.515057 0.003817 1.987807
O 1.095673 -1.115085 -2.222141
H 0.316538 -0.776635 -2.667662
H 0.828861 -1.900705 -1.740787
O -2.145047 0.356337 -0.891071
H -2.438951 1.027715 -0.272231
H -2.657140 -0.435513 -0.715501
9
Structure 550 | Energy: -15.212545 Hartree
O -1.189846 0.050972 2.492314
H -0.413691 0.252315 1.965887
H -1.745973 0.832516 2.488882
O 0.772546 1.946250 0.099244
H 1.201340 2.343784 0.859633
H -0.154428 1.837452 0.320535
O -1.096933 -0.818269 -2.202951
H -0.284247 -1.022548 -1.736152
H -1.708185 -1.538816 -2.037806
9
Structure 551 | Energy: -15.212530 Hartree
O 0.741272 -0.767418 1.184301
H 1.668679 -0.598157 1.007250
H 0.532047 -0.352876 2.023634
O -0.565883 -2.840575 0.218624
H -0.219858 -2.206962 -0.412954
H -1.367982 -2.465202 0.587160
O -0.069734 1.532483 -1.089272
H -0.733006 2.160131 -1.382904
H -0.241572 0.704743 -1.542491
9
Structure 552 | Energy: -15.212529 Hartree
O -1.050912 -0.356636 -2.096267
H -1.792640 -0.918606 -1.863652
H -0.250319 -0.844459 -1.893340
O -0.135082 0.151159 1.944678
H -0.632841 -0.648740 1.764438
H 0.633379 0.142927 1.370667
O 2.624286 0.777326 0.227665
H 2.698914 -0.167038 0.378325
H 3.509157 1.143992 0.279137
9
Structure 553 | Energy: -15.212526 Hartree
O 0.692483 1.605194 -1.670457
H -0.228665 1.795458 -1.482392
H 0.793239 0.651331 -1.660775
O 0.862028 -1.594760 0.691647
H -0.012609 -1.238698 0.859924
H 1.270619 -1.759037 1.543795
O 0.021787 -1.336518 -1.753973
H -0.354333 -1.278857 -2.634484
H -0.648369 -1.717586 -1.183212
9
Structure 554 | Energy: -15.212518 Hartree
O 0.476320 -0.793955 -0.406083
H 1.266801 -0.428444 -0.004057
H 0.157127 -1.487639 0.174450
O -0.284420 1.126953 2.533684
H 0.244497 1.188277 3.331541
H -0.857313 0.363747 2.630633
O -2.678166 -0.048616 0.426467
H -2.314045 0.765592 0.073518
H -2.156442 -0.282751 1.196580
9
Structure 555 | Energy: -15.212495 Hartree
O -0.525935 -1.930411 -1.519641
H -1.416025 -2.230540 -1.713917
H -0.542643 -1.540069 -0.643596
O -1.508281 1.961577 1.233751
H -1.870876 1.309436 0.630985
H -2.184093 2.628316 1.370956
O 2.553705 1.271273 -0.633981
H 1.768805 1.781350 -0.424592
H 2.996886 1.078884 0.194673
9
Structure 556 | Energy: -15.212491 Hartree
O -1.337004 0.885601 -1.897087
H -0.502804 0.497515 -1.625828
H -1.182036 1.340603 -2.727182
O 0.787286 -0.703568 1.660528
H 0.969335 -0.823288 2.594666
H -0.021851 -0.192994 1.591977
O -0.027891 -2.647341 0.009985
H 0.754499 -3.181005 0.162165
H -0.535622 -2.649070 0.823802
9
Structure 557 | Energy: -15.212472 Hartree
O -0.379449 -1.974522 1.902897
H -1.317268 -1.776270 1.938592
H -0.290553 -2.929589 1.909523
O 0.719523 1.375965 -0.058849
H 0.138368 0.713853 -0.438264
H 0.274539 1.737332 0.710237
O -1.399928 -0.879152 -1.562518
H -1.391237 -0.662093 -0.628227
H -2.098031 -1.522858 -1.698113
9
Structure 558 | Energy: -15.212464 Hartree
O 0.091542 1.904209 1.804490
H 1.010478 2.060958 2.030475
H 0.034219 1.015397 1.448361
O -2.024469 -0.680646 -0.562931
H -2.019749 -1.483248 -0.037673
H -2.898200 -0.599910 -0.950440
O 1.259442 -1.010603 -2.355594
H 1.733629 -0.176800 -2.358765
H 1.238023 -1.321759 -1.448503
9
Structure 559 | Energy: -15.212440 Hartree
O -1.936621 -0.630482 0.335293
H -1.462431 -0.670562 -0.497545
H -2.534199 0.118243 0.286186
O 1.829720 0.248942 -1.821049
H 2.471008 0.605544 -2.438847
H 1.693124 -0.671673 -2.053205
O 0.699488 -0.806571 2.509188
H 0.062095 -1.511850 2.381114
H 1.536405 -1.217517 2.734540
9
Structure 560 | Energy: -15.212419 Hartree
O -0.569566 -1.531318 -2.097917
H -0.120288 -0.830059 -1.622031
H 0.066880 -1.916850 -2.703228
O -0.671424 1.302251 -0.018962
H 0.063579 1.228470 0.592933
H -1.043119 2.180018 0.088074
O 1.985538 -1.208359 0.950527
H 2.835176 -0.802287 0.768012
H 1.309427 -0.611743 0.623399
9
Structure 561 | Energy: -15.212414 Hartree
O 1.660331 -1.149301 0.492323
H 2.602985 -1.319265 0.543283
H 1.547990 -0.296515 0.067781
O -0.426707 -0.891143 2.630490
H 0.072382 -0.186402 2.212951
H -1.356284 -0.708656 2.479913
O -0.524172 1.232165 -0.666241
H -0.911997 1.763701 -1.364205
H -0.777517 1.630902 0.168573
9
Structure 562 | Energy: -15.212410 Hartree
O 1.405547 -1.373813 0.228498
H 1.891251 -1.431314 1.053644
H 0.952694 -0.528235 0.223769
O 1.668455 1.734403 -1.558113
H 1.462371 2.070116 -2.432707
H 1.841996 2.492410 -0.996511
O -1.663729 -1.359587 1.286449
H -2.222115 -0.586094 1.386471
H -2.208431 -2.057278 0.916831
9
Structure 563 | Energy: -15.212355 Hartree
O -1.746881 -0.540890 1.720836
H -1.729096 -1.315859 1.155868
H -1.925137 -0.843994 2.613278
O 0.836613 -1.960286 0.677778
H 0.682315 -2.544057 1.423092
H 1.283828 -1.181496 1.014783
O 0.686720 2.023264 -1.844167
H 0.725588 2.954913 -2.069133
H 1.219454 1.898830 -1.056258
9
Structure 564 | Energy: -15.212354 Hartree
O -0.605729 -2.118263 0.008316
H 0.087625 -2.225142 0.662471
H -1.234587 -1.485963 0.361635
O 0.428343 2.323657 -0.775901
H 0.363657 3.106526 -1.326375
H -0.031912 2.514013 0.043866
O 0.361789 -0.146923 2.827711
H -0.267976 -0.862105 2.718157
H 1.050028 -0.271421 2.171268
9
Structure 565 | Energy: -15.212345 Hartree
O -1.025339 1.681112 -2.087910
H -0.489846 1.944021 -1.336772
H -1.923338 1.567122 -1.770572
O -1.992382 -0.522968 0.442409
H -2.802598 -0.016211 0.525092
H -2.232764 -1.450866 0.478613
O 1.678324 -0.665350 1.843338
H 2.003527 -0.869676 0.964370
H 2.171390 -1.207914 2.461884
9
Structure 566 | Energy: -15.212339 Hartree
O 1.925639 0.040551 0.170195
H 2.647106 0.668404 0.096927
H 1.243922 0.452320 0.704805
O -1.185824 -0.719726 -0.360806
H -1.849692 -1.379754 -0.569923
H -0.482188 -0.810098 -1.006420
O 0.530397 2.200516 -0.145565
H 0.369065 2.580448 -1.011426
H 1.182362 2.753011 0.290074
9
Structure 567 | Energy: -15.212329 Hartree
O -1.047455 0.001259 2.590891
H -0.175768 0.398440 2.540983
H -1.566678 0.364264 1.870658
O -0.191597 -0.994339 -0.879606
H 0.286255 -0.243740 -1.237861
H -0.473807 -1.532060 -1.622102
O 1.824198 1.062750 0.288804
H 1.573299 1.651124 -0.426008
H 2.715497 1.299880 0.552329
9
Structure 568 | Energy: -15.212324 Hartree
O 1.866220 -1.068624 -1.726850
H 1.877641 -1.238327 -2.670859
H 1.544289 -0.173569 -1.603011
O 0.509033 0.630460 1.627463
H -0.331865 0.389172 1.234067
H 0.401777 0.581426 2.579398
O -1.682577 -0.547526 -0.814670
H -1.750099 -1.502998 -0.763630
H -2.030881 -0.193892 0.006133
9
Structure 569 | Energy: -15.212322 Hartree
O -1.141242 -0.509397 -1.908710
H -2.018902 -0.895174 -1.939854
H -0.515295 -1.232825 -1.838404
O -0.812421 0.219761 2.477584
H -1.265330 0.721136 1.796713
H -1.335837 -0.565922 2.647370
O 2.768947 -0.496991 -0.443167
H 3.439419 -1.008160 -0.900622
H 2.272271 -0.018679 -1.109966
9
Structure 570 | Energy: -15.212320 Hartree
O -0.378092 0.848127 -0.181971
H -1.223186 0.448519 -0.396939
H -0.429422 1.149425 0.727251
O 1.123135 0.085816 -2.501304
H 0.647745 -0.443303 -3.144831
H 1.953591 -0.360455 -2.324460
O 0.425171 -0.775075 1.760782
H 0.767276 -1.634798 2.013630
H 0.863627 -0.523417 0.945605
9
Structure 571 | Energy: -15.212317 Hartree
O 0.323108 2.366232 -0.561801
H -0.047975 1.794496 0.113105
H 0.589539 1.806132 -1.293513
O 1.372779 -0.956571 1.144426
H 1.382248 -1.909316 1.033630
H 1.241122 -0.570920 0.276078
O 0.933801 -1.879453 -1.823897
H 1.108016 -1.171582 -2.447323
H 0.211074 -1.592076 -1.262498
9
Structure 572 | Energy: -15.212280 Hartree
O -0.037366 2.204523 -0.875660
H 0.397623 1.732519 -1.588456
H -0.703697 2.768359 -1.273395
O 0.075058 -1.272239 0.864947
H 0.277409 -1.379622 1.796404
H -0.862939 -1.083116 0.798008
O 1.527422 -0.440017 -2.169617
H 2.254625 -0.821675 -2.665203
H 0.723238 -0.867567 -2.470579
9
Structure 573 | Energy: -15.212267 Hartree
O 0.738765 0.975010 -2.428874
H -0.091218 1.099114 -1.964323
H 1.443612 1.115040 -1.793515
O -1.198223 -0.701353 0.868940
H -1.911620 -0.082351 1.036244
H -0.626852 -0.691240 1.639343
O 1.711968 -1.301728 0.822807
H 1.706005 -0.452808 0.376276
H 2.580101 -1.687068 0.688831
9
Structure 574 | Energy: -15.212262 Hartree
O 1.573456 1.237857 -0.082509
H 1.551141 1.069050 0.861466
H 2.422355 0.930062 -0.406131
O -0.357297 -1.094316 2.280093
H 0.537654 -0.785682 2.434680
H -0.646054 -1.539927 3.078928
O -0.469830 1.769699 -1.937869
H 0.242028 2.109183 -1.391883
H -0.180440 1.828072 -2.850523
9
Structure 575 | Energy: -15.212262 Hartree
O -0.700974 1.393124 -1.199595
H -1.522606 0.898275 -1.210857
H -0.897675 2.262268 -0.844634
O -2.047372 -0.910474 1.165405
H -2.019025 -1.721394 0.653844
H -1.493809 -0.270310 0.713911
O 0.408919 -1.199990 -2.152747
H 1.362823 -1.299663 -2.167719
H 0.040102 -2.038669 -1.868699
9
Structure 576 | Energy: -15.212239 Hartree
O 1.225567 -1.309189 -1.735595
H 1.850968 -1.644905 -1.090419
H 0.839597 -2.067522 -2.178380
O 1.861379 0.315905 1.145261
H 2.082993 -0.396450 0.542330
H 0.919547 0.259212 1.317962
O -2.018938 1.685822 1.213619
H -1.241249 1.412189 0.723297
H -2.766796 1.627328 0.615809
9
Structure 577 | Energy: -15.212232 Hartree
O -2.359763 0.633809 -0.200968
H -1.682361 0.348828 0.415470
H -2.665167 1.495039 0.090771
O 1.963835 -0.464796 0.074278
H 2.594110 -0.964632 -0.448222
H 1.667513 0.270774 -0.465368
O -0.651135 -1.987943 1.747151
H -0.530920 -2.038914 2.697436
H -1.571513 -1.769191 1.588587
9
Structure 578 | Energy: -15.212223 Hartree
O -1.387278 0.280586 -2.598110
H -1.846338 0.273689 -1.755912
H -0.810231 -0.485497 -2.613381
O 1.596666 -0.684752 1.096929
H 1.703660 -0.754263 2.047618
H 1.622542 -1.575620 0.742284
O -1.631045 -1.557948 1.025999
H -1.392168 -1.141616 0.195520
H -2.545049 -1.838946 0.950322
9
Structure 579 | Energy: -15.212218 Hartree
O -2.250851 0.317009 1.650708
H -1.928297 0.073044 2.520491
H -1.579487 0.867503 1.242876
O 1.484473 -0.961552 -1.250447
H 1.494294 -0.548783 -2.116249
H 0.651247 -0.730638 -0.835115
O -2.159371 -1.781308 0.201302
H -2.012608 -2.551105 -0.351839
H -3.106912 -1.638148 0.243257
9
Structure 580 | Energy: -15.212215 Hartree
O -1.378204 -1.668848 1.092729
H -1.183270 -1.340459 1.972640
H -1.388828 -0.912338 0.503085
O 0.862218 -0.406803 0.591378
H 0.299866 0.366981 0.519914
H 1.506362 -0.356263 -0.117574
O 0.245942 0.844018 -2.671052
H 0.260232 -0.099100 -2.845454
H 0.961203 1.236975 -3.175110
9
Structure 581 | Energy: -15.212214 Hartree
O 0.440384 -1.410833 -1.678625
H 0.180196 -2.227540 -2.109175
H 0.991578 -1.647419 -0.930085
O -1.345832 1.159233 1.973695
H -2.099915 1.736205 2.109901
H -1.687536 0.275031 1.827022
O -2.222844 -0.834396 -0.147917
H -1.388848 -1.182602 0.173477
H -2.809162 -1.581346 -0.283514
9
Structure 582 | Energy: -15.212209 Hartree
O 2.175062 0.307548 0.696418
H 2.525081 1.039496 0.184733
H 2.885051 -0.328210 0.805165
O 0.107276 -1.440868 -1.066633
H 0.872174 -1.228759 -1.605176
H -0.062796 -2.379011 -1.171753
O -1.317352 0.191662 0.931201
H -0.959906 0.964398 0.489383
H -0.600361 -0.209602 1.426177
9
Structure 583 | Energy: -15.212202 Hartree
O -1.743438 -0.098892 1.253884
H -2.588779 0.297225 1.474270
H -1.521785 -0.707413 1.961466
O -0.399006 0.751204 -2.814689
H -0.722496 1.556067 -2.405253
H 0.108918 0.279533 -2.151645
O -1.086412 -2.153482 -1.016029
H -0.205373 -2.276456 -0.657229
H -1.708492 -2.321386 -0.305455
9
Structure 584 | Energy: -15.212187 Hartree
O 0.672497 -0.489328 -1.437717
H 0.356014 -0.396417 -2.338432
H 0.250653 -1.267063 -1.067209
O 1.653365 1.861184 0.497156
H 0.776899 1.711752 0.857110
H 1.799757 2.809134 0.490202
O -2.305943 -1.323248 -0.094888
H -1.929450 -0.524146 0.278984
H -2.709121 -1.811405 0.625695
9
Structure 585 | Energy: -15.212187 Hartree
O 0.112614 -1.100752 -1.370736
H 0.568462 -0.524716 -1.987557
H -0.666141 -0.630999 -1.065823
O 1.293667 1.297138 2.034524
H 0.541795 1.887267 2.115295
H 2.081549 1.843409 2.004214
O -1.926595 1.092195 0.441741
H -2.478529 1.848531 0.233376
H -1.049940 1.277324 0.099261
9
Structure 586 | Energy: -15.212183 Hartree
O -0.386906 -1.251196 0.893485
H 0.083627 -0.560307 0.423004
H 0.061939 -2.078181 0.707116
O -1.229382 1.194281 -2.134799
H -0.486380 1.745895 -1.882294
H -2.024173 1.719387 -2.022287
O -2.524355 -0.658760 -0.172067
H -2.097184 -0.225177 -0.913432
H -2.312028 -1.592488 -0.228279
9
Structure 587 | Energy: -15.212167 Hartree
O 2.120799 -1.260933 1.499213
H 1.226109 -1.606438 1.483826
H 2.403881 -1.246157 2.415590
O -0.755291 0.477794 -1.636446
H -1.215232 1.302425 -1.805343
H 0.179156 0.682844 -1.566792
O -0.660445 2.240470 0.459109
H -1.485791 2.696843 0.284131
H -0.155897 2.787825 1.064025
9
Structure 588 | Energy: -15.212167 Hartree
O -1.001610 -0.569500 2.636645
H -1.119247 -0.255621 1.737911
H -0.737521 0.183903 3.168378
O 0.089924 0.747201 -1.885172
H -0.056186 1.450631 -2.520725
H -0.311406 1.023132 -1.058804
O 1.198169 -1.143487 0.507933
H 1.068226 -2.088843 0.605447
H 1.928144 -0.896677 1.079169
9
Structure 589 | Energy: -15.212166 Hartree
O 0.608022 -0.447845 2.774776
H 0.478381 -1.379227 2.963990
H 0.047218 -0.228947 2.027994
O -0.643821 1.456145 -1.549116
H -1.480987 1.384521 -2.011839
H -0.478057 2.389825 -1.404714
O -2.174640 1.060720 0.396035
H -2.377334 0.525695 -0.373870
H -1.233689 1.245658 0.373699
9
Structure 590 | Energy: -15.212148 Hartree
O 0.066242 -1.137458 -0.542914
H 0.449869 -0.821537 -1.363344
H 0.792278 -1.350605 0.046612
O 0.217275 1.422590 2.198553
H 0.945784 0.831448 2.398336
H 0.361111 1.761405 1.312775
O -1.872987 1.626910 -0.127947
H -2.092473 0.696822 -0.045161
H -0.981292 1.678310 -0.477700
9
Structure 591 | Energy: -15.212119 Hartree
O -1.437197 0.474402 -1.574483
H -1.113008 -0.413507 -1.411385
H -1.697160 0.516938 -2.496822
O 0.132988 -2.305870 0.866744
H 0.223842 -1.676514 0.148590
H 0.422359 -1.865786 1.668416
O 1.650195 2.235900 -0.390747
H 1.725145 3.187589 -0.484348
H 2.355025 1.843075 -0.909393
9
Structure 592 | Energy: -15.212116 Hartree
O -1.504185 -0.370044 -0.331331
H -1.487384 -0.775070 0.538010
H -1.090079 0.491480 -0.251377
O -0.112109 1.263947 1.911230
H 0.178944 1.741416 1.131871
H -0.542712 1.897717 2.488296
O 0.447350 -0.689717 -2.574695
H 1.370059 -0.447870 -2.473652
H 0.422320 -1.613592 -2.831444
9
Structure 593 | Energy: -15.212110 Hartree
O -1.648948 -0.116126 1.331652
H -2.094337 -0.965485 1.348997
H -2.019145 0.383891 0.601557
O -0.085069 2.055619 -1.694055
H -0.849138 2.102695 -1.116067
H 0.692446 2.189690 -1.148542
O 2.044589 -1.487936 1.190697
H 2.302958 -0.719609 0.677852
H 1.746584 -2.156294 0.570551
9
Structure 594 | Energy: -15.212102 Hartree
O 1.933541 -0.194426 -0.539440
H 2.076686 -1.099556 -0.256013
H 2.216919 -0.134927 -1.453911
O -1.344977 1.928293 0.419149
H -0.472291 2.199913 0.128064
H -1.611329 2.529417 1.117572
O -0.288938 -2.378348 -1.563483
H -0.620608 -1.804357 -2.256751
H 0.167539 -3.105637 -1.990998
9
Structure 595 | Energy: -15.212101 Hartree
O 1.699459 -0.561985 -2.260868
H 2.191828 -0.749553 -1.459324
H 0.918341 -0.067401 -2.005249
O -1.936096 0.648095 0.511403
H -2.277142 1.544302 0.487097
H -0.994675 0.697524 0.334285
O 1.539851 0.556282 2.037282
H 1.010128 1.349362 2.139791
H 2.423094 0.834931 1.787631
9
Structure 596 | Energy: -15.212071 Hartree
O -1.009069 -1.469632 -1.256750
H -0.109549 -1.411828 -0.928719
H -1.514888 -1.968692 -0.612401
O 1.403335 0.782936 2.119436
H 1.420896 0.371856 1.252953
H 0.819189 1.541604 2.062116
O -1.080497 1.101974 0.212289
H -1.165386 0.466322 0.925613
H -1.302694 1.963245 0.571357
9
Structure 597 | Energy: -15.212007 Hartree
O -1.908656 -0.213264 -0.135310
H -1.422197 -0.385921 -0.943784
H -1.833400 -0.995915 0.414139
O 0.405084 2.532957 -1.041600
H 0.210095 1.787151 -1.612426
H -0.234464 3.219098 -1.242290
O 1.020404 -1.989836 0.726762
H 0.455902 -1.214362 0.718526
H 0.986121 -2.375478 -0.150846
9
Structure 598 | Energy: -15.211970 Hartree
O -1.720872 1.028999 1.548092
H -2.420328 1.333821 0.966777
H -0.996963 0.735032 0.991641
O 0.574429 -1.629459 -1.327987
H 0.025695 -2.367049 -1.054232
H 1.408227 -1.706721 -0.860119
O 2.501898 -0.353441 1.290033
H 1.629494 -0.679632 1.060683
H 3.141082 -0.931458 0.868807
9
Structure 599 | Energy: -15.211967 Hartree
O -1.920653 0.794073 -1.786628
H -1.184786 0.181133 -1.732913
H -2.724772 0.282901 -1.676191
O 0.697946 1.512973 -0.740240
H 1.165568 1.430199 0.093167
H 0.920494 2.370981 -1.106823
O -1.365405 -1.217485 1.534607
H -1.286629 -1.982170 0.960898
H -2.282035 -1.163769 1.812084
9
Structure 600 | Energy: -15.211951 Hartree
O 0.048023 -2.084945 -1.489711
H -0.844436 -1.733661 -1.475618
H 0.478417 -1.735752 -2.272606
O 2.054557 0.349518 0.306815
H 1.598117 -0.358329 0.765840
H 2.877731 -0.012691 -0.026769
O -0.496823 2.275647 1.366063
H -1.449304 2.345995 1.455067
H -0.150721 2.008337 2.219789
9
Structure 601 | Energy: -15.211950 Hartree
O -1.752341 -0.557995 -1.718533
H -2.248568 -1.195439 -2.235744
H -2.062223 -0.623928 -0.813146
O 1.337198 1.117566 0.185237
H 0.541259 0.585095 0.240425
H 2.083057 0.514423 0.185932
O 0.732975 -1.990122 -0.595881
H 0.038634 -1.362050 -0.387294
H 0.691356 -2.688053 0.060816
9
Structure 602 | Energy: -15.211927 Hartree
O 2.214292 -0.549996 -0.859164
H 1.426481 -0.765328 -1.362221
H 2.209544 -1.101200 -0.074147
O 0.120412 2.128514 0.289389
H -0.678285 2.629464 0.112695
H -0.087435 1.202989 0.146941
O -1.554503 -1.803737 0.937209
H -1.808317 -2.199664 1.773217
H -0.910719 -1.119513 1.130783
9
Structure 603 | Energy: -15.211919 Hartree
O 1.001943 1.038038 0.681935
H 0.968849 1.971865 0.898623
H 0.384805 0.891344 -0.037594
O 1.710872 -1.586489 -0.307313
H 1.367072 -1.728131 0.576898
H 2.631811 -1.854654 -0.300333
O -1.529127 0.609371 2.408553
H -1.854627 0.084276 1.674785
H -1.836706 1.507823 2.273386
9
Structure 604 | Energy: -15.211902 Hartree
O 0.606341 1.794921 1.558368
H 1.060820 1.492018 0.769838
H 0.088326 2.563163 1.310244
O -1.091977 -0.064527 -1.925750
H -0.368558 -0.668011 -1.745306
H -0.981386 0.250672 -2.824921
O 2.786981 -0.825520 -0.369847
H 2.283549 -0.310978 -1.003798
H 2.156995 -1.312590 0.164914
9
Structure 605 | Energy: -15.211888 Hartree
O -0.658227 -0.781518 0.178522
H -1.327298 -0.195069 -0.179951
H -0.108398 -1.066582 -0.553958
O -0.741358 1.807925 -1.676122
H -1.025156 2.390158 -2.383619
H -0.290607 1.065346 -2.082925
O 1.895365 -0.142165 1.838505
H 2.812145 -0.355673 2.022948
H 1.358211 -0.631584 2.464624
9
Structure 606 | Energy: -15.211888 Hartree
O -0.491574 2.517436 0.846630
H 0.368107 2.096600 0.783967
H -1.152333 1.834829 0.714175
O 0.474969 -1.531557 -1.257030
H 0.141212 -1.621298 -0.362244
H -0.024105 -2.137328 -1.808442
O 0.566932 -0.367402 2.670216
H 1.316140 -0.077377 2.146132
H -0.223974 -0.191694 2.156714
9
Structure 607 | Energy: -15.211848 Hartree
O 1.991934 0.718976 0.226414
H 2.012323 0.821510 1.179909
H 2.889763 0.834239 -0.090945
O -0.528031 -2.042427 -0.989457
H -0.737227 -2.947728 -1.227694
H -1.345510 -1.626404 -0.708846
O -1.274138 1.386178 1.947676
H -1.045642 0.455353 1.909675
H -0.452688 1.881205 1.931599
9
Structure 608 | Energy: -15.211844 Hartree
O -0.283198 2.399747 -0.132964
H -1.169229 2.370503 0.233336
H -0.370568 2.399323 -1.088195
O 0.325457 -0.869887 0.316532
H 0.146095 -1.811659 0.285158
H 1.266568 -0.764908 0.469432
O -0.068037 0.007472 -2.571400
H -0.249577 -0.248597 -3.477801
H 0.422318 -0.710465 -2.166174
9
Structure 609 | Energy: -15.211841 Hartree
O 0.569606 -1.551712 -2.137174
H 0.150353 -0.877977 -1.598295
H 0.677918 -2.329412 -1.586220
O 0.346991 0.781845 1.665951
H -0.611646 0.812721 1.653671
H 0.600201 0.037603 2.215565
O 1.894126 0.898047 -1.114567
H 1.242567 0.481565 -0.547025
H 2.688949 0.362516 -1.075169
9
Structure 610 | Energy: -15.211804 Hartree
O -1.377654 -0.664046 1.589594
H -2.145446 -1.120008 1.939846
H -1.172588 -1.063053 0.741748
O 1.059743 1.501132 -1.800150
H 0.537557 0.962660 -1.202272
H 1.185694 0.992738 -2.603743
O 1.646256 -1.298989 -1.119823
H 1.126390 -2.004221 -1.510308
H 1.244837 -1.084197 -0.275538
9
Structure 611 | Energy: -15.211803 Hartree
O -1.034981 -1.430763 -0.526510
H -0.245383 -0.913397 -0.696656
H -1.655989 -1.241911 -1.232757
O -0.736223 0.301971 2.333190
H 0.085137 0.781606 2.457313
H -0.742811 -0.021091 1.430043
O 2.360581 1.219959 -0.390058
H 1.405536 1.269537 -0.315739
H 2.563622 0.461673 -0.941298
9
Structure 612 | Energy: -15.211799 Hartree
O -1.011592 -1.329826 2.055597
H -0.558324 -1.675751 2.826937
H -0.411696 -0.718237 1.624107
O -1.958767 0.206467 -0.545074
H -1.772832 -0.595289 -1.037725
H -2.876837 0.164575 -0.270336
O 0.492424 1.384722 -2.403212
H 1.137909 0.805077 -1.994003
H 0.445287 1.147086 -3.331327
9
Structure 613 | Energy: -15.211797 Hartree
O 1.190979 -0.288293 2.500137
H 0.410232 -0.795735 2.269880
H 0.972730 0.232671 3.275420
O 0.105109 1.683799 -1.042512
H -0.724426 1.202187 -1.039362
H -0.028626 2.476460 -1.565858
O -0.122052 -1.098811 0.204638
H 0.482823 -0.976410 -0.529688
H -0.983023 -0.787564 -0.081622
9
Structure 614 | Energy: -15.211781 Hartree
O -1.432865 0.754422 -1.913701
H -0.562824 1.027166 -2.211562
H -1.641426 1.272440 -1.133791
O 1.682745 -0.980938 0.125882
H 1.760414 -1.390851 -0.737847
H 1.951903 -0.065173 0.030928
O -1.248370 -0.397017 2.353307
H -1.099191 -1.316138 2.583641
H -1.370763 0.085105 3.173471
9
Structure 615 | Energy: -15.211778 Hartree
O -0.714086 -2.001455 0.590013
H -0.836261 -1.560509 -0.253030
H 0.185039 -2.335125 0.608394
O 2.324603 0.563775 -1.597904
H 2.902786 0.823841 -0.878072
H 2.228015 1.324783 -2.173775
O 0.914550 -0.250618 2.406705
H 0.983610 -0.571401 1.505362
H 1.778042 -0.353102 2.811637
9
Structure 616 | Energy: -15.211750 Hartree
O -1.791352 -1.046008 -0.471832
H -1.602517 -0.468644 -1.214175
H -2.419321 -0.588882 0.091010
O 1.104000 1.503976 1.725129
H 0.181304 1.766094 1.721392
H 1.620076 2.277829 1.490809
O 1.676533 -0.788386 -2.195472
H 2.138185 -1.010438 -1.384508
H 1.515833 0.157160 -2.181078
9
Structure 617 | Energy: -15.211750 Hartree
O 2.527128 1.070903 1.093651
H 2.805530 1.223875 0.188569
H 1.813726 0.430243 1.066980
O -0.970875 -1.004971 -0.085429
H -1.120578 -0.579955 0.761353
H -0.324230 -0.477011 -0.557866
O 0.847147 2.343348 -0.423953
H 0.036858 2.251518 -0.929018
H 1.451174 2.871532 -0.949560
9
Structure 618 | Energy: -15.211735 Hartree
O 2.331103 0.393344 0.511971
H 3.275583 0.506019 0.635835
H 2.174665 0.323972 -0.431859
O 0.564152 -1.382722 -1.571315
H 1.432675 -1.726044 -1.352483
H -0.065556 -1.809850 -0.987263
O -0.572954 0.845050 0.971275
H -1.529921 0.836352 0.906241
H -0.338554 0.376110 1.774544
9
Structure 619 | Energy: -15.211716 Hartree
O 0.471281 0.766173 -0.045854
H 0.420579 1.269560 0.769077
H -0.326669 0.236911 -0.102927
O 0.138724 -1.091769 2.498479
H -0.712865 -1.528386 2.433285
H 0.694878 -1.448655 1.803200
O -0.966356 0.193651 -2.297982
H -1.787046 -0.221684 -2.025849
H -1.197512 0.981454 -2.793990
9
Structure 620 | Energy: -15.211709 Hartree
O 1.807619 0.707757 1.103430
H 1.526168 -0.125310 0.720198
H 2.635082 0.545008 1.560506
O -1.200666 -0.989426 -2.134423
H -0.798243 -0.128783 -2.266470
H -1.345499 -1.371440 -3.002281
O -1.377413 0.649017 1.868810
H -2.149859 0.214519 2.235729
H -0.772624 -0.039111 1.584555
9
Structure 621 | Energy: -15.211706 Hartree
O 0.782724 -1.132180 1.348803
H 1.354456 -1.806332 1.721260
H 0.041052 -1.582768 0.940156
O 0.462367 1.807838 -1.880058
H 1.018562 1.207156 -2.379975
H 0.816187 2.690960 -2.002514
O -1.106142 0.101514 -0.418140
H -0.802079 0.518176 0.390581
H -2.040266 0.300752 -0.506498
9
Structure 622 | Energy: -15.211701 Hartree
O 0.098196 -0.745060 1.807199
H 0.383780 -0.741307 0.891497
H -0.676040 -0.181812 1.865602
O 1.486271 1.332593 -1.959319
H 0.630729 1.743527 -1.820501
H 1.389290 0.712759 -2.684914
O -0.286230 -2.688932 -0.077392
H -0.008594 -3.314352 -0.749596
H -1.237593 -2.772155 0.012449
9
Structure 623 | Energy: -15.211695 Hartree
O 1.024029 2.270227 -0.444633
H 1.654779 2.956075 -0.216928
H 0.810604 2.377650 -1.373616
O -0.241277 -0.937423 0.795982
H -0.487891 -1.528192 1.510308
H -0.721488 -1.219895 0.015153
O -1.925693 -0.885881 -1.905103
H -2.356243 -0.133901 -2.316495
H -2.470765 -1.655682 -2.079436
9
Structure 624 | Energy: -15.211690 Hartree
O 1.299867 1.541244 -0.587843
H 0.713311 2.264402 -0.357461
H 1.943133 1.884736 -1.210999
O -2.438809 0.033894 0.593474
H -2.432694 -0.770132 0.070412
H -2.040464 -0.175311 1.440612
O -1.446446 1.695967 -1.347658
H -1.358058 2.472464 -1.903833
H -2.031089 1.929884 -0.624080
9
Structure 625 | Energy: -15.211613 Hartree
O 0.668946 1.318421 -2.118096
H 0.581982 1.908781 -2.869092
H -0.081894 1.478005 -1.542882
O -1.262986 0.040815 0.672460
H -2.153391 -0.161156 0.966528
H -0.837565 -0.792642 0.461621
O 1.568721 -1.031803 1.891022
H 1.054626 -1.219739 1.103319
H 1.981320 -1.853677 2.163739
9
Structure 626 | Energy: -15.211570 Hartree
O 2.074472 -1.422554 0.884575
H 2.356969 -1.060457 0.042457
H 2.567084 -0.966267 1.569583
O 1.074013 0.536608 -0.351712
H 1.270855 1.325321 -0.860901
H 0.122346 0.503108 -0.236402
O -1.387086 1.010733 -1.958671
H -0.504529 1.380382 -2.026082
H -1.929374 1.448119 -2.617994
9
Structure 627 | Energy: -15.211570 Hartree
O -0.487382 -0.223316 -0.116814
H -0.701843 0.485123 -0.726898
H 0.371389 -0.566843 -0.370984
O -1.874034 0.652885 1.619609
H -1.104726 0.110488 1.804161
H -2.238328 0.925808 2.463938
O 2.264378 -0.427984 -1.609384
H 2.542533 0.356546 -2.086075
H 2.737694 -0.436198 -0.775121
9
Structure 628 | Energy: -15.211569 Hartree
O 1.252438 -0.514827 2.008692
H 0.769945 -1.337612 2.110221
H 2.180072 -0.739442 1.913072
O -1.491710 0.662514 -0.664767
H -1.134887 0.251818 -1.454763
H -1.823728 1.525870 -0.918673
O 1.527896 0.245457 -2.511854
H 1.034649 -0.342083 -1.936011
H 1.045815 1.073711 -2.552886
9
Structure 629 | Energy: -15.211547 Hartree
O 1.188350 -0.315294 0.858069
H 1.826583 -0.374305 1.571692
H 1.155880 0.602519 0.581184
O -0.738155 2.191067 -1.665535
H -0.035663 2.838740 -1.749871
H -1.336644 2.323458 -2.403351
O -1.349513 -1.585545 1.066412
H -2.299142 -1.536066 0.940522
H -1.033338 -0.689542 1.197946
9
Structure 630 | Energy: -15.211545 Hartree
O -2.094188 0.908024 0.033213
H -1.254310 0.477397 -0.137806
H -1.982351 1.446883 0.818848
O -1.449602 -2.332205 -0.816092
H -0.899431 -3.104462 -0.961070
H -1.439216 -1.819776 -1.626893
O 1.770915 -0.026077 1.618605
H 1.443205 0.863338 1.471505
H 1.951958 -0.408128 0.757588
9
Structure 631 | Energy: -15.211536 Hartree
O -0.987808 -0.963973 -0.608515
H -1.023815 -0.266947 0.049468
H -0.957013 -1.798608 -0.136778
O 2.267708 1.435803 0.424135
H 2.808361 1.696618 -0.324035
H 2.445389 2.056869 1.133215
O 0.428430 0.611033 -2.032736
H -0.121905 -0.123628 -2.311117
H -0.061249 1.416322 -2.211099
9
Structure 632 | Energy: -15.211528 Hartree
O 0.738855 0.550981 -0.895714
H 1.091885 0.878553 -0.066167
H 1.150105 -0.299214 -1.063468
O -2.339907 -0.811849 1.118679
H -2.320707 -1.736965 0.865935
H -2.923814 -0.736332 1.875936
O -0.024126 -0.271882 2.225806
H 0.667642 -0.863553 2.528250
H -0.151408 -0.438630 1.289812
9
Structure 633 | Energy: -15.211527 Hartree
O 0.006782 -1.425525 -2.281558
H 0.562762 -1.959728 -2.852167
H -0.732137 -1.973887 -2.010640
O -1.478335 0.898940 1.504914
H -2.222598 0.997008 0.907801
H -0.966743 0.146996 1.200052
O 2.246530 0.417756 0.747658
H 2.201400 -0.219596 1.463085
H 3.073659 0.268008 0.285572
9
Structure 634 | Energy: -15.211521 Hartree
O -0.368187 1.164764 1.236530
H 0.296162 0.741928 0.688870
H -0.555635 2.020563 0.845926
O -1.818572 -1.584089 -1.059480
H -1.062242 -1.771011 -0.499913
H -1.503723 -1.564242 -1.965330
O 1.405066 -0.188310 -1.789319
H 0.546060 -0.341699 -2.187655
H 1.355730 0.647128 -1.320599
9
Structure 635 | Energy: -15.211492 Hartree
O -0.680544 -0.398427 -1.636753
H 0.201076 -0.117001 -1.384509
H -0.856106 -1.224432 -1.181787
O 0.055217 2.563098 0.603138
H 0.681282 2.627777 -0.120705
H -0.405994 3.402512 0.655648
O -0.073615 -0.855377 2.400527
H -0.850946 -1.415572 2.445575
H 0.427555 -0.999674 3.205572
9
Structure 636 | Energy: -15.211479 Hartree
O 1.768370 -1.160124 -0.385353
H 1.960324 -0.856824 -1.274872
H 2.568816 -1.049331 0.131475
O 2.069055 1.550417 0.618064
H 2.953826 1.188789 0.698653
H 1.869539 1.607009 -0.318461
O -1.924539 -0.967424 -1.589648
H -1.008608 -0.702987 -1.695644
H -1.956985 -1.594921 -0.864883
9
Structure 637 | Energy: -15.211478 Hartree
O -0.669852 1.394284 2.371650
H -0.531408 1.407999 3.320717
H -1.080890 0.554689 2.156644
O -0.945118 -0.531860 -1.018543
H -0.133819 -0.082549 -0.773592
H -0.837374 -1.457263 -0.790267
O 2.139482 0.620759 0.488197
H 2.271648 0.062041 -0.280216
H 2.522169 0.164641 1.240259
9
Structure 638 | Energy: -15.211478 Hartree
O -1.234616 -2.252288 -0.914313
H -1.686480 -3.088047 -0.782377
H -0.422508 -2.440264 -1.388913
O 1.840786 0.671701 0.632945
H 2.007022 -0.181572 1.038381
H 0.913228 0.694703 0.389642
O 0.538597 1.986327 -1.663222
H 0.475977 1.029802 -1.698299
H -0.350982 2.332837 -1.756336
9
Structure 639 | Energy: -15.211464 Hartree
O -0.479082 -0.480683 1.422680
H -0.279129 -0.505950 2.360477
H -1.275614 0.043027 1.316075
O 0.634778 0.164379 -2.255128
H 0.299116 0.253818 -3.149231
H 1.584133 0.296027 -2.293628
O 2.909940 -0.293135 0.386040
H 2.695750 0.636645 0.287429
H 2.617359 -0.738197 -0.411710
9
Structure 640 | Energy: -15.211441 Hartree
O 2.017177 0.159718 -0.107617
H 2.409499 0.209804 0.766257
H 2.600892 0.627255 -0.708273
O -2.135162 -0.053174 1.483873
H -2.466174 -0.056159 2.384156
H -2.869693 -0.280527 0.910407
O -1.020205 1.750139 -1.501624
H -1.244279 0.817474 -1.497306
H -0.252129 1.855139 -2.066534
9
Structure 641 | Energy: -15.211408 Hartree
O 1.995024 0.510554 -0.859061
H 1.569842 0.286644 -0.028901
H 2.400169 1.372789 -0.747218
O -2.368724 -1.498123 0.322767
H -3.265430 -1.593188 0.649829
H -1.890384 -0.960888 0.957319
O -1.108643 0.603386 -2.013830
H -0.207667 0.634477 -2.341499
H -1.523125 1.437570 -2.242806
9
Structure 642 | Energy: -15.211398 Hartree
O -1.189228 -0.050472 2.104744
H -1.673785 -0.732693 1.635850
H -1.605306 0.788140 1.895679
O 1.268531 1.069067 -0.904034
H 0.558015 1.712476 -0.939817
H 1.567296 0.925464 -1.804148
O -1.749646 1.469304 -1.802684
H -0.974718 0.988717 -2.100367
H -1.626774 1.656679 -0.870009
9
Structure 643 | Energy: -15.211376 Hartree
O 0.202331 -0.537656 2.335391
H -0.464701 -1.210817 2.187052
H 0.465073 -0.203729 1.475415
O 0.993765 1.070179 -1.590723
H 0.506850 1.892485 -1.673275
H 0.348582 0.363829 -1.520747
O -2.392703 1.342896 -0.858551
H -2.156438 0.918127 -1.685498
H -1.943293 0.867983 -0.156712
9
Structure 644 | Energy: -15.211344 Hartree
O -1.566048 -0.223946 -2.038722
H -0.817963 -0.216154 -1.438398
H -2.229206 0.365292 -1.673866
O 0.283321 2.012574 0.659926
H 0.640158 1.160992 0.399996
H -0.407544 2.234513 0.032600
O -0.558238 0.609596 2.718873
H -0.260440 1.146410 3.455920
H -1.312590 1.055759 2.329024
9
Structure 645 | Energy: -15.211344 Hartree
O 0.018719 -1.771651 -1.924606
H 0.827092 -2.230204 -2.161973
H 0.254359 -1.088628 -1.293691
O -0.054166 1.929489 0.427829
H 0.120496 1.059587 0.063338
H 0.312968 2.572096 -0.182381
O -2.384223 1.044628 -0.444607
H -2.484519 1.381245 -1.337200
H -2.384099 1.800647 0.145753
9
Structure 646 | Energy: -15.211334 Hartree
O -0.975594 -0.815825 -0.751061
H -0.790259 -0.132874 -1.398603
H -0.357727 -1.532318 -0.909105
O 2.088605 0.978206 1.422648
H 2.659483 0.329237 1.838613
H 2.591039 1.386287 0.714751
O 2.181539 -0.653438 -1.156520
H 2.135591 0.057658 -1.798644
H 3.109182 -0.861585 -1.029070
9
Structure 647 | Energy: -15.211317 Hartree
O -0.806509 0.569610 2.232523
H -0.733721 -0.296652 2.637952
H 0.076810 0.941915 2.197358
O 2.198401 -0.302405 -0.451759
H 2.344865 0.501640 0.050386
H 2.410552 -1.039578 0.124137
O -1.227863 -0.159640 -2.557708
H -0.424493 -0.392762 -3.027114
H -1.471533 -0.915042 -2.019115
9
Structure 648 | Energy: -15.211312 Hartree
O 0.163166 2.555914 0.051642
H -0.471973 2.584703 0.769869
H 0.988258 2.911463 0.387659
O -0.575015 -0.919524 -1.384976
H -1.413313 -0.868636 -0.921559
H -0.181479 -1.766949 -1.167980
O -1.994721 -1.183616 1.642947
H -2.847743 -1.587344 1.814553
H -1.355749 -1.894162 1.559705
9
Structure 649 | Energy: -15.211302 Hartree
O 2.176588 -1.046831 0.323528
H 1.683444 -1.728976 0.783492
H 2.052907 -1.191871 -0.616561
O 1.361824 1.570441 -0.346794
H 0.479649 1.929143 -0.461633
H 1.280980 0.787595 0.201573
O -0.253006 -0.752356 0.661325
H -0.980425 -0.338397 0.192720
H -0.406050 -1.699122 0.643995
9
Structure 650 | Energy: -15.211288 Hartree
O 1.089941 -1.721240 -0.236808
H 0.193912 -1.680940 0.103177
H 1.042029 -1.568657 -1.182600
O -1.990787 0.527196 1.922999
H -2.540248 0.455839 1.139999
H -1.769075 -0.365004 2.196699
O -1.751145 -1.075622 -1.692811
H -1.179334 -0.307734 -1.633889
H -1.898045 -1.389694 -0.798457
9
Structure 651 | Energy: -15.211284 Hartree
O 2.655563 -0.330857 0.748222
H 2.941628 -0.936989 1.434409
H 2.439770 -0.857373 -0.023992
O -1.717912 0.466476 -1.047996
H -1.132073 0.237310 -1.772126
H -2.590359 0.605590 -1.421589
O -0.519228 -0.510672 1.443766
H 0.153746 -0.103237 0.894955
H -0.497365 -1.453257 1.267286
9
Structure 652 | Energy: -15.211266 Hartree
O -0.336452 2.668002 0.843728
H 0.578327 2.617286 0.559670
H -0.560408 3.597929 0.915698
O -0.967378 -0.555331 -1.616226
H -1.328932 -0.789528 -2.473266
H -1.502361 0.160797 -1.268314
O -1.312233 -1.450373 1.244103
H -0.495981 -1.508091 1.744595
H -1.549287 -2.342526 0.983415
9
Structure 653 | Energy: -15.211265 Hartree
O -0.117142 -1.062787 2.288496
H -0.476135 -0.705661 1.473838
H 0.785118 -1.333054 2.106888
O -1.552272 1.348340 -0.687145
H -1.230761 1.595081 0.182244
H -1.210214 0.472875 -0.878575
O 2.188974 0.403667 -1.658498
H 2.174700 0.031996 -2.542664
H 1.278158 0.559303 -1.401046
9
Structure 654 | Energy: -15.211258 Hartree
O 1.680706 -0.919978 2.073824
H 2.149301 -1.095586 2.892152
H 2.285905 -0.452756 1.494568
O -1.742718 0.317169 -1.392314
H -1.278185 0.112315 -0.578477
H -2.640695 -0.005982 -1.295886
O 0.328192 2.483625 -0.071985
H 1.157237 2.009892 -0.163375
H 0.147634 2.561696 0.866841
9
Structure 655 | Energy: -15.211243 Hartree
O -1.492295 0.224498 -1.180357
H -1.238957 -0.502014 -1.753141
H -0.694383 0.539266 -0.750989
O -1.642926 -2.187776 0.453139
H -1.005763 -1.709273 -0.080853
H -2.503055 -2.065645 0.046507
O 1.124571 2.129130 -0.141013
H 0.314752 2.146993 0.372763
H 1.365588 1.208274 -0.259442
9
Structure 656 | Energy: -15.211241 Hartree
O -0.212386 1.308346 -0.283067
H -0.065110 2.099928 -0.804401
H -1.160367 1.168045 -0.241247
O 2.473997 -1.154302 0.169752
H 2.204196 -0.380176 0.667773
H 2.416234 -0.927894 -0.760565
O -0.300642 -2.669181 -0.701393
H -1.067827 -3.216933 -0.523951
H -0.316509 -2.452147 -1.635596
9
Structure 657 | Energy: -15.211226 Hartree
O -2.096361 1.198062 0.556630
H -1.516808 1.662310 1.163816
H -2.097585 1.689818 -0.266945
O 0.861000 -0.952614 -0.486299
H 1.475438 -1.661229 -0.687342
H 0.669375 -1.000576 0.452353
O -1.132291 -2.186723 -1.527541
H -1.130241 -1.941021 -2.454751
H -1.941068 -1.841865 -1.144080
9
Structure 658 | Energy: -15.211195 Hartree
O 0.763067 -0.845938 -1.262457
H 0.520386 -0.971391 -0.342974
H 0.416671 0.006359 -1.533932
O 1.701309 1.780057 1.275325
H 0.889660 1.619812 1.760748
H 1.793620 2.730251 1.182053
O -2.212030 -1.339378 -0.520408
H -2.731698 -1.131844 -1.299488
H -2.134986 -0.532692 -0.007172
9
Structure 659 | Energy: -15.211181 Hartree
O -1.750429 -0.233016 -1.744243
H -1.108171 0.445729 -1.527698
H -1.750790 -0.329645 -2.698582
O 1.919578 0.642956 0.721867
H 2.720107 1.165539 0.800274
H 1.513427 0.869613 -0.117035
O -0.727852 1.506103 2.261632
H -0.946422 1.232147 3.154529
H -1.366370 1.096596 1.674529
9
Structure 660 | Energy: -15.211173 Hartree
O 2.028362 -0.185299 -1.066665
H 2.855495 -0.037228 -1.529276
H 1.319702 -0.016262 -1.690625
O -0.644899 2.076916 0.538688
H -0.052724 2.537647 1.136304
H -0.582997 2.511950 -0.313956
O 1.289856 0.359893 2.602528
H 0.905695 1.180258 2.287072
H 0.565761 -0.245413 2.773936
9
Structure 661 | Energy: -15.211173 Hartree
O -0.711799 -2.573034 -0.782141
H -0.296095 -3.153810 -0.141850
H -1.508375 -2.226017 -0.375760
O 0.308831 0.299601 0.653074
H -0.426778 0.914045 0.690844
H 1.100549 0.789870 0.883091
O 0.955647 0.792327 -2.226326
H 0.965161 0.173731 -2.959360
H 1.856122 0.864436 -1.903782
9
Structure 662 | Energy: -15.211172 Hartree
O 0.613173 1.547950 -1.099376
H -0.108875 0.921445 -1.020511
H 0.251469 2.352224 -1.476754
O 1.733453 -1.563424 1.059796
H 1.239237 -2.206856 1.571494
H 1.695391 -1.840431 0.142242
O -2.654786 0.299240 -0.708786
H -2.180735 0.433023 -1.531871
H -3.214507 -0.470972 -0.825303
9
Structure 663 | Energy: -15.211168 Hartree
O 0.127074 1.472509 -0.417463
H 0.060475 1.569777 -1.369401
H -0.730153 1.180687 -0.101075
O 1.573692 -0.746485 1.503559
H 1.537310 -1.630403 1.132812
H 2.454683 -0.625298 1.863082
O -1.441205 -1.552719 0.915780
H -2.357009 -1.524413 0.631892
H -1.138024 -0.645549 0.987987
9
Structure 664 | Energy: -15.211152 Hartree
O 0.479672 1.536398 -0.273172
H 0.987796 1.095964 0.410867
H 0.718952 1.132189 -1.109509
O -1.442263 -1.853680 0.245199
H -0.739342 -1.567819 0.831948
H -1.975627 -2.487620 0.728656
O 1.665036 -1.637281 -1.034491
H 0.981892 -0.963948 -1.029137
H 2.389751 -1.310943 -0.497479
9
Structure 665 | Energy: -15.211142 Hartree
O -0.466154 1.334741 0.562541
H -1.051494 0.638756 0.257477
H -0.722258 2.140338 0.109195
O 1.545622 -2.070253 -0.743828
H 1.852239 -1.688896 -1.568838
H 2.248848 -2.631772 -0.411776
O -1.160192 0.252886 -2.220738
H -0.549939 0.966077 -2.023148
H -2.018202 0.509894 -1.877438
9
Structure 666 | Energy: -15.211123 Hartree
O 1.468520 -1.121018 -1.828744
H 2.346555 -1.505154 -1.868448
H 0.850916 -1.839076 -1.676893
O 0.764589 1.807239 0.583096
H 1.673893 1.503645 0.550135
H 0.778548 2.711937 0.901552
O -1.526333 -0.034100 -0.312321
H -1.628843 0.812881 0.126092
H -1.466463 -0.703045 0.372528
9
Structure 667 | Energy: -15.211103 Hartree
O 1.062778 -0.074805 -0.777873
H 1.196246 -1.024604 -0.790099
H 0.364777 0.122069 -1.405675
O 1.404131 2.220431 0.250973
H 0.888176 3.015988 0.106167
H 0.801136 1.544211 0.565953
O -0.982997 -2.592064 -0.610628
H -0.858714 -3.043258 -1.447927
H -1.670973 -3.061210 -0.134518
9
Structure 668 | Energy: -15.211102 Hartree
O -1.912155 0.064623 0.953518
H -1.668198 -0.453253 0.183861
H -2.339720 0.862165 0.635377
O 2.391823 -1.048393 0.007728
H 3.240263 -1.072812 0.454540
H 2.566229 -0.914330 -0.925919
O 1.454539 0.324709 1.949036
H 0.534346 0.570798 1.836005
H 1.550118 -0.015529 2.840772
9
Structure 669 | Energy: -15.211088 Hartree
O -1.296421 1.066098 -0.150923
H -1.824301 1.850687 0.009840
H -1.899919 0.321829 -0.195120
O -0.587545 -0.740960 2.586777
H -1.160141 0.028516 2.575444
H -1.076192 -1.452511 3.005115
O 1.120712 0.533773 -2.010418
H 0.443553 -0.066617 -1.692489
H 0.696580 1.145737 -2.615152
9
Structure 670 | Energy: -15.211083 Hartree
O 1.090096 -0.666280 0.412542
H 0.162409 -0.738398 0.645515
H 1.227992 -1.199313 -0.372927
O 0.855884 0.057609 -2.443248
H 1.145788 0.532187 -3.224798
H 1.491408 -0.643072 -2.284362
O -1.070157 1.523340 -0.860939
H -1.915533 1.973507 -0.913657
H -0.632191 1.641551 -1.706103
9
Structure 671 | Energy: -15.211075 Hartree
O -1.537566 -0.668340 1.894612
H -1.494669 -1.564593 1.555535
H -2.458368 -0.481460 2.087739
O -0.328389 1.257336 -0.619770
H -1.271729 1.416530 -0.689458
H 0.084285 1.654343 -1.389298
O 1.968838 -1.173324 0.297674
H 1.087739 -1.004061 -0.041598
H 1.993209 -2.089611 0.580364
9
Structure 672 | Energy: -15.211070 Hartree
O 1.890431 -0.129123 -0.042428
H 1.744895 0.689285 0.436226
H 1.649491 0.030078 -0.957143
O -1.932955 -1.136668 -1.565907
H -2.566744 -0.972621 -2.266970
H -1.811366 -2.086466 -1.509435
O -1.317845 0.715618 0.955912
H -1.978832 0.953884 0.302906
H -1.147108 1.496981 1.485450
9
Structure 673 | Energy: -15.211053 Hartree
O 2.415745 -0.010774 1.236422
H 2.796503 0.476004 0.502833
H 1.555630 0.373738 1.416567
O -0.165704 -0.834301 -0.843961
H -0.791999 -1.490671 -0.532477
H -0.386817 -0.004974 -0.415691
O -0.574707 0.087383 2.162836
H -0.472207 0.951059 1.758302
H -1.471559 0.035852 2.499128
9
Structure 674 | Energy: -15.211049 Hartree
O -2.635193 -0.679883 0.908673
H -2.232092 -0.592699 1.774693
H -3.566853 -0.473850 1.006955
O 1.056335 1.242210 -0.294007
H 0.451348 0.497974 -0.307885
H 0.973414 1.691443 -1.137453
O 0.706326 -0.476277 1.918193
H 0.367137 -1.341130 2.157087
H -0.031898 0.035267 1.581387
9
Structure 675 | Energy: -15.211039 Hartree
O -1.559724 0.213386 0.679644
H -1.392683 0.106174 1.618092
H -2.508825 0.295597 0.567626
O -1.021605 -2.206787 -0.068105
H -1.432527 -2.982422 -0.454915
H -0.171133 -2.092341 -0.496691
O 1.086630 1.737685 1.749701
H 0.277863 1.851759 2.252666
H 0.866024 1.863432 0.824709
9
Structure 676 | Energy: -15.211031 Hartree
O 1.228598 0.228702 -2.481566
H 1.973209 -0.017726 -1.929381
H 0.436173 0.131386 -1.949877
O -1.522393 -1.394337 0.415426
H -0.746422 -0.881189 0.649171
H -1.923694 -1.691519 1.234407
O 1.543487 -0.347828 1.947056
H 1.899358 -0.721183 1.138320
H 0.707494 -0.785860 2.118324
9
Structure 677 | Energy: -15.211015 Hartree
O -0.789525 0.933203 -1.073583
H 0.007980 0.651376 -1.525955
H -0.916617 1.862539 -1.274286
O 2.580360 -1.017910 0.889289
H 3.198659 -0.593283 1.487191
H 1.956750 -0.347835 0.602587
O -1.111718 -1.272770 1.346617
H -0.162244 -1.254809 1.481772
H -1.521512 -1.017725 2.175538
9
Structure 678 | Energy: -15.211012 Hartree
O -1.106486 -0.603272 -1.498122
H -1.808752 -1.193044 -1.216920
H -1.450096 0.290979 -1.449678
O -0.526255 2.074663 1.930675
H -0.740808 1.168499 2.160725
H -0.183841 2.066804 1.034695
O -1.635425 -1.781174 1.029039
H -1.663448 -0.826416 1.117043
H -2.522635 -2.107579 1.191540
9
Structure 679 | Energy: -15.211009 Hartree
O -1.362560 1.389070 -0.308961
H -2.309435 1.311470 -0.176720
H -1.023683 1.953807 0.388415
O 0.382817 -1.211750 2.031780
H -0.427725 -1.713569 2.138023
H 0.868272 -1.606799 1.304897
O 1.732107 1.118463 -1.980186
H 2.651823 0.944126 -2.189519
H 1.201287 0.693105 -2.656493
9
Structure 680 | Energy: -15.210998 Hartree
O -0.076252 -2.812670 0.584869
H 0.054104 -2.072222 -0.010803
H -0.893589 -2.653667 1.061080
O -0.317944 0.815425 -1.806071
H -0.979676 1.450867 -1.526050
H 0.520196 1.094857 -1.432539
O 0.346686 -0.416827 1.180309
H 1.003507 -0.286031 1.867018
H 0.144468 0.445743 0.812651
9
Structure 681 | Energy: -15.210991 Hartree
O -0.847494 -2.493244 -0.767595
H -0.113462 -3.109755 -0.733046
H -1.486548 -2.775312 -0.110216
O 1.868863 0.622349 1.086226
H 2.700661 0.636493 1.563719
H 1.736772 -0.274354 0.772277
O -1.066228 0.831209 2.175653
H -1.190038 1.326547 1.363617
H -1.894022 0.866560 2.658974
9
Structure 682 | Energy: -15.210945 Hartree
O 2.209343 -1.642880 0.201173
H 2.173291 -2.513563 -0.199693
H 1.665318 -1.670910 0.990699
O 0.005803 0.919962 -0.044090
H -0.663763 0.894238 0.642283
H -0.284465 0.334361 -0.746161
O -1.470143 -2.170786 -1.129017
H -2.067137 -1.483183 -0.827534
H -0.654727 -1.741993 -1.396083
9
Structure 683 | Energy: -15.210943 Hartree
O 1.417106 2.126223 0.702244
H 0.488969 1.939168 0.548446
H 1.919675 1.609705 0.069208
O -2.519442 -1.061167 -0.339671
H -1.988611 -0.676361 0.360494
H -1.954237 -1.147556 -1.109846
O 0.712517 -2.235302 1.684828
H -0.015842 -2.020731 1.098702
H 0.990147 -3.129693 1.477278
9
Structure 684 | Energy: -15.210923 Hartree
O -1.786212 0.373411 0.401829
H -1.864760 0.201743 -0.538619
H -1.359266 -0.390144 0.795277
O 1.787329 -2.062411 -0.598683
H 2.193321 -2.581217 0.098524
H 1.426178 -2.679348 -1.238250
O 0.353831 2.036798 1.288006
H -0.128758 2.347603 2.056510
H 0.762802 1.202858 1.527540
9
Structure 685 | Energy: -15.210903 Hartree
O -0.359180 -0.076736 0.531048
H -0.654662 -0.268951 1.423139
H -0.920229 -0.573966 -0.067356
O 1.477474 1.654035 -1.937696
H 0.659201 1.170607 -2.067367
H 1.958937 1.214039 -1.234357
O 1.673094 -1.747437 0.967433
H 1.393870 -2.198412 0.168217
H 1.229660 -2.173404 1.703646
9
Structure 686 | Energy: -15.210883 Hartree
O -0.168051 -0.563616 -2.524551
H 0.620730 -0.089209 -2.794445
H -0.797369 -0.501968 -3.245841
O -1.512672 0.719487 1.123870
H -1.389490 0.906478 2.056580
H -2.363282 1.083692 0.871072
O 2.720969 0.698349 0.168494
H 3.573246 0.801417 0.596386
H 2.106511 0.379388 0.832418
9
Structure 687 | Energy: -15.210879 Hartree
O 2.465315 0.068452 1.099498
H 1.646312 0.077116 1.598739
H 3.184628 0.056297 1.733959
O -0.678790 -1.969741 -0.858861
H -1.550251 -1.587294 -0.738949
H -0.604473 -2.704679 -0.246953
O -1.861158 -0.866748 1.262035
H -2.599601 -0.647878 1.833777
H -1.287544 -1.458487 1.752852
9
Structure 688 | Energy: -15.210862 Hartree
O 1.100261 0.164822 -1.089378
H 1.663251 0.933913 -1.197192
H 0.276353 0.349871 -1.544386
O 1.944698 -0.606981 1.618423
H 1.756202 -0.206722 2.469511
H 2.028201 0.105539 0.981689
O -2.624126 0.333184 -0.276038
H -3.229006 -0.007162 -0.938137
H -3.037677 1.104325 0.116908
9
Structure 689 | Energy: -15.210830 Hartree
O 1.256610 -0.105025 1.243034
H 1.575426 0.449469 0.528209
H 1.796422 -0.897904 1.249932
O -1.518151 1.242446 -1.517584
H -0.581467 1.418182 -1.626341
H -1.972186 1.656106 -2.254351
O -2.772699 -0.296450 0.198457
H -2.097380 0.357579 0.388936
H -2.565766 -1.077349 0.715629
9
Structure 690 | Energy: -15.210813 Hartree
O 0.077251 1.286205 -1.861797
H -0.693416 1.360205 -1.295513
H -0.235605 1.284870 -2.768560
O -2.587995 -0.923726 0.348299
H -3.345087 -1.118221 -0.207643
H -2.064527 -0.260892 -0.106367
O 0.968070 -0.500447 1.011708
H 0.503560 -1.052397 1.643904
H 1.321797 0.248911 1.494853
9
Structure 691 | Energy: -15.210811 Hartree
O 0.595806 -1.203156 1.802486
H 0.381273 -1.277085 2.734469
H 1.551791 -1.165962 1.733133
O -0.317541 1.775380 -2.066068
H 0.581630 1.727805 -2.396699
H -0.278797 2.172453 -1.193761
O -1.146821 0.645048 0.482014
H -1.671444 1.094346 -0.183564
H -1.750364 0.344726 1.164387
9
Structure 692 | Energy: -15.210787 Hartree
O -0.773398 0.151715 -1.265274
H -0.423498 1.004699 -1.000567
H -0.804567 0.142566 -2.223942
O -0.583982 -2.051843 1.182060
H 0.065381 -2.700708 1.460253
H -0.212871 -1.185037 1.358159
O -0.150446 2.306183 1.572833
H -0.544388 3.168231 1.720394
H 0.768197 2.450215 1.337374
9
Structure 693 | Energy: -15.210781 Hartree
O 0.427873 1.985460 1.269087
H 0.067373 2.844545 1.040844
H -0.232001 1.531649 1.797028
O -0.190225 -1.881501 -0.185735
H -0.746285 -1.465190 0.475756
H 0.002093 -2.769178 0.122697
O 2.225591 -0.336822 -1.715656
H 2.232962 -0.827905 -2.539595
H 2.207592 -0.978341 -1.002761
9
Structure 694 | Energy: -15.210763 Hartree
O 2.747346 0.554763 0.114561
H 3.359471 1.288865 0.195052
H 3.271350 -0.245446 0.042546
O 0.123237 -0.268298 -1.923537
H -0.279257 -0.298635 -1.053384
H -0.257169 -0.983263 -2.437545
O 1.363065 -0.917711 1.826405
H 0.958832 -0.490098 1.068887
H 1.147240 -1.850886 1.774500
9
Structure 695 | Energy: -15.210744 Hartree
O 0.963872 -1.580627 -0.968500
H 1.020281 -1.566700 -0.011052
H 0.264687 -0.974302 -1.220712
O 1.383178 1.397003 1.652304
H 0.911692 1.289887 2.480746
H 2.025449 0.686701 1.597106
O -1.581705 0.746481 0.330088
H -2.210196 0.264577 -0.211077
H -1.135304 0.105065 0.886327
9
Structure 696 | Energy: -15.210722 Hartree
O 1.241678 -1.606436 1.696355
H 0.528892 -1.982622 1.176257
H 1.848565 -1.185678 1.084186
O -1.225055 0.202010 -0.811108
H -1.998358 0.017683 -1.347870
H -0.570539 -0.468545 -1.016178
O 0.681378 2.545305 -1.065867
H 0.670720 1.798239 -0.464311
H 1.252599 2.310818 -1.799905
9
Structure 697 | Energy: -15.210710 Hartree
O -0.386663 1.581451 2.426673
H 0.250432 1.099623 1.895605
H -1.251164 1.430820 2.039313
O 0.499187 -1.602351 -1.354406
H -0.041078 -1.606946 -2.146985
H 1.015122 -2.410985 -1.357638
O 1.943291 -0.904957 1.025474
H 1.821819 -0.098947 1.531125
H 2.847487 -0.905872 0.705288
9
Structure 698 | Energy: -15.210708 Hartree
O -0.671254 -2.797094 0.025471
H -0.165168 -2.433236 -0.703615
H -0.190067 -2.600061 0.831534
O -1.037810 0.734207 -1.404026
H -0.339142 1.189555 -1.877956
H -1.506692 1.392703 -0.887673
O 0.883874 -0.000740 1.064610
H 0.883589 -0.877314 1.454109
H 1.115506 0.618735 1.759367
9
Structure 699 | Energy: -15.210700 Hartree
O -0.197787 -1.936802 -2.084842
H 0.235224 -2.560419 -2.671089
H -1.132334 -2.152912 -2.080447
O 0.201717 0.980088 0.611177
H -0.515518 1.615968 0.574854
H 0.935698 1.351300 0.117657
O 1.574948 -2.114706 0.388576
H 1.725170 -1.375371 -0.203800
H 1.674508 -2.917044 -0.127593
9
Structure 700 | Energy: -15.210664 Hartree
O -0.004547 0.447633 1.775055
H -0.203027 0.890248 0.947541
H 0.950229 0.382854 1.840673
O 2.494355 -0.730404 -1.073730
H 3.151277 -1.401011 -0.876679
H 2.672613 -0.409932 -1.960076
O -0.010773 -1.516268 -1.209905
H -0.811056 -1.802466 -1.654573
H -0.196308 -0.663335 -0.812197
9
Structure 701 | Energy: -15.210653 Hartree
O 1.370173 1.496687 1.453513
H 1.146486 1.620842 0.529050
H 2.323334 1.574341 1.528050
O -2.105685 0.548054 0.609837
H -1.153149 0.460667 0.538244
H -2.412053 0.981195 -0.189298
O -0.278478 -2.149336 -1.821370
H -0.229278 -1.620480 -2.620107
H -0.402809 -1.544440 -1.087386
9
Structure 702 | Energy: -15.210626 Hartree
O 0.940935 0.853028 -2.263835
H 1.054932 0.349769 -3.072425
H 1.816857 1.064349 -1.934892
O -1.082610 -0.581095 0.852721
H -0.480065 -0.301364 1.544659
H -1.712940 0.129739 0.720477
O 1.967390 -1.682498 1.115379
H 2.903514 -1.544649 1.272733
H 1.716588 -2.484320 1.578271
9
Structure 703 | Energy: -15.210620 Hartree
O 1.350877 1.506800 -1.102488
H 0.554646 0.976122 -1.035562
H 1.076212 2.413165 -1.254676
O -0.464689 -0.102521 2.654643
H -0.936432 0.545171 2.127347
H 0.251083 -0.442113 2.113870
O 0.846918 -2.136684 -0.460718
H 0.694376 -2.912262 0.082697
H 0.215559 -1.468795 -0.186127
9
Structure 704 | Energy: -15.210609 Hartree
O 0.996978 2.333873 0.568419
H 1.311169 1.555489 1.032622
H 0.057156 2.409715 0.744726
O -1.274920 -1.017274 -1.452047
H -2.152039 -0.630212 -1.421469
H -0.684394 -0.354327 -1.815184
O 1.981932 -1.740436 -0.334933
H 2.008959 -1.285465 0.509082
H 2.767844 -1.483758 -0.821295
9
Structure 705 | Energy: -15.210609 Hartree
O -0.556689 -0.472919 1.595508
H -0.898379 -0.953292 2.352192
H -0.748456 -0.997594 0.815737
O 1.287251 2.194635 -0.016103
H 1.546415 2.853756 -0.663005
H 1.997709 1.552209 0.035146
O 0.344901 -2.662396 0.335669
H 1.101539 -2.470427 -0.221770
H -0.212640 -3.277930 -0.144284
9
Structure 706 | Energy: -15.210593 Hartree
O 1.102554 -0.999555 2.136233
H 0.169886 -0.776482 2.115004
H 1.471372 -0.760124 1.283739
O -0.725093 1.873270 -0.242221
H -0.833648 2.433394 -1.013301
H -0.457418 1.007151 -0.555712
O 2.230346 0.231072 -1.769890
H 1.379369 0.136162 -1.337546
H 2.561044 -0.652502 -1.943173
9
Structure 707 | Energy: -15.210578 Hartree
O 2.584977 -0.094789 -0.038219
H 2.141786 -0.927493 -0.212195
H 3.364852 -0.291823 0.484346
O -0.733835 -1.328771 -1.132775
H -0.055938 -1.268220 -0.456848
H -1.147969 -0.466013 -1.197818
O 0.011063 2.659045 0.305119
H -0.300077 1.768707 0.130242
H -0.689135 3.260855 0.045048
9
Structure 708 | Energy: -15.210568 Hartree
O -1.586726 -1.153178 1.182581
H -1.129504 -0.326606 1.349339
H -2.527381 -0.966362 1.201744
O 1.576375 1.158651 -1.571230
H 0.969153 1.796592 -1.951230
H 1.415764 1.141890 -0.625708
O 0.280797 -1.081978 -1.656868
H 0.349410 -1.855173 -1.093349
H 0.419130 -1.375239 -2.559614
9
Structure 709 | Energy: -15.210543 Hartree
O -1.573820 0.283512 1.005693
H -1.131670 0.899795 0.418513
H -2.513515 0.470037 0.957908
O -0.013787 -1.997950 -1.704878
H -0.268862 -2.892312 -1.939702
H 0.040352 -1.959996 -0.747947
O 0.897413 -1.134821 1.818311
H 0.856864 -1.855122 1.186161
H 0.774513 -1.514957 2.690368
9
Structure 710 | Energy: -15.210532 Hartree
O -1.462273 -0.311572 0.246125
H -1.807762 -1.061778 -0.241637
H -0.669260 -0.018819 -0.207225
O 0.557901 2.786800 -0.762965
H 1.176155 2.230223 -1.240534
H 0.397943 2.370128 0.086085
O 0.495126 -1.988601 1.440671
H 1.042223 -2.395077 0.765724
H 0.966263 -2.065624 2.272649
9
Structure 711 | Energy: -15.210514 Hartree
O -0.897336 -0.847043 -1.011851
H -0.001606 -0.595101 -0.778881
H -0.892249 -1.791454 -1.179667
O -1.853081 0.754704 1.641540
H -1.077119 1.315345 1.581110
H -2.573716 1.219832 1.212087
O 2.528880 -0.061811 -1.475107
H 2.007887 -0.867175 -1.481873
H 2.616860 0.211911 -0.559998
9
Structure 712 | Energy: -15.210505 Hartree
O 2.161442 -0.432169 -1.053148
H 2.011779 0.060618 -0.243923
H 2.311577 0.207739 -1.751773
O 0.082699 1.243397 1.003126
H -0.143895 1.460697 1.909506
H 0.352176 2.058136 0.574558
O -0.058624 -1.653562 -1.220474
H -0.437008 -1.280770 -2.019187
H -0.037281 -0.955053 -0.563420
9
Structure 713 | Energy: -15.210503 Hartree
O 1.148781 -0.378232 -1.709496
H 2.103666 -0.435667 -1.638943
H 0.912915 -0.648399 -2.599146
O -0.433601 0.319791 2.408512
H 0.373770 0.229303 2.918465
H -1.166322 0.270998 3.025625
O -2.699201 -0.574677 -0.273208
H -3.598795 -0.298759 -0.459465
H -2.412768 -0.099942 0.509527
9
Structure 714 | Energy: -15.210488 Hartree
O -0.218750 0.899249 1.985841
H -0.646324 1.755674 1.924205
H 0.363849 0.817434 1.228223
O -1.285800 -2.127207 -1.587000
H -1.767342 -1.852994 -0.804048
H -0.400666 -1.764116 -1.517774
O 1.625501 -1.480303 1.608222
H 2.418503 -1.941348 1.327730
H 0.919410 -1.742423 1.014238
9
Structure 715 | Energy: -15.210458 Hartree
O 0.013789 1.704603 0.612749
H -0.010001 1.819683 1.564732
H 0.864805 2.026387 0.308897
O 2.394044 -0.518830 -0.694132
H 2.551748 -0.341051 0.235175
H 2.026163 -1.402540 -0.755837
O -1.215108 -0.351289 -0.801348
H -0.428726 -0.169298 -1.319589
H -1.684311 -1.064843 -1.238131
9
Structure 716 | Energy: -15.210452 Hartree
O -2.491848 0.316627 -1.418816
H -3.345324 0.019330 -1.740179
H -1.983872 -0.465954 -1.196046
O 0.820482 -1.972649 0.487732
H 0.234958 -1.239702 0.287634
H 0.563304 -2.704036 -0.077086
O -1.910513 -0.280728 1.377614
H -1.227012 -0.098689 2.025518
H -1.782962 -1.182244 1.075804
9
Structure 717 | Energy: -15.210449 Hartree
O 0.635531 0.947263 -1.506982
H 1.399980 0.459093 -1.194909
H 0.932716 1.833716 -1.721416
O -1.865254 -0.557366 1.708841
H -1.542214 -0.569645 2.611937
H -1.737364 -1.437454 1.349428
O -2.247849 1.500446 -1.078572
H -1.944093 1.378151 -1.980163
H -1.616667 2.075657 -0.641728
9
Structure 718 | Energy: -15.210447 Hartree
O -0.182284 2.507452 1.348396
H 0.152573 2.326126 0.468014
H -1.039529 2.925416 1.245752
O -0.751442 -0.240345 -1.781690
H -0.934162 0.471404 -1.165156
H 0.065872 -0.021788 -2.233705
O -0.309541 -1.883545 1.398195
H -0.074563 -2.807375 1.505032
H 0.232402 -1.380134 2.008903
9
Structure 719 | Energy: -15.210431 Hartree
O 0.831544 -1.891909 -0.119093
H -0.100892 -2.076486 -0.247846
H 1.291778 -2.733441 -0.129457
O 2.068819 0.965672 0.843223
H 2.533686 0.735527 0.036364
H 2.425352 0.415337 1.543297
O -0.986276 -0.814241 -2.428782
H -0.348462 -1.449877 -2.759314
H -1.853124 -1.218881 -2.499001
9
Structure 720 | Energy: -15.210431 Hartree
O 2.012604 -0.002957 0.958165
H 2.858657 -0.417575 0.778255
H 1.330990 -0.640242 0.735973
O 1.554126 1.534718 -1.193169
H 2.466385 1.652122 -0.920975
H 1.547096 1.490006 -2.151313
O -1.111353 -0.423710 2.548205
H -2.038555 -0.276213 2.744756
H -0.602183 0.039826 3.216014
9
Structure 721 | Energy: -15.210423 Hartree
O 1.611033 1.091403 -1.435128
H 2.200040 1.246787 -0.694176
H 0.830798 1.631737 -1.295943
O -1.711023 -0.187347 0.522081
H -2.118759 -1.003401 0.818553
H -1.829763 -0.139504 -0.428550
O 0.474631 -0.043441 2.655708
H -0.006128 -0.543332 3.318333
H 1.090835 0.525707 3.120953
9
Structure 722 | Energy: -15.210421 Hartree
O 0.605483 -0.065645 0.622604
H 0.042571 -0.719032 1.042482
H 1.084146 0.387022 1.319794
O -2.086413 0.554280 -1.192112
H -3.012645 0.313233 -1.128243
H -2.044627 1.409481 -1.624516
O -0.615353 -1.919903 -1.388706
H -0.894088 -1.486601 -2.197809
H -1.298351 -1.764435 -0.733394
9
Structure 723 | Energy: -15.210413 Hartree
O -0.024033 -0.438552 2.140089
H -0.617800 0.005368 2.748741
H 0.231066 -1.268925 2.546912
O 0.920065 2.106166 -0.926668
H 0.543379 1.374093 -1.418873
H 1.697561 2.400147 -1.405379
O 1.552481 -2.334087 0.154212
H 2.490770 -2.527570 0.201852
H 1.413283 -1.792811 -0.625362
9
Structure 724 | Energy: -15.210413 Hartree
O -1.452552 -1.270869 0.408288
H -2.213284 -1.737697 0.759630
H -0.988411 -1.879032 -0.170340
O 1.546863 0.418224 -2.475392
H 0.634640 0.596316 -2.238282
H 1.661060 -0.534150 -2.469830
O 1.565398 -1.312357 1.294442
H 2.169166 -0.790076 0.762673
H 1.453952 -2.155970 0.851738
9
Structure 725 | Energy: -15.210409 Hartree
O -1.292332 0.485543 -1.111897
H -0.473758 0.978619 -1.028859
H -1.752980 0.827168 -1.880789
O 0.372438 -2.283779 0.669561
H 0.413440 -2.982446 1.325512
H 0.715730 -2.643693 -0.150623
O 2.050355 1.255824 -1.234387
H 1.733257 1.208208 -2.138418
H 2.719786 1.942136 -1.203945
9
Structure 726 | Energy: -15.210392 Hartree
O -0.292152 1.051247 0.232815
H 0.364644 0.515203 0.681543
H 0.138638 1.454188 -0.523597
O 2.189087 -0.621992 -1.258444
H 2.665177 0.055192 -0.773832
H 1.583338 -1.039126 -0.642689
O -1.208483 -0.895977 -1.472692
H -0.424300 -1.151727 -1.962325
H -1.471990 -1.651450 -0.943623
9
Structure 727 | Energy: -15.210391 Hartree
O 1.209474 -0.029689 -1.415110
H 0.509792 -0.659741 -1.598308
H 1.988532 -0.533319 -1.171131
O 0.010918 1.645868 1.749663
H -0.701389 2.049822 2.249190
H 0.014869 0.711290 1.965620
O -1.773775 -1.836933 -0.654587
H -1.041470 -2.443911 -0.530503
H -2.418063 -2.279076 -1.210907
9
Structure 728 | Energy: -15.210372 Hartree
O 1.130138 -1.730379 -1.592117
H 0.233265 -1.624566 -1.268846
H 1.071969 -1.955015 -2.522845
O -1.628811 1.103242 0.984785
H -2.476606 1.202450 0.547190
H -1.056881 0.615591 0.388815
O 1.550868 0.492670 2.043502
H 2.415581 0.891309 2.159475
H 1.579814 -0.373333 2.454952
9
Structure 729 | Energy: -15.210360 Hartree
O 1.947913 -0.882127 0.885374
H 2.108113 -1.810270 0.703804
H 1.284726 -0.580923 0.261227
O -0.496199 2.097772 -1.026757
H -1.360280 1.924438 -0.648067
H -0.514283 1.781660 -1.932204
O -1.041274 0.017545 2.424476
H -1.513298 -0.785787 2.196567
H -1.335486 0.281659 3.298418
9
Structure 730 | Energy: -15.210358 Hartree
O -2.657311 -0.865898 0.554918
H -2.188549 -1.684361 0.729454
H -3.551938 -0.975367 0.883183
O 0.607754 1.377191 -0.165526
H -0.224155 1.108821 0.229434
H 0.408864 1.728298 -1.035730
O 1.075235 -1.035194 1.633884
H 1.340829 -0.912326 2.547369
H 0.384880 -1.701104 1.625890
9
Structure 731 | Energy: -15.210354 Hartree
O 0.541436 0.283421 1.547248
H 0.934219 -0.533576 1.233689
H -0.367780 0.089222 1.783286
O 1.795785 -0.749757 -1.676695
H 1.860358 -1.665211 -1.397657
H 2.245562 -0.219095 -1.016250
O -1.967223 2.086292 0.023688
H -2.472153 2.412470 0.771181
H -2.454627 1.348549 -0.348147
9
Structure 732 | Energy: -15.210332 Hartree
O -1.426790 -1.497829 0.771473
H -2.315024 -1.859408 0.751881
H -1.238335 -1.159651 -0.106149
O 1.660096 0.975689 -1.911326
H 0.739345 0.931209 -1.646130
H 1.759707 0.419186 -2.686226
O 1.124301 -0.106430 2.168438
H 2.056421 -0.124263 1.942774
H 0.987720 -0.753872 2.862884
9
Structure 733 | Energy: -15.210322 Hartree
O 0.819769 -1.729731 -1.986360
H 1.046446 -0.807180 -2.119027
H 0.992841 -1.935187 -1.065526
O -1.405750 -0.014023 1.465465
H -0.782995 0.107794 0.746143
H -1.249980 0.689790 2.098293
O 2.168326 1.394041 0.560526
H 1.253155 1.107454 0.540018
H 2.192054 2.292927 0.226566
9
Structure 734 | Energy: -15.210319 Hartree
O 0.015789 0.584349 -2.635526
H -0.866808 0.739019 -2.293208
H 0.303337 -0.268832 -2.304621
O 0.935831 -0.435294 0.177741
H -0.014762 -0.394982 0.055939
H 1.113126 -1.147549 0.795274
O 0.436141 2.621310 1.154176
H -0.201169 2.297283 1.793656
H 1.307426 2.508140 1.539072
9
Structure 735 | Energy: -15.210311 Hartree
O 1.425209 -1.356465 0.119501
H 1.675623 -2.267267 0.286279
H 0.747383 -1.367927 -0.559116
O -0.223351 1.826446 -2.167374
H -0.962370 1.534909 -1.629837
H 0.438415 1.132583 -2.140758
O -1.782871 -0.229109 1.957417
H -1.463066 -0.046341 1.071747
H -2.275966 -1.050905 1.917428
9
Structure 736 | Energy: -15.210306 Hartree
O -0.605469 1.100779 2.054153
H -1.106344 1.904218 2.208071
H -0.970671 0.424111 2.627606
O -0.852519 -1.415425 -0.791936
H -0.474390 -2.061097 -1.392114
H -0.130010 -1.045197 -0.281054
O -1.266035 1.021726 -1.373682
H -1.417683 0.330973 -2.021720
H -2.032658 1.598068 -1.388155
9
Structure 737 | Energy: -15.210296 Hartree
O -0.299890 -0.775565 0.069784
H 0.148283 -1.270688 0.758315
H -1.016044 -1.324954 -0.254863
O -2.484351 1.026992 -1.257882
H -1.757329 0.599675 -1.714968
H -2.234997 1.101283 -0.334632
O -0.270849 0.592366 1.927138
H -0.138863 1.219784 1.213683
H -1.075539 0.846162 2.383373
9
Structure 738 | Energy: -15.210291 Hartree
O -1.086810 -2.435191 0.637580
H -0.850471 -1.585494 0.260432
H -0.320511 -2.756221 1.116981
O 0.398973 1.387857 -0.892670
H 0.411220 1.218271 0.051353
H 0.509079 0.543554 -1.334391
O -2.265797 1.043918 -0.944970
H -1.666383 1.003815 -1.692757
H -2.586097 0.153216 -0.789575
9
Structure 739 | Energy: -15.210291 Hartree
O 0.997368 1.383940 -0.155880
H 1.849476 1.420075 0.283083
H 0.332880 1.255473 0.523864
O 0.358590 -1.382019 1.896285
H 1.224779 -1.609437 1.552649
H 0.437556 -1.325092 2.850544
O -0.973331 0.783858 -2.355069
H -1.891697 0.957395 -2.139247
H -0.658181 1.526626 -2.873784
9
Structure 740 | Energy: -15.210284 Hartree
O -0.211864 -0.970467 -1.414771
H -0.926444 -0.537710 -1.886127
H -0.452062 -0.985361 -0.486233
O -0.978177 1.755994 1.205770
H -1.648361 1.157704 1.541909
H -0.969281 1.664973 0.250928
O 2.109659 0.187329 0.378020
H 1.473458 -0.276394 0.926017
H 2.402067 0.956407 0.871079
9
Structure 741 | Energy: -15.210267 Hartree
O 1.105499 1.323754 0.556325
H 1.461412 2.196811 0.379751
H 0.149455 1.401702 0.557803
O 1.986734 -1.084529 -0.876156
H 1.421857 -0.607948 -1.487608
H 2.827206 -0.623153 -0.847399
O -1.006101 0.528174 2.631885
H -1.748492 1.134501 2.668131
H -1.286082 -0.233444 2.120378
9
Structure 742 | Energy: -15.210264 Hartree
O 0.821809 -0.601259 -0.595848
H 0.939270 0.334923 -0.423082
H 0.220734 -0.679703 -1.339256
O 0.714552 0.378350 2.391420
H 0.498051 -0.524162 2.633678
H 0.120137 0.953294 2.877422
O -1.801379 -2.182246 -0.109429
H -1.354455 -1.941601 -0.923334
H -2.615977 -1.677109 -0.072606
9
Structure 743 | Energy: -15.210250 Hartree
O -1.083330 2.538667 -0.141632
H -1.502145 2.040985 -0.846606
H -0.286361 2.929895 -0.504787
O 1.207013 -0.298257 0.590948
H 2.008513 -0.107649 1.082226
H 0.494946 -0.377369 1.228749
O 0.338662 -1.542096 -2.092834
H -0.003262 -2.297377 -1.610412
H -0.263487 -1.373310 -2.820170
9
Structure 744 | Energy: -15.210217 Hartree
O 0.163075 -0.754929 0.604347
H 0.247481 -1.659280 0.912742
H -0.646946 -0.703562 0.093146
O 1.438750 0.602561 -1.061748
H 1.497166 0.834310 -1.990709
H 0.667333 1.047919 -0.705853
O -1.741023 -0.956659 -1.636583
H -2.572279 -1.413672 -1.778864
H -1.820134 -0.090580 -2.041228
9
Structure 745 | Energy: -15.210204 Hartree
O 0.367874 -2.055670 0.197486
H -0.254656 -2.784995 0.172522
H 0.791571 -2.014302 -0.662089
O 1.167806 1.359387 -2.005585
H 0.476135 1.329034 -2.669482
H 1.417985 2.279114 -1.897877
O -1.257105 -0.251105 1.948481
H -1.473669 -0.307308 1.015726
H -1.775832 -0.918928 2.401275
9
Structure 746 | Energy: -15.210191 Hartree
O 1.413920 -1.058674 -0.581317
H 2.157815 -1.344561 -0.047489
H 0.988579 -0.337713 -0.112915
O 0.633981 0.378658 2.576257
H 0.645009 1.262041 2.202624
H 0.933084 0.450760 3.484787
O -0.133128 -0.051454 -2.283363
H -0.761524 0.479979 -2.776098
H 0.670850 -0.096757 -2.804570
9
Structure 747 | Energy: -15.210184 Hartree
O 0.150493 -0.791379 -1.372958
H 0.727346 -1.160289 -0.701222
H 0.224778 -1.350011 -2.149174
O -2.001110 0.881021 1.380621
H -1.832994 1.317434 0.543143
H -2.849363 0.439513 1.305610
O 0.929544 1.553858 0.858231
H 1.606116 0.937064 0.572036
H 0.872772 2.242196 0.192606
9
Structure 748 | Energy: -15.210145 Hartree
O -1.170798 0.521906 1.333265
H -2.049461 0.894504 1.429201
H -1.173711 -0.329840 1.774424
O 0.104979 -0.669006 -2.691534
H 0.272035 -1.083123 -3.540468
H 0.586645 -1.170808 -2.031019
O 0.684271 2.124876 0.851434
H 1.401867 1.753956 0.334166
H -0.129859 1.946702 0.376529
9
Structure 749 | Energy: -15.210102 Hartree
O 0.268599 0.436116 2.506279
H 0.568377 -0.416625 2.185271
H -0.117176 0.900605 1.760941
O -2.208362 -0.072275 -0.507277
H -1.458730 -0.389024 0.000473
H -1.900437 0.081416 -1.402626
O 0.065604 -0.565826 -2.748926
H -0.591820 0.052870 -3.073119
H -0.377603 -1.156299 -2.136555
9
Structure 750 | Energy: -15.210089 Hartree
O 1.589863 2.355483 -0.132333
H 2.089838 2.098521 0.644891
H 0.668064 2.157930 0.044755
O -1.510301 -0.739307 0.634704
H -2.371117 -0.511196 0.278265
H -1.036640 0.081912 0.780756
O -0.207568 0.843888 -2.059033
H -0.904341 1.496501 -1.965788
H -0.348691 0.395142 -2.894977
9
Structure 751 | Energy: -15.210061 Hartree
O -2.370255 -1.534250 0.797667
H -1.944726 -0.896968 1.374622
H -1.862572 -1.564500 -0.015624
O 1.365401 0.483016 -2.077022
H 1.371782 -0.122420 -1.333050
H 2.270707 0.566892 -2.382759
O -0.486110 1.639038 1.865014
H 0.258178 1.491887 1.278095
H -0.749794 0.783483 2.209378
9
Structure 752 | Energy: -15.210059 Hartree
O 0.235207 1.299780 -1.736953
H 0.316772 0.961435 -2.630794
H 0.608598 0.640650 -1.148543
O 1.449112 -1.802943 1.525685
H 2.326864 -2.161806 1.381264
H 1.531041 -1.106840 2.180526
O -2.351604 0.179061 -1.189299
H -2.581640 -0.484520 -0.535973
H -2.103671 -0.285585 -1.990999
9
Structure 753 | Energy: -15.210051 Hartree
O -0.644297 1.136667 -0.509540
H -1.385277 1.315876 -1.091704
H -0.240248 0.319277 -0.807396
O 0.114819 -2.160090 1.129004
H -0.607603 -1.844889 0.582338
H 0.185024 -3.106428 0.988991
O 1.762463 -0.013181 -1.351221
H 1.649359 0.486894 -2.161914
H 2.072203 -0.887006 -1.597351
9
Structure 754 | Energy: -15.210028 Hartree
O 1.438799 0.465232 -1.317744
H 1.706035 -0.414787 -1.045287
H 0.489542 0.525055 -1.193521
O 1.459864 -1.775342 0.972211
H 0.891447 -2.417878 0.543096
H 0.890723 -1.153211 1.429507
O 0.040363 2.660800 -0.210930
H -0.488578 2.579159 0.585090
H -0.564979 2.665397 -0.954994
9
Structure 755 | Energy: -15.210014 Hartree
O 0.305665 2.812987 0.228331
H 0.455910 2.466142 1.109924
H -0.642989 2.897290 0.114100
O 1.905722 -1.200540 0.039761
H 1.143800 -1.762369 -0.114873
H 2.392876 -1.149246 -0.784943
O -0.749689 0.436358 1.015750
H -1.367165 1.055398 1.410217
H -0.741323 0.606108 0.071714
9
Structure 756 | Energy: -15.209991 Hartree
O 1.665518 0.556113 -2.184066
H 1.669717 -0.213567 -2.756479
H 2.541911 0.630208 -1.801254
O -1.645724 -1.191195 0.933691
H -0.952070 -1.537159 1.498705
H -2.460455 -1.632768 1.181312
O 1.796090 -0.511578 1.661731
H 2.679655 -0.838188 1.842646
H 1.480709 -0.087198 2.462060
9
Structure 757 | Energy: -15.209987 Hartree
O 2.256550 -0.240116 1.311467
H 2.296042 0.285388 0.509989
H 1.347547 -0.223823 1.617326
O 0.553230 0.625654 -1.659167
H 0.768212 1.161355 -0.893076
H 0.953469 1.047420 -2.422064
O -0.636991 -0.589140 0.037187
H -1.095897 -0.420830 -0.788142
H -1.229879 -0.338055 0.748194
9
Structure 758 | Energy: -15.209972 Hartree
O 1.307242 0.742210 -0.191717
H 0.925098 1.564029 0.122387
H 0.593554 0.221722 -0.565671
O 1.386011 -0.757488 2.319423
H 1.093863 -1.626543 2.037497
H 0.760730 -0.447198 2.977323
O -0.977969 1.276464 -1.795450
H -1.568372 1.233087 -1.040709
H -1.449380 1.726289 -2.499381
9
Structure 759 | Energy: -15.209948 Hartree
O -0.755459 -0.200867 1.952307
H -1.033760 0.684752 1.710834
H 0.197039 -0.238380 1.845353
O -0.776117 1.770510 -1.900187
H 0.140321 1.882677 -1.640094
H -0.781405 1.244404 -2.702230
O 0.781645 -2.107324 0.669144
H 1.677044 -1.773867 0.584538
H 0.844944 -3.028393 0.929365
9
Structure 760 | Energy: -15.209941 Hartree
O -1.473267 2.188418 -1.021465
H -0.947999 2.779654 -1.564250
H -1.276763 2.393999 -0.105374
O -1.665911 -1.241420 0.473781
H -1.191581 -1.820739 -0.125793
H -2.227941 -1.795502 1.018947
O 1.823576 -0.304031 -0.283340
H 1.991225 -0.584282 -1.185252
H 2.054513 0.625265 -0.227065
9
Structure 761 | Energy: -15.209933 Hartree
O -0.460396 0.895058 1.321944
H -0.463578 -0.051537 1.476961
H -1.184061 1.087149 0.722353
O -1.545402 -1.380869 -1.880119
H -2.092924 -2.064455 -2.271296
H -0.922581 -1.096667 -2.551991
O 2.119665 1.061948 0.081557
H 2.242989 1.450191 -0.786861
H 2.009141 0.117263 -0.042719
9
Structure 762 | Energy: -15.209921 Hartree
O -0.500261 1.741086 0.545700
H -0.927527 1.411590 1.338768
H -0.780960 1.181953 -0.181403
O 1.793407 -1.510793 -0.564640
H 1.208780 -0.873810 -0.149245
H 1.943992 -2.214156 0.069941
O -1.065365 0.767690 -2.599811
H -0.531665 0.167513 -2.075366
H -1.814282 1.027617 -2.059764
9
Structure 763 | Energy: -15.209918 Hartree
O 0.026658 -0.038528 -2.039570
H 0.615886 -0.214261 -2.775783
H -0.046366 0.914189 -1.955323
O 1.815995 -1.184670 1.710725
H 1.642404 -1.198010 0.767445
H 1.824589 -0.265545 1.984994
O -1.294998 -0.459060 0.319011
H -0.815511 -0.548380 1.144969
H -1.713402 0.404067 0.325354
9
Structure 764 | Energy: -15.209911 Hartree
O -0.549086 0.444761 2.087295
H 0.237624 -0.025636 1.804634
H -0.844551 0.038753 2.904582
O -1.230779 -0.438437 -2.084016
H -0.341393 -0.335818 -1.739705
H -1.575118 0.441657 -2.248194
O 0.756073 2.605713 0.591250
H 1.454193 3.192515 0.888544
H 1.048677 1.707894 0.759752
9
Structure 765 | Energy: -15.209904 Hartree
O -0.135075 1.096531 -2.198161
H 0.244490 0.225374 -2.067400
H -1.022883 0.971315 -2.539067
O -1.122508 -0.089565 0.997059
H -1.656739 0.266378 0.284325
H -1.386070 0.360902 1.801859
O 1.214928 -1.992265 1.317563
H 1.610760 -2.852271 1.163297
H 1.819112 -1.334571 0.967578
9
Structure 766 | Energy: -15.209894 Hartree
O -0.043513 -1.585568 -0.547302
H -0.817040 -2.150853 -0.594106
H -0.175703 -0.983517 0.187655
O 0.889902 1.941805 1.013911
H 0.274411 1.585094 0.370469
H 1.724863 1.485808 0.891464
O 0.962002 -0.180878 -2.599824
H 1.890931 -0.385157 -2.724132
H 0.779720 0.622787 -3.090727
9
Structure 767 | Energy: -15.209869 Hartree
O 0.635213 -0.928413 1.190984
H 1.086937 -0.667300 0.386095
H -0.281333 -1.093827 0.961460
O 1.996767 1.879922 -0.143411
H 1.065362 1.794675 0.069443
H 2.144453 1.408905 -0.965859
O -1.500089 0.707314 -1.077333
H -0.924968 0.248045 -1.692474
H -0.959853 1.343005 -0.603908
9
Structure 768 | Energy: -15.209865 Hartree
O -2.399484 0.647854 -0.538677
H -3.297245 0.951300 -0.390258
H -2.443676 -0.293607 -0.717000
O 1.258035 -0.442354 0.703114
H 1.573776 -1.036074 0.019086
H 1.672903 -0.710222 1.525440
O 0.862363 0.916393 -1.874424
H 1.318518 0.352058 -2.501751
H 0.200863 0.377419 -1.436230
9
Structure 769 | Energy: -15.209858 Hartree
O 1.412945 -0.433997 -2.352095
H 0.965953 -0.055721 -1.592367
H 0.884082 -0.226814 -3.125063
O -0.548348 1.085562 1.056452
H -0.718719 1.781394 1.694324
H -0.614239 1.477958 0.183657
O -0.400150 -1.957343 -0.424531
H -0.372073 -2.716355 -1.010368
H -1.001355 -1.319667 -0.814416
9
Structure 770 | Energy: -15.209854 Hartree
O -1.777035 2.190944 0.133302
H -2.176355 2.289256 -0.733277
H -1.926331 3.010141 0.609461
O -1.055147 -0.483690 -0.501832
H -1.962618 -0.287838 -0.743134
H -0.489708 0.025486 -1.085876
O 0.867050 -0.060687 1.725125
H 1.585695 0.346155 2.213099
H 0.465715 0.624259 1.186730
9
Structure 771 | Energy: -15.209847 Hartree
O -0.358748 2.411347 1.316137
H 0.151101 2.489312 0.507400
H 0.236152 2.091569 1.997265
O 1.315098 -1.353070 -0.740294
H 2.115625 -1.830782 -0.514385
H 1.514295 -0.811143 -1.506273
O -1.595842 -1.220235 -1.285499
H -2.368896 -1.153219 -1.849403
H -1.892400 -1.549912 -0.434936
9
Structure 772 | Energy: -15.209841 Hartree
O 2.380296 1.434141 0.046345
H 2.358222 2.349078 0.333545
H 2.876431 1.405844 -0.774112
O -1.194549 -0.561992 -0.258553
H -1.635193 -0.010379 0.390789
H -1.856078 -1.150995 -0.626713
O -0.461531 2.275762 -1.237244
H 0.211469 1.814101 -1.741259
H -0.900792 2.881200 -1.837731
9
Structure 773 | Energy: -15.209788 Hartree
O -0.755429 2.603961 -0.913046
H -0.585021 2.210167 -0.055160
H -1.706260 2.608900 -1.039521
O -1.270749 -0.796389 1.131526
H -1.993120 -1.387988 1.351251
H -1.480743 0.060449 1.508116
O 2.146259 -0.989299 0.876875
H 2.975731 -1.325852 1.221548
H 2.348803 -0.498874 0.077783
9
Structure 774 | Energy: -15.209749 Hartree
O 0.132268 0.454657 -0.488545
H 0.394680 -0.383582 -0.874003
H 0.811899 1.094311 -0.710005
O 0.101099 -1.213300 2.456814
H 0.048667 -2.136272 2.712668
H -0.607662 -1.051280 1.831118
O -1.239968 2.422435 0.722883
H -1.933664 3.079452 0.637986
H -1.045872 2.333489 1.658033
9
Structure 775 | Energy: -15.209712 Hartree
O 0.565814 1.990574 1.502738
H 0.929302 1.604088 0.703622
H -0.054123 2.670905 1.232687
O 1.319951 -1.140772 -0.314143
H 2.188899 -1.432282 -0.031232
H 0.744088 -1.179110 0.452016
O -0.469456 -2.322234 -1.532127
H -0.353050 -2.790923 -2.360904
H -1.249983 -1.772298 -1.623988
9
Structure 776 | Energy: -15.209698 Hartree
O -1.715959 1.280934 -0.390982
H -1.757121 2.219945 -0.199552
H -1.617465 0.824286 0.446796
O 1.474646 -2.322710 0.294660
H 2.246733 -2.484255 -0.251118
H 1.534798 -1.419370 0.611595
O 0.990663 1.676067 -1.456652
H 0.690840 1.966732 -0.593106
H 1.277571 2.456306 -1.935192
9
Structure 777 | Energy: -15.209696 Hartree
O 0.139243 -1.011570 -0.326466
H -0.786455 -1.174672 -0.517679
H 0.416456 -0.273620 -0.872984
O -0.042877 1.180964 2.631338
H -0.033444 2.123310 2.452499
H 0.262028 0.738032 1.837026
O 2.719637 0.144108 -0.157840
H 2.295613 0.503905 0.623723
H 2.597229 0.779896 -0.865568
9
Structure 778 | Energy: -15.209691 Hartree
O 0.469512 0.132687 -1.707601
H 0.942844 0.162923 -0.873860
H -0.443333 0.363564 -1.524545
O 0.755134 -0.499657 2.721018
H -0.147486 -0.182897 2.791922
H 1.270188 0.199171 2.313039
O -1.502753 -1.115115 0.686577
H -1.859705 -1.299734 1.557549
H -0.851056 -0.418693 0.788443
9
Structure 779 | Energy: -15.209683 Hartree
O -0.159825 -2.452416 1.250942
H -0.196040 -1.970442 0.422406
H 0.551128 -2.071647 1.770231
O 2.257767 0.638540 -1.006908
H 1.822674 -0.021120 -0.463188
H 2.185867 0.347883 -1.918191
O -0.195275 1.434927 1.979810
H 0.352284 1.235581 2.741735
H -0.480389 0.597891 1.608096
9
Structure 780 | Energy: -15.209642 Hartree
O -0.924190 0.890162 -2.276069
H -1.850287 0.925204 -2.028686
H -0.517571 1.703418 -1.970493
O 1.551307 -1.354996 0.933077
H 0.721057 -1.785898 0.720716
H 1.977063 -1.878861 1.614535
O 1.290079 0.500001 -0.437837
H 2.190255 0.291331 -0.180486
H 1.083679 -0.033890 -1.207545
9
Structure 781 | Energy: -15.209594 Hartree
O -0.022889 0.344447 1.780624
H 0.769357 0.276906 2.317156
H 0.253703 0.328039 0.862295
O 1.807779 -1.864714 -1.145897
H 1.741058 -1.042676 -0.656110
H 1.233582 -1.787290 -1.910352
O -1.349812 -0.393707 -1.744653
H -0.417446 -0.615641 -1.705532
H -1.577820 0.023033 -0.911328
9
Structure 782 | Energy: -15.209565 Hartree
O 1.293959 0.574142 1.138253
H 1.449151 -0.344152 1.367888
H 1.334267 1.081062 1.951584
O -0.163643 -2.098604 -1.923731
H -0.392811 -1.920753 -1.009434
H 0.566432 -2.720732 -1.917725
O -2.459446 0.754042 0.381055
H -2.550288 1.133380 1.257378
H -3.124850 0.068158 0.298049
9
Structure 783 | Energy: -15.209552 Hartree
O 1.484209 -0.614521 -0.064143
H 1.426761 0.196591 -0.572943
H 1.219397 -0.405887 0.833881
O -1.450284 1.467609 1.247498
H -1.734253 1.279065 0.350893
H -0.516388 1.683337 1.210239
O -0.276198 -0.357015 -2.858330
H -1.160099 -0.568035 -2.551278
H -0.251567 0.587115 -3.025966
9
Structure 784 | Energy: -15.209534 Hartree
O 0.931646 1.160667 -2.060434
H 1.396509 0.704240 -2.764464
H 1.569016 1.333825 -1.364822
O 1.488413 -0.161333 1.136990
H 2.210071 -0.105808 0.507534
H 1.072038 -1.017091 1.016996
O -1.624540 0.157432 -0.267311
H -1.526458 -0.473557 0.448456
H -1.316146 -0.271191 -1.068102
9
Structure 785 | Energy: -15.209518 Hartree
O -0.015581 2.717036 -0.303232
H 0.840261 2.518617 -0.688259
H -0.496624 3.249907 -0.939428
O -0.029889 -1.602001 0.873969
H 0.560762 -2.282895 0.545939
H 0.077128 -1.567946 1.826584
O 1.521996 -0.486849 -2.051558
H 2.435882 -0.489017 -1.760185
H 1.212900 0.420268 -2.010477
9
Structure 786 | Energy: -15.209494 Hartree
O 0.206705 -2.240384 -0.802108
H -0.097255 -3.068304 -0.424963
H 0.017379 -1.550622 -0.162980
O 0.492652 1.468490 0.597388
H -0.303978 1.481419 1.131525
H 0.432460 0.707989 0.015921
O 1.672877 1.476507 -1.653317
H 2.367364 2.127195 -1.533379
H 1.631502 1.274596 -2.590125
9
Structure 787 | Energy: -15.209478 Hartree
O -0.937417 -1.909602 0.318453
H -0.941007 -1.208518 -0.336184
H -1.730104 -1.807119 0.848778
O 0.806000 1.879058 -1.270769
H 0.232546 2.492531 -0.807207
H 1.704206 2.060086 -0.986966
O 1.128431 -1.459405 2.062728
H 1.234838 -0.949336 2.868084
H 0.958138 -0.837203 1.352831
9
Structure 788 | Energy: -15.209457 Hartree
O 1.855908 -0.674388 -0.785186
H 1.706556 0.154686 -1.243893
H 1.939536 -0.471353 0.148561
O -0.029253 2.601611 0.253607
H 0.433530 2.001828 -0.334764
H 0.536589 3.365207 0.383346
O 0.149877 -1.634785 2.284927
H 0.288607 -2.566611 2.104524
H 0.759236 -1.144193 1.729868
9
Structure 789 | Energy: -15.209451 Hartree
O -1.153699 -1.511016 0.722270
H -1.746095 -1.853640 0.050140
H -0.973063 -0.595171 0.501594
O 1.811618 0.794251 -1.661850
H 1.326320 1.409638 -2.214908
H 2.448056 0.348163 -2.224024
O 0.394496 -0.286291 2.749679
H 1.320828 -0.491649 2.890490
H 0.030952 -0.018953 3.596117
9
Structure 790 | Energy: -15.209434 Hartree
O 0.990283 -1.329336 0.821724
H 1.099131 -0.472279 1.238480
H 1.854876 -1.743876 0.794606
O -0.616519 2.569333 -0.043719
H -0.261954 3.419762 0.223006
H -0.140652 1.896569 0.447226
O 0.195099 -0.262132 -2.895309
H 0.611976 0.600634 -2.939354
H 0.883399 -0.900459 -2.698148
9
Structure 791 | Energy: -15.209413 Hartree
O -1.773813 -1.852102 0.678526
H -0.934770 -2.280667 0.858583
H -2.402282 -2.173948 1.327789
O 0.223778 0.670809 -1.356472
H 1.101748 0.435286 -1.662718
H 0.328433 1.357105 -0.694556
O -1.645057 1.869789 -0.038073
H -1.882083 2.787187 0.111229
H -2.278874 1.510570 -0.662034
9
Structure 792 | Energy: -15.209408 Hartree
O 0.109465 2.428678 -0.584498
H 0.107048 3.383828 -0.672615
H -0.459947 2.210271 0.155886
O -0.609687 -0.982283 0.465156
H -1.443478 -0.509728 0.504809
H -0.758359 -1.852631 0.839961
O -1.409653 -0.565506 -2.285637
H -2.226380 -0.957711 -1.970637
H -0.702966 -1.183002 -2.087191
9
Structure 793 | Energy: -15.209382 Hartree
O 0.897633 1.681578 -0.198957
H 1.693721 2.170578 -0.416221
H 0.369604 1.628963 -0.998030
O 2.453933 -0.206373 1.361607
H 3.006551 0.342956 0.802197
H 1.926981 -0.761252 0.783231
O -0.969131 -0.380350 0.847996
H -1.416983 0.105658 1.543205
H -1.490870 -1.164987 0.668487
9
Structure 794 | Energy: -15.209361 Hartree
O 1.113590 -0.194709 2.081446
H 1.823847 0.449974 2.080490
H 1.072596 -0.570889 2.962870
O 0.904004 0.728222 -1.815513
H 0.953603 -0.183470 -1.521496
H 0.202479 0.778568 -2.467752
O -0.064426 2.790805 -0.201452
H 0.693974 2.688583 0.376882
H -0.325139 3.713289 -0.167650
9
Structure 795 | Energy: -15.209344 Hartree
O 0.149234 -0.255385 -1.274624
H 0.565904 -1.116871 -1.340266
H 0.032520 -0.066655 -0.341426
O -0.472945 1.194536 2.549486
H 0.069586 0.615534 3.088470
H -0.073154 1.228682 1.678229
O -2.393230 -0.409928 -0.061805
H -2.512217 0.492897 0.239590
H -1.826828 -0.849752 0.575246
9
Structure 796 | Energy: -15.209339 Hartree
O -1.649185 -1.335304 -1.094315
H -0.755806 -1.605818 -0.873456
H -1.665803 -0.376264 -1.086148
O -0.065472 1.648654 1.073255
H 0.645227 1.378967 1.658289
H -0.172137 0.956335 0.417965
O 0.430108 1.961766 -1.639350
H 0.048990 2.720104 -2.086300
H -0.147367 1.214157 -1.805764
9
Structure 797 | Energy: -15.209318 Hartree
O -1.312011 1.197738 -1.320496
H -2.224788 0.912695 -1.245196
H -1.154742 1.406213 -2.243483
O -1.644202 -1.185057 1.105322
H -2.297676 -1.824571 1.395291
H -1.983035 -0.314340 1.322425
O 0.717335 2.770863 -0.521928
H 1.533493 2.459283 -0.125827
H 0.104423 2.949872 0.193884
9
Structure 798 | Energy: -15.209311 Hartree
O 0.055815 -1.871014 -0.214819
H 0.704018 -2.571233 -0.116802
H 0.430593 -1.218165 -0.809319
O 0.760038 1.295577 2.282077
H 0.982341 1.381264 1.352923
H 0.271266 2.082504 2.530947
O -2.038761 1.746627 -1.065820
H -2.068688 2.620457 -0.671335
H -1.135568 1.432257 -0.991643
9
Structure 799 | Energy: -15.209291 Hartree
O 1.195840 0.182786 1.940087
H 1.905735 0.290505 2.576111
H 0.371728 0.186211 2.430931
O 0.958981 -0.785086 -1.179454
H 0.745452 -1.366053 -1.912237
H 0.623363 0.085913 -1.400383
O -1.240324 1.393717 0.831616
H -2.015192 1.958059 0.866089
H -0.500368 1.943134 0.565732
9
Structure 800 | Energy: -15.209286 Hartree
O -0.647828 0.228175 2.202707
H -0.000598 0.752416 2.678466
H -1.164868 -0.246544 2.856473
O 0.103286 -2.020287 -0.650110
H 1.040731 -1.817103 -0.648721
H -0.152879 -2.185589 0.259364
O -1.553392 -0.342007 -2.379062
H -2.096875 -0.068722 -1.637420
H -2.145800 -0.657677 -3.064259
9
Structure 801 | Energy: -15.209242 Hartree
O 1.721074 -1.594505 1.323830
H 2.671142 -1.644253 1.446209
H 1.396902 -0.897341 1.897393
O -0.458065 0.360521 -0.422087
H -0.730062 -0.518498 -0.151104
H -1.054791 0.640276 -1.119039
O 0.903088 2.390094 -0.476123
H 1.488950 1.834547 0.041780
H 0.475552 2.996460 0.131844
9
Structure 802 | Energy: -15.209241 Hartree
O -0.498625 1.270206 1.265308
H -1.316011 1.732574 1.069913
H 0.029708 1.276580 0.464731
O 0.551821 -0.198261 -2.242583
H 0.485244 0.525910 -2.868068
H 1.123370 -0.861051 -2.635176
O 0.302654 -1.422309 0.371940
H -0.343734 -1.962211 -0.087167
H 0.951618 -2.017734 0.751947
9
Structure 803 | Energy: -15.209213 Hartree
O 0.843850 2.141813 -0.069992
H 1.780027 2.090417 0.132523
H 0.701937 1.653536 -0.883347
O 0.780324 -0.410311 2.249072
H 1.421611 -0.856596 2.805552
H 1.106183 -0.455092 1.348018
O -1.928868 0.346404 -1.944098
H -2.443169 -0.444837 -2.115922
H -1.123125 0.071124 -1.502410
9
Structure 804 | Energy: -15.209179 Hartree
O -0.633789 0.467149 0.094196
H -1.323867 -0.084734 -0.279032
H 0.175356 0.271356 -0.382301
O -0.008229 1.887166 2.036228
H -0.632795 2.466329 2.477336
H 0.842183 2.330871 2.040076
O 2.674484 -0.079097 0.591255
H 2.125883 -0.353478 1.328712
H 2.221903 0.645175 0.154573
9
Structure 805 | Energy: -15.209126 Hartree
O -1.377343 1.343740 1.518153
H -1.540801 2.281499 1.399955
H -1.474415 1.154144 2.453423
O -1.090463 -1.841796 -0.557263
H -1.947368 -1.588702 -0.906182
H -1.179401 -1.905715 0.395676
O 1.399073 -1.029638 -2.110545
H 1.764295 -1.467576 -1.339238
H 2.113861 -0.543438 -2.526210
9
Structure 806 | Energy: -15.209118 Hartree
O -1.634812 1.064736 -1.738244
H -2.354840 1.661926 -1.526101
H -1.485477 0.514500 -0.966857
O 1.296834 -0.826328 1.763960
H 0.458795 -1.292749 1.748808
H 1.099328 0.112208 1.779108
O 0.823906 -1.279401 -0.822793
H 0.154680 -1.401880 -1.498978
H 0.783115 -0.362009 -0.545632
9
Structure 807 | Energy: -15.209111 Hartree
O -1.665474 0.920268 -0.646057
H -1.324957 1.311486 -1.452952
H -2.282121 0.231711 -0.902446
O 1.727934 0.397187 -1.899079
H 1.109329 1.017863 -1.508980
H 1.736699 0.560938 -2.844170
O 0.297606 -0.253973 1.672143
H -0.183046 -1.079675 1.757473
H 0.955753 -0.235011 2.369691
9
Structure 808 | Energy: -15.209110 Hartree
O 0.794275 1.773423 0.728953
H 1.676195 2.148968 0.764499
H 0.433923 1.976040 -0.136606
O 1.743755 -0.802656 -1.709137
H 2.573731 -0.416564 -1.995775
H 1.068528 -0.515501 -2.326955
O -1.654286 0.944102 1.922406
H -2.218665 1.487740 1.369209
H -1.133327 1.537684 2.466788
9
Structure 809 | Energy: -15.209102 Hartree
O 1.787150 0.532854 -2.103002
H 1.318324 0.353303 -2.920342
H 2.332982 -0.233059 -1.914468
O -1.529748 -0.247615 0.635201
H -2.187057 -0.545164 1.267259
H -1.875109 -0.430010 -0.240896
O -0.519172 2.127605 -0.769120
H -0.459149 2.120481 0.188187
H -1.405147 1.841800 -1.000323
9
Structure 810 | Energy: -15.209100 Hartree
O 0.297732 -0.500096 -1.357063
H -0.138635 -0.066331 -0.621187
H -0.153858 -0.224908 -2.157336
O -0.791917 1.708485 1.877769
H -1.725658 1.728386 1.659090
H -0.412831 0.946283 1.435695
O 2.378686 -0.413814 1.381171
H 1.488595 -0.061016 1.439160
H 2.308473 -1.306949 1.038435
9
Structure 811 | Energy: -15.209078 Hartree
O 0.135506 1.097220 -0.273849
H 0.583469 0.589880 0.405869
H -0.770350 1.222410 0.015724
O -2.252976 -0.069216 1.291851
H -2.178039 0.734865 1.809468
H -1.499540 -0.620334 1.512513
O -0.245317 -1.390821 -1.187953
H 0.376577 -1.337628 -1.916314
H 0.255271 -1.623215 -0.403417
9
Structure 812 | Energy: -15.209074 Hartree
O -2.154083 0.310996 -1.155635
H -1.619490 0.709372 -1.845264
H -2.912635 0.881925 -1.018744
O 0.753917 -1.259191 0.506630
H 0.883693 -1.634195 1.379910
H 0.911157 -1.959661 -0.129534
O -1.744383 -0.556528 2.158112
H -2.017231 0.334215 1.929592
H -2.541455 -1.065181 2.319476
9
Structure 813 | Energy: -15.209066 Hartree
O 0.376687 2.628387 -0.970176
H 1.301841 2.563698 -1.215099
H 0.000267 3.354511 -1.471326
O 1.300059 -0.255559 0.183932
H 2.154110 0.090894 0.449746
H 1.386997 -0.562171 -0.720788
O -1.093568 0.500578 -1.845972
H -2.047157 0.396854 -1.846698
H -0.730826 -0.211094 -1.314907
9
Structure 814 | Energy: -15.209044 Hartree
O -0.450223 -0.692743 -1.535744
H -1.097604 -0.105917 -1.931491
H -0.489555 -1.523154 -2.014252
O 1.980713 1.911049 0.835228
H 1.050937 1.793759 1.039794
H 2.031471 2.325691 -0.028244
O 2.168404 -0.806100 -0.089348
H 3.122840 -0.865715 -0.164110
H 1.905996 -1.361036 0.647725
9
Structure 815 | Energy: -15.209028 Hartree
O 0.729116 -2.150428 0.101990
H 0.192076 -2.641693 0.726752
H 0.129369 -1.666290 -0.468986
O -0.016895 2.438238 -0.914713
H -0.724762 1.849528 -0.645580
H -0.059508 2.515646 -1.869847
O 1.909298 1.141555 0.844318
H 2.650265 1.483256 1.348599
H 1.644787 0.314940 1.252769
9
Structure 816 | Energy: -15.209022 Hartree
O 0.755083 1.347944 1.662133
H 0.064119 1.908743 1.304145
H 0.461613 1.051981 2.526067
O 0.969325 -2.558813 -0.752921
H 0.197764 -2.050757 -1.011109
H 0.754153 -3.004233 0.068900
O 1.166220 1.047465 -1.865996
H 1.197921 0.315457 -2.485067
H 0.331005 1.498983 -2.002518
9
Structure 817 | Energy: -15.208987 Hartree
O -0.998053 -1.115576 0.065370
H -1.714710 -0.954411 -0.551486
H -0.176917 -1.003416 -0.417596
O 0.275277 -0.223113 2.695339
H 0.681533 0.202717 3.452778
H 0.934084 -0.252480 1.998778
O 0.642624 2.060663 -0.131828
H 0.378415 2.821002 0.389871
H 1.601218 2.027971 -0.120996
9
Structure 818 | Energy: -15.208942 Hartree
O -0.886569 -2.347803 -0.484477
H -0.345565 -1.609688 -0.771849
H -0.344563 -2.889633 0.092368
O 1.129079 0.309674 1.902089
H 1.845807 -0.144224 1.454468
H 1.449038 0.557579 2.771720
O -1.198204 1.988543 1.354912
H -2.088297 1.729714 1.601555
H -1.267226 2.521495 0.560376
9
Structure 819 | Energy: -15.208939 Hartree
O -0.394082 -1.846843 1.963876
H 0.455413 -2.231716 1.739572
H -1.015326 -2.570352 2.067273
O 0.484807 1.478654 -0.683813
H 0.821297 2.152051 -0.089339
H -0.146574 1.904420 -1.267052
O 2.367585 0.336142 0.418895
H 3.221979 -0.093791 0.491423
H 1.729899 -0.338220 0.176649
9
Structure 820 | Energy: -15.208878 Hartree
O -1.186936 -1.446712 0.683186
H -1.139327 -0.499839 0.828945
H -1.962129 -1.612354 0.143057
O -0.891040 2.606057 -0.129099
H -1.265811 1.992179 -0.763756
H -0.499654 2.084027 0.574030
O 1.317348 -0.803976 1.952599
H 1.685740 -1.453114 1.350105
H 1.003609 -0.069378 1.421540
9
Structure 821 | Energy: -15.208749 Hartree
O 0.108553 1.585560 1.913052
H 0.509730 2.360245 2.311802
H 0.693661 1.291639 1.212082
O 1.588373 -0.093808 -1.196202
H 2.194011 -0.803980 -0.974961
H 1.544594 0.489377 -0.435895
O -2.693406 -0.951531 -0.236679
H -2.418941 -1.623537 -0.863711
H -3.121202 -0.253894 -0.737063
9
Structure 822 | Energy: -15.208721 Hartree
O 0.497317 0.745208 -2.481272
H 1.303749 1.000537 -2.933550
H 0.288433 -0.149637 -2.756444
O 0.759686 -1.005897 0.802422
H 1.605044 -1.111940 0.361724
H 0.308456 -1.851209 0.758520
O -1.952951 0.739509 -0.094280
H -2.821559 0.526188 0.252281
H -1.477007 1.202966 0.597656
9
Structure 823 | Energy: -15.208720 Hartree
O 1.373848 -0.996047 -0.730327
H 2.255985 -0.840056 -1.073233
H 1.405258 -1.811224 -0.225747
O 1.603770 1.760655 0.824879
H 2.109409 2.430416 1.289462
H 0.694577 1.834466 1.121540
O -1.982802 -1.327349 -1.478155
H -2.081321 -2.132809 -0.966668
H -1.758653 -1.585585 -2.374348
9
Structure 824 | Energy: -15.208707 Hartree
O 0.881495 -1.715848 1.700722
H 0.829381 -2.619977 1.384628
H 1.228866 -1.746904 2.594292
O 0.876939 0.903650 -0.072081
H 1.445757 0.132777 -0.119927
H 1.265056 1.578284 -0.632726
O -1.939825 0.992899 -1.657863
H -2.422474 1.118951 -2.477163
H -2.556759 0.633874 -1.017094
9
Structure 825 | Energy: -15.208674 Hartree
O 2.207543 0.337499 0.921833
H 1.900944 0.387380 1.829352
H 2.964561 0.921586 0.845240
O -0.232210 -0.683223 -0.897221
H 0.214110 -1.529671 -0.830784
H -1.171404 -0.862555 -0.973656
O -2.185312 -0.849247 1.572936
H -1.571058 -1.537026 1.837024
H -3.044721 -1.261657 1.466052
9
Structure 826 | Energy: -15.208639 Hartree
O 0.465828 -2.257459 -0.476373
H 1.321499 -2.333561 -0.049621
H 0.562671 -2.594592 -1.369157
O 1.280113 1.315037 1.197389
H 1.486476 1.316148 2.134139
H 0.423071 0.896406 1.095828
O -1.146598 -0.527459 -1.072875
H -2.086338 -0.716681 -1.038612
H -0.823851 -0.526791 -0.169590
9
Structure 827 | Energy: -15.208592 Hartree
O 0.278739 -2.472270 0.437238
H -0.592551 -2.138631 0.659996
H 0.182050 -3.404200 0.231670
O -1.018473 0.748339 -1.025329
H -1.916256 1.062231 -1.150013
H -0.432842 1.490028 -1.189710
O -0.924494 2.069501 1.642235
H -1.869123 2.232665 1.608401
H -0.485639 2.908873 1.490742
9
Structure 828 | Energy: -15.208573 Hartree
O -0.265676 0.586663 -0.628064
H 0.516457 0.719319 -1.167278
H -0.802647 -0.077319 -1.064975
O 0.332321 -2.663870 0.110928
H 1.242254 -2.621499 -0.189596
H -0.125950 -1.909003 -0.263574
O -1.395345 1.175471 1.922879
H -1.602977 1.187939 2.859268
H -1.285481 2.086687 1.644122
9
Structure 829 | Energy: -15.208559 Hartree
O 0.733549 0.029433 0.113133
H 1.221307 -0.624336 -0.391604
H 0.387081 0.669830 -0.511327
O -1.748257 0.640934 1.539719
H -1.577316 0.322952 2.428401
H -2.678815 0.493770 1.359464
O -1.893270 -1.114765 -0.654189
H -1.264171 -1.788187 -0.388055
H -2.545353 -1.042766 0.045593
9
Structure 830 | Energy: -15.208551 Hartree
O -0.507893 -2.441061 0.140673
H -1.235036 -2.242213 -0.452458
H -0.749622 -2.109306 1.007625
O -1.452726 1.006221 -0.440752
H -2.338407 0.658548 -0.562325
H -1.409321 1.369236 0.446054
O 1.778300 0.410008 -1.910192
H 2.646317 0.783620 -1.745717
H 1.894228 -0.318940 -2.522797
9
Structure 831 | Energy: -15.208504 Hartree
O -0.167324 2.176240 0.540455
H 0.678814 2.541449 0.806452
H -0.603113 2.835652 -0.003018
O 0.806783 -1.348450 -2.129280
H 1.615050 -0.920960 -1.839375
H 0.120996 -1.115724 -1.500294
O 0.286962 -0.212492 1.497096
H 1.073112 -0.573926 1.083062
H -0.326551 -0.938790 1.624310
9
Structure 832 | Energy: -15.208499 Hartree
O 1.777642 -0.097864 -2.183975
H 1.039385 0.507247 -2.278311
H 1.532383 -0.743624 -1.518437
O -0.493724 0.672053 1.678009
H -0.988143 0.172479 1.025274
H 0.434110 0.604700 1.444183
O 0.672446 2.479511 0.203459
H -0.086722 2.962384 -0.129089
H 1.018095 1.957953 -0.523585
9
Structure 833 | Energy: -15.208480 Hartree
O -0.161032 -0.602470 1.580524
H 0.242558 -1.442091 1.809071
H -0.962567 -0.796573 1.090661
O -0.985951 0.794155 -2.175487
H -1.500038 0.933648 -2.973200
H -1.384733 1.325967 -1.483940
O 1.927556 0.041047 -0.066499
H 2.374574 0.483998 0.657421
H 2.569142 -0.070561 -0.770773
9
Structure 834 | Energy: -15.208476 Hartree
O 1.289486 -2.012822 1.597914
H 1.591495 -2.791460 1.126112
H 0.345608 -2.112898 1.736402
O -0.740089 1.256871 -0.294196
H -1.637744 1.546529 -0.119834
H -0.597574 1.327307 -1.240143
O 1.817204 -0.011278 -1.263770
H 1.537243 -0.860331 -0.916176
H 1.565562 0.013812 -2.189047
9
Structure 835 | Energy: -15.208420 Hartree
O -0.497887 -0.276643 -1.570066
H -0.850404 -0.080540 -0.699803
H 0.016180 -1.082829 -1.493266
O 0.736466 0.355213 2.759657
H 1.368580 0.928120 2.321138
H -0.121061 0.781026 2.701189
O 0.536909 2.204798 -0.071618
H 0.849756 2.858354 0.556938
H -0.116007 1.666273 0.379804
9
Structure 836 | Energy: -15.208366 Hartree
O 1.140940 -0.696594 2.523341
H 1.799973 -0.464432 1.866182
H 0.406569 -1.102143 2.058229
O -0.090426 1.338039 -0.690955
H -0.399496 1.886885 0.032462
H -0.831632 0.800106 -0.976137
O 0.468262 -0.756700 -1.739113
H 0.199834 -1.668335 -1.608882
H 1.028544 -0.733963 -2.517353
9
Structure 837 | Energy: -15.208337 Hartree
O 1.209106 -2.092362 -0.677961
H 0.945934 -2.766325 -1.307720
H 0.418937 -1.818569 -0.208100
O -1.781920 0.650087 0.607203
H -2.217759 -0.096691 1.022479
H -0.837484 0.488279 0.651326
O 2.007353 1.237283 1.404286
H 1.157118 0.888213 1.129801
H 2.210217 0.851755 2.258864
9
Structure 838 | Energy: -15.208316 Hartree
O 1.647412 -2.043029 0.142398
H 1.651928 -1.250884 -0.398497
H 2.185152 -2.697458 -0.307778
O -0.497847 -1.673259 1.177069
H 0.153210 -1.333426 1.794100
H -0.237386 -1.382891 0.300751
O -0.762060 0.669738 -2.490000
H -0.514646 0.201794 -3.289942
H -1.558229 1.167259 -2.686664
9
Structure 839 | Energy: -15.208311 Hartree
O -0.334724 1.786804 0.235040
H 0.118270 2.496858 0.694063
H -0.320743 1.020916 0.812379
O 2.440324 -1.074541 -0.106678
H 3.108660 -0.958745 -0.784916
H 2.887357 -1.040737 0.741323
O -1.120735 -1.111373 -1.584746
H -1.816488 -1.484471 -1.039937
H -1.325865 -1.329294 -2.496076
9
Structure 840 | Energy: -15.208293 Hartree
O 1.632093 0.821166 -0.736551
H 2.469442 0.831857 -1.204327
H 1.039838 1.416112 -1.200634
O -1.111101 -1.237887 2.309868
H -1.229127 -0.564105 1.637427
H -1.701498 -1.962107 2.093016
O 1.053339 -2.413041 -0.548487
H 0.145443 -2.690516 -0.685685
H 1.445237 -2.285101 -1.414592
9
Structure 841 | Energy: -15.208250 Hartree
O 2.433359 1.138789 -1.079725
H 1.770435 0.734248 -0.516732
H 2.977605 1.697499 -0.521389
O -0.444012 -0.842242 1.097073
H -1.019585 -0.405626 0.466065
H 0.459350 -0.657336 0.832808
O 0.130450 -0.934653 -2.624710
H -0.057722 -0.333398 -1.901402
H 0.354677 -1.783209 -2.237715
9
Structure 842 | Energy: -15.208247 Hartree
O -0.651502 0.519485 -0.312692
H -0.549728 1.158317 -1.020941
H -0.963614 -0.296469 -0.708805
O 0.637017 -0.524013 2.349565
H 0.859043 -0.040683 3.147803
H 1.312031 -0.322580 1.698513
O -0.538857 -1.933934 0.505347
H -1.079550 -2.643575 0.857699
H 0.362764 -2.095596 0.790013
9
Structure 843 | Energy: -15.208212 Hartree
O -1.896656 1.284941 -0.747930
H -2.265616 1.172184 -1.626130
H -1.381896 2.094276 -0.757845
O -0.151227 -0.401596 1.821227
H 0.369807 0.233282 1.325705
H 0.265031 -1.258678 1.710650
O 0.796568 0.459219 -1.482280
H 1.232910 0.663287 -2.311770
H 1.412327 0.670692 -0.777858
9
Structure 844 | Energy: -15.208166 Hartree
O 0.477746 2.725375 -0.584927
H -0.199975 2.814706 0.087975
H 0.607144 1.786836 -0.734933
O 0.494587 -0.628205 0.644327
H -0.023875 -0.110859 0.024942
H 0.949714 -0.010084 1.219543
O 1.810616 -0.777695 -1.490760
H 1.279562 -1.025553 -2.250128
H 2.595085 -0.337752 -1.824148
9
Structure 845 | Energy: -15.208135 Hartree
O 1.047410 -2.252172 -1.165385
H 1.796489 -2.845329 -1.249812
H 0.292288 -2.783443 -0.905306
O -0.941450 1.904409 0.458162
H -0.588904 2.685030 0.889939
H -1.553168 2.204967 -0.216786
O 0.744816 1.013172 2.180042
H 1.369171 0.293444 2.290779
H -0.028498 0.801958 2.706791
9
Structure 846 | Energy: -15.208071 Hartree
O 0.054485 -1.901416 -1.327061
H -0.319619 -2.781885 -1.257051
H -0.103040 -1.458533 -0.490915
O 0.515276 0.784095 2.709773
H 0.604868 1.688671 3.016048
H 1.236163 0.618249 2.099113
O -0.392249 0.410640 -2.642111
H -1.209829 0.520386 -2.152612
H -0.357492 1.110146 -3.297530
9
Structure 847 | Energy: -15.208038 Hartree
O 0.515789 0.700695 -2.246756
H 1.361376 0.737019 -2.698137
H 0.561771 -0.019568 -1.614928
O -0.876756 0.546888 -0.078229
H -0.234384 0.277324 0.581151
H -1.305411 1.339636 0.250243
O -0.698029 -0.780336 2.538013
H 0.220599 -0.988775 2.719028
H -0.884412 0.064753 2.951745
9
Structure 848 | Energy: -15.208025 Hartree
O -1.427896 -1.875003 -0.240402
H -1.100350 -2.677017 -0.652189
H -0.860107 -1.156642 -0.526189
O 1.347175 1.614905 0.472666
H 1.316486 0.656423 0.494109
H 1.443290 1.875554 -0.445436
O -0.420724 1.303408 2.314200
H 0.364806 0.820133 2.577790
H -0.518767 2.039209 2.921715
9
Structure 849 | Energy: -15.208023 Hartree
O -0.190388 -2.113840 1.686227
H -0.972740 -2.452670 1.246681
H -0.242244 -2.382560 2.605575
O 0.259089 0.122134 -1.193404
H -0.530551 -0.062766 -1.705624
H 0.532549 1.016638 -1.405939
O -1.436007 1.905496 -0.101996
H -1.962791 1.995607 0.694540
H -1.010708 2.750916 -0.258443
9
Structure 850 | Energy: -15.207987 Hartree
O -0.534908 -1.267400 -2.172684
H 0.215912 -0.676886 -2.260115
H -0.337596 -2.055258 -2.683025
O -0.892674 1.924792 0.827256
H -1.120657 2.065889 1.748236
H -1.714888 1.830425 0.342337
O 0.687194 -0.790511 -0.056884
H 0.232426 -1.517045 0.373726
H 1.513456 -0.655250 0.411181
9
Structure 851 | Energy: -15.207968 Hartree
O 0.724212 -1.396658 0.348099
H 0.702539 -1.536752 -0.600576
H 0.402338 -0.507940 0.511430
O -0.615011 -1.119526 2.172083
H -0.839362 -0.976565 3.093667
H -0.371400 -2.042599 2.078931
O -0.949718 0.341402 -1.792842
H -1.076957 -0.524150 -1.399494
H -0.182067 0.734257 -1.372762
9
Structure 852 | Energy: -15.207958 Hartree
O 1.917853 -1.290803 -0.639495
H 2.632734 -0.991898 -1.204901
H 2.315487 -1.640351 0.160382
O -1.658815 0.383648 0.614437
H -1.572839 0.735990 1.502441
H -1.983838 1.093657 0.057360
O 0.133761 1.984409 1.855938
H 1.073719 1.928085 2.038686
H -0.326769 1.800948 2.677123
9
Structure 853 | Energy: -15.207891 Hartree
O -0.295415 2.376391 0.459740
H 0.410832 1.996454 -0.066515
H -0.465709 3.255024 0.114626
O -0.380921 -0.639773 -0.993940
H 0.216091 -1.385245 -1.083034
H 0.014149 -0.033092 -0.364698
O 0.183300 0.379482 1.852268
H -0.246794 -0.420608 2.160434
H 1.123507 0.275997 2.011615
9
Structure 854 | Energy: -15.207844 Hartree
O 1.138293 -0.231761 -0.679530
H 1.425319 -0.279982 -1.593517
H 0.626641 0.574032 -0.584602
O -1.240323 -1.854418 -1.331665
H -1.368785 -1.002011 -0.910964
H -2.000741 -2.396629 -1.112896
O -0.650992 1.343240 1.602888
H -0.166617 1.901983 0.991922
H -1.223734 0.779479 1.079218
9
Structure 855 | Energy: -15.207789 Hartree
O 0.777066 1.852578 -2.036370
H 1.426221 1.445019 -2.613063
H 1.082353 1.732038 -1.135055
O 1.111079 -0.094981 1.157907
H 1.739778 0.081678 1.860487
H 1.499734 0.225680 0.341688
O -2.359492 -0.067178 0.159592
H -3.101330 0.279326 -0.340109
H -2.717595 -0.648099 0.833672
9
Structure 856 | Energy: -15.207712 Hartree
O 0.160276 1.599906 -1.546376
H -0.646784 2.117740 -1.522214
H 0.318616 1.363240 -2.462355
O -0.970104 -2.056549 0.719786
H -0.554820 -2.919653 0.668026
H -0.642960 -1.631142 1.514829
O 1.878590 -0.368609 -0.775884
H 1.252582 -0.933532 -1.233123
H 2.499407 -0.941753 -0.321810
9
Structure 857 | Energy: -15.207700 Hartree
O 0.381849 0.254226 1.099617
H -0.167604 1.022581 0.932840
H 1.051646 0.516332 1.734261
O 2.472960 -1.483352 -0.183786
H 3.148687 -1.084373 -0.735418
H 2.236572 -0.839183 0.486480
O -0.720191 -0.258241 -1.741254
H -0.629751 0.464817 -1.117475
H -1.658252 -0.381537 -1.899141
9
Structure 858 | Energy: -15.207693 Hartree
O -0.398692 -0.517626 0.630918
H -1.148463 -1.054377 0.895160
H -0.452587 -0.402775 -0.319873
O 2.278838 -1.341048 1.030484
H 1.882138 -2.138738 0.674945
H 3.212470 -1.366361 0.811901
O -0.665490 2.126002 -0.581437
H 0.063501 2.544274 -0.119148
H -0.309833 1.744386 -1.386401
9
Structure 859 | Energy: -15.207651 Hartree
O -1.638457 -0.917144 0.324241
H -1.577744 -0.134042 -0.226346
H -1.703075 -1.672901 -0.262918
O 0.250157 -0.979993 2.183942
H 0.333554 -0.043580 2.374371
H 1.061535 -1.255559 1.752877
O 2.217535 -1.053221 -1.462462
H 2.795142 -1.451609 -2.116487
H 1.410434 -0.798422 -1.913855
9
Structure 860 | Energy: -15.207630 Hartree
O -1.593859 -0.065599 2.283561
H -1.610515 -0.888391 2.776327
H -2.463273 0.050669 1.895360
O 0.441403 1.641549 -0.557714
H 0.199349 1.981627 -1.421337
H 1.185495 1.049525 -0.683903
O 1.386246 -1.344750 1.025112
H 1.147398 -1.346116 0.096112
H 1.042871 -2.154484 1.407884
9
Structure 861 | Energy: -15.207614 Hartree
O -1.037649 0.581143 0.257291
H -1.436068 -0.289851 0.205198
H -0.767368 0.823445 -0.630593
O -1.070519 -2.722430 -0.460998
H -1.632086 -2.060006 -0.868338
H -0.513608 -2.270120 0.175676
O 1.029417 1.568968 1.693393
H 1.907103 1.610074 1.308597
H 0.829754 0.643461 1.847216
9
Structure 862 | Energy: -15.207579 Hartree
O -1.917733 0.039678 0.391526
H -2.804671 -0.026548 0.032308
H -1.891185 0.826569 0.939429
O -1.365025 -1.239579 -1.525435
H -0.980064 -1.609643 -2.322270
H -0.686147 -0.711484 -1.100783
O 1.598574 0.643335 1.998315
H 1.887684 0.893874 2.877938
H 0.908910 1.257996 1.740157
9
Structure 863 | Energy: -15.207547 Hartree
O -1.822475 -1.440693 -1.099337
H -1.663332 -1.745093 -1.994935
H -2.265903 -2.151559 -0.632281
O -0.057853 0.863311 0.305778
H -0.499243 1.247011 1.066065
H -0.510837 1.183059 -0.476945
O 2.214154 0.199064 1.515461
H 2.530793 0.194455 0.610028
H 2.980697 0.108439 2.084924
9
Structure 864 | Energy: -15.207546 Hartree
O 0.792072 -1.149010 1.980403
H 1.710902 -1.254301 2.234858
H 0.568135 -1.888641 1.412161
O 0.470459 1.401435 -0.752863
H 1.356273 1.769320 -0.743776
H -0.004732 1.822757 -1.471730
O -2.554057 -0.005290 -0.294711
H -2.284810 -0.672674 -0.928902
H -3.286614 -0.368878 0.206540
9
Structure 865 | Energy: -15.207387 Hartree
O -0.510521 -1.263621 0.420856
H -0.980058 -0.804635 1.120105
H -0.751236 -2.190392 0.477881
O -2.282858 1.224203 -0.455313
H -3.091516 1.702273 -0.649244
H -2.078270 1.375508 0.469532
O 1.636770 -0.861393 1.764078
H 1.657375 -1.422906 0.986666
H 1.287075 -1.387908 2.485594
9
Structure 866 | Energy: -15.207322 Hartree
O -0.211602 -2.178748 0.267295
H -0.524961 -2.183332 -0.639273
H 0.618472 -2.659183 0.283364
O 0.613241 2.008220 -1.495484
H 1.201193 2.121214 -0.746062
H 0.919250 1.241209 -1.983481
O 0.552062 -0.766522 2.682399
H 0.662227 0.120970 2.335539
H 1.329677 -0.964690 3.207883
9
Structure 867 | Energy: -15.207279 Hartree
O -1.091501 0.303728 -0.392455
H -0.224634 0.708825 -0.459679
H -0.992402 -0.494136 0.130700
O 1.895420 -1.085726 0.514649
H 1.295051 -0.490220 0.967438
H 1.970422 -1.876498 1.052369
O -0.043393 -2.117388 -1.101020
H -0.998886 -2.146205 -1.180351
H 0.184360 -2.523014 -0.262161
9
Structure 868 | Energy: -15.207252 Hartree
O 0.880793 1.040621 -0.275701
H 0.140185 1.152165 0.323580
H 1.488637 1.764826 -0.113977
O 0.133021 -0.271622 2.406932
H -0.428323 -0.994935 2.120924
H -0.408297 0.314719 2.939160
O -0.719766 2.353640 -1.388076
H 0.104429 2.633622 -1.791068
H -1.299840 2.068139 -2.096661
9
Structure 869 | Energy: -15.207177 Hartree
O 2.312847 0.971675 -0.148917
H 1.756607 1.523163 -0.702577
H 1.856480 0.856378 0.686867
O 0.267268 -0.101445 2.053879
H -0.674852 0.051625 2.149098
H 0.718172 0.589057 2.543757
O -0.239252 0.499706 -0.445882
H -0.795186 -0.105997 0.048237
H -0.645294 1.367005 -0.391000
9
Structure 870 | Energy: -15.207159 Hartree
O -0.978730 2.027942 -1.220821
H -1.930041 2.131660 -1.155012
H -0.634768 2.820324 -1.637859
O -0.263317 -1.433544 1.511699
H -0.131242 -2.198501 2.075158
H 0.581575 -0.985320 1.438613
O -1.666420 -0.529045 -2.031153
H -2.307177 0.145271 -1.797016
H -1.193152 -0.215013 -2.804128
9
Structure 871 | Energy: -15.207117 Hartree
O 0.143376 1.079422 -0.274748
H -0.241762 0.208049 -0.163128
H 0.747581 1.029845 -1.018105
O -1.744403 -1.010974 1.045088
H -1.934176 -1.710113 0.416376
H -0.854263 -1.156451 1.371547
O 2.477870 1.163736 0.239337
H 1.804694 1.303310 0.908250
H 2.730090 0.239117 0.278754
9
Structure 872 | Energy: -15.207080 Hartree
O -1.599637 1.143812 -0.049977
H -0.914092 0.862695 0.559188
H -2.431037 0.794932 0.277373
O 2.032780 0.636806 1.627234
H 2.416661 -0.238606 1.547366
H 1.102422 0.521545 1.830301
O 1.256075 -0.463777 -1.198426
H 1.771002 -1.246473 -1.404168
H 0.462788 -0.756581 -0.745601
9
Structure 873 | Energy: -15.207042 Hartree
O 0.180215 -2.630994 -0.201050
H -0.695565 -2.947860 -0.430586
H 0.328278 -2.848513 0.721372
O 0.630091 0.924912 0.361538
H -0.155798 1.435464 0.565999
H 0.674639 0.206095 0.995105
O -0.130381 -0.525908 -2.059421
H 0.709408 -0.338310 -2.483277
H -0.799602 -0.011148 -2.514675
9
Structure 874 | Energy: -15.207009 Hartree
O 2.139102 -0.115549 0.513521
H 2.986687 0.212072 0.206363
H 2.314901 -0.862778 1.088710
O -1.425550 -0.238371 1.988286
H -0.842095 -0.789257 2.513827
H -1.411430 0.639566 2.374441
O -1.063795 0.841883 -1.048615
H -1.351881 1.149260 -1.910367
H -1.362620 1.485316 -0.403024
9
Structure 875 | Energy: -15.206960 Hartree
O -1.320992 1.401555 0.621633
H -1.910904 1.887796 0.042276
H -1.716674 1.402277 1.495438
O -2.004220 -1.416870 -0.863442
H -2.205616 -2.151453 -1.446466
H -1.063269 -1.245667 -0.936856
O 0.515831 1.329707 2.388451
H 0.306148 0.415129 2.587628
H 0.060785 1.872776 3.035057
9
Structure 876 | Energy: -15.206845 Hartree
O 0.756151 1.563069 1.797191
H 0.447773 0.737209 2.175264
H 1.007561 2.133038 2.526594
O -1.282028 -0.314368 -1.389314
H -2.084097 -0.294207 -1.915021
H -1.245051 -1.171506 -0.960320
O 2.501229 -0.688874 -1.002173
H 2.857539 -1.552648 -0.785311
H 3.144803 -0.248102 -1.560404
9
Structure 877 | Energy: -15.206836 Hartree
O -0.243659 -0.617338 1.812407
H -0.331995 0.285246 2.124849
H -0.033554 -0.575008 0.877440
O -2.230564 0.148522 -0.993643
H -2.487295 0.613308 -0.194798
H -1.314106 -0.113995 -0.887449
O 2.648676 -0.521675 0.489697
H 1.922244 -0.808799 -0.067033
H 2.517189 0.411313 0.669512
9
Structure 878 | Energy: -15.206810 Hartree
O 1.207611 -0.268505 2.138361
H 0.745736 -1.013133 2.528594
H 2.049478 -0.187600 2.590925
O 1.008185 1.549114 -0.604854
H 1.916324 1.335042 -0.827445
H 1.033952 2.242104 0.057859
O -1.469341 0.894356 -2.021182
H -1.702797 1.605079 -1.420797
H -2.196660 0.793438 -2.638364
9
Structure 879 | Energy: -15.206784 Hartree
O -0.159157 -2.423417 -0.217794
H 0.357254 -2.965465 0.381860
H 0.409668 -2.195056 -0.955621
O 1.731406 1.311343 0.323097
H 2.260634 0.512922 0.373379
H 1.054198 1.161979 -0.339601
O -0.197099 2.183222 1.685367
H -0.311413 1.349231 2.145239
H -0.610188 2.862493 2.222059
9
Structure 880 | Energy: -15.206727 Hartree
O 2.471758 -0.754307 1.118932
H 3.243365 -0.192608 1.023019
H 1.905455 -0.590681 0.362211
O -0.251771 0.600493 -1.681343
H 0.269397 0.287036 -0.939577
H -0.331856 -0.127967 -2.300228
O -0.027081 -1.578053 1.221257
H -0.781086 -1.629215 0.630537
H 0.152406 -0.648059 1.372868
9
Structure 881 | Energy: -15.206723 Hartree
O 0.671627 1.618274 -0.345947
H 1.470010 2.049956 -0.656295
H -0.069077 2.042132 -0.783899
O -1.434125 -0.803753 1.691421
H -1.113171 -1.484277 1.096472
H -1.758691 -1.244909 2.478902
O 2.132419 -1.015006 -0.879317
H 2.052208 -1.136775 -1.827383
H 2.435219 -1.847165 -0.510652
9
Structure 882 | Energy: -15.206721 Hartree
O 1.688291 0.132922 -2.146479
H 1.850036 -0.151069 -3.048293
H 0.738099 0.134317 -2.015198
O -1.074889 -0.880417 1.533983
H -1.532291 -0.530454 2.301054
H -1.561173 -0.594275 0.758265
O 1.611007 -1.609252 1.169998
H 2.094520 -2.272032 0.672978
H 1.663895 -1.853944 2.095967
9
Structure 883 | Energy: -15.206658 Hartree
O 1.575352 -0.538234 1.666225
H 2.104403 0.233900 1.456476
H 2.173375 -1.210639 1.998400
O -0.668605 -2.074744 0.406966
H -0.231889 -2.805707 0.848622
H -0.406671 -2.102787 -0.515364
O -1.985437 0.451352 -1.975746
H -1.672959 0.293331 -2.868762
H -2.264107 1.368070 -1.930355
9
Structure 884 | Energy: -15.206646 Hartree
O -2.041986 -1.026042 1.646525
H -1.256287 -1.562501 1.524172
H -2.078631 -0.405231 0.916217
O 1.591451 -0.003855 -0.869352
H 2.151851 0.376603 -0.190168
H 0.684016 0.084533 -0.571296
O -0.013166 -1.739325 -1.302707
H -0.948812 -1.593681 -1.455824
H 0.159762 -2.668914 -1.464110
9
Structure 885 | Energy: -15.206616 Hartree
O 2.386441 1.620049 -0.014946
H 1.511191 1.328022 0.247237
H 2.791615 2.028042 0.752827
O 0.013710 -0.490370 -0.993765
H -0.677457 -0.400679 -0.334726
H 0.843647 -0.589911 -0.523249
O -0.625750 1.845152 -1.844708
H -1.269207 2.422741 -1.429443
H 0.225251 2.033499 -1.444193
9
Structure 886 | Energy: -15.206600 Hartree
O -1.067053 -0.193868 1.925570
H -0.982040 0.735605 2.146783
H -0.285701 -0.638193 2.260480
O -0.289134 2.609088 -0.803631
H 0.239920 3.382839 -1.007347
H -0.200583 2.444093 0.137126
O 0.814198 -2.182359 0.197955
H 0.953233 -3.015937 0.651726
H 1.178474 -1.491550 0.754889
9
Structure 887 | Energy: -15.206519 Hartree
O 1.833274 1.089675 -1.617607
H 1.472233 1.847600 -2.081590
H 1.993925 0.406444 -2.271432
O -1.217288 -0.422141 0.066315
H -1.861069 -0.818193 0.656890
H -1.275327 -0.887545 -0.770416
O 1.514789 -1.506535 1.309341
H 1.658221 -2.079844 0.553804
H 2.325658 -1.503695 1.821759
9
Structure 888 | Energy: -15.206491 Hartree
O 1.045567 -0.348958 0.526048
H 1.319930 -0.279683 1.442568
H 1.803077 -0.658134 0.025360
O 0.433341 0.986758 -2.259310
H 0.325101 0.893902 -3.207862
H -0.405259 0.757600 -1.853941
O 0.851073 -2.506977 -0.709670
H 0.542104 -3.365630 -0.414132
H 1.410534 -2.654300 -1.474778
9
Structure 889 | Energy: -15.206468 Hartree
O -0.302484 -0.534146 1.030638
H -1.202004 -0.477418 1.358855
H -0.354006 -0.662343 0.081422
O -0.213008 2.609347 -1.063447
H -0.384691 3.452812 -1.486743
H 0.042044 1.992515 -1.752326
O 1.441589 1.345548 1.727253
H 1.957696 0.572441 1.963958
H 1.284490 1.840115 2.533983
9
Structure 890 | Energy: -15.206436 Hartree
O 0.535494 0.994128 -0.267941
H 1.390562 1.363349 -0.497323
H 0.523369 0.875537 0.683841
O -1.166196 -1.716381 1.467099
H -1.112896 -2.671330 1.394169
H -2.019118 -1.508174 1.853445
O -0.371877 0.537783 -2.754360
H -1.248830 0.206765 -2.958005
H 0.258999 -0.070894 -3.143716
9
Structure 891 | Energy: -15.206400 Hartree
O 0.412222 -1.491316 -1.111088
H -0.012636 -1.479492 -0.251182
H 0.035202 -2.222631 -1.604175
O 1.648944 1.071005 1.534034
H 0.999797 1.287634 0.861897
H 1.448172 0.187326 1.848501
O 2.315108 -1.256908 0.346673
H 2.881778 -1.546497 1.064387
H 2.220003 -1.996742 -0.256394
9
Structure 892 | Energy: -15.206342 Hartree
O 1.305888 0.893124 -2.208693
H 2.050301 1.456754 -2.428358
H 0.682110 0.950430 -2.935134
O 0.469302 -0.520763 1.238736
H 0.815836 -1.411464 1.320320
H -0.411738 -0.522900 1.618013
O -1.970048 0.219901 -0.369390
H -2.820788 -0.218113 -0.302496
H -1.830395 0.696090 0.451482
9
Structure 893 | Energy: -15.206321 Hartree
O -0.500299 2.292234 -0.614078
H -0.937631 1.687329 -0.011655
H -0.382922 3.122218 -0.147763
O 1.547213 -0.821631 1.053439
H 1.468386 0.113270 1.253027
H 2.129445 -1.204677 1.712506
O 0.395102 0.222658 -1.703492
H 1.215344 -0.157510 -2.024062
H -0.255194 0.125197 -2.401852
9
Structure 894 | Energy: -15.206259 Hartree
O -1.651311 0.722452 -0.121406
H -2.494903 0.431714 -0.473408
H -1.728088 0.724800 0.834732
O 1.648535 -2.247519 0.158555
H 0.985195 -2.783536 -0.280483
H 2.155685 -2.831501 0.725876
O 0.186836 0.987831 -2.112713
H 1.113690 1.190912 -1.972036
H -0.211579 1.753872 -2.530488
9
Structure 895 | Energy: -15.206208 Hartree
O -0.590494 0.078153 2.346437
H -1.516492 0.017968 2.103565
H -0.511465 0.782856 2.992385
O 0.315851 -1.321581 -1.775857
H -0.342503 -0.679047 -2.047534
H 0.061226 -1.639298 -0.907347
O 1.074975 0.539902 0.562287
H 1.328382 1.002591 1.363408
H 0.145667 0.722770 0.410508
9
Structure 896 | Energy: -15.206112 Hartree
O -0.339342 1.057051 -0.042912
H -0.336738 1.944622 0.320809
H 0.504789 0.926435 -0.479354
O 0.924927 -2.520836 0.934758
H 1.396810 -3.333539 1.126927
H 1.557452 -1.908285 0.554258
O -0.103797 -0.302649 2.197693
H -0.699508 0.423548 2.003124
H -0.387739 -0.688073 3.028907
9
Structure 897 | Energy: -15.206042 Hartree
O -1.690353 -0.671613 -0.493604
H -2.325782 -1.353250 -0.266268
H -1.711888 -0.017818 0.207958
O -0.136305 2.683928 0.335293
H -1.032532 2.659142 -0.005664
H -0.048004 3.492632 0.843515
O 0.439018 -0.882848 -2.226986
H 1.135852 -1.389192 -2.649041
H 0.154020 -0.214738 -2.853481
9
Structure 898 | Energy: -15.206032 Hartree
O 0.892037 -2.439806 0.384311
H 0.296665 -3.017397 0.865977
H 1.586639 -2.990156 0.017238
O 0.444672 0.191433 -1.046460
H 1.155745 0.265350 -1.685992
H 0.836753 -0.087738 -0.216747
O -2.141906 0.432908 -0.647660
H -2.358678 0.277746 0.273766
H -2.958259 0.365506 -1.146773
9
Structure 899 | Energy: -15.206010 Hartree
O -1.813347 -1.727857 -1.142837
H -1.250575 -2.474545 -0.928762
H -1.841901 -1.162461 -0.368491
O -0.963781 1.497767 0.641571
H -0.477850 2.232026 1.022128
H -1.858910 1.541892 0.983455
O 0.449076 -0.280137 -0.425942
H 0.698495 0.241238 0.339596
H 0.807043 -1.160901 -0.298646
9
Structure 900 | Energy: -15.205985 Hartree
O 2.191069 0.725232 0.855258
H 2.725461 1.500729 0.673292
H 2.647386 0.217555 1.529156
O -1.485663 -1.074971 -0.318877
H -0.712125 -0.822827 -0.826963
H -2.175532 -0.438687 -0.517150
O -0.759248 0.481958 1.151657
H 0.132068 0.128102 1.172477
H -0.691473 1.430207 1.279405
9
Structure 901 | Energy: -15.205848 Hartree
O 1.403415 -2.255330 -0.442852
H 2.255068 -2.013315 -0.073802
H 1.055058 -2.971207 0.092189
O -0.751630 0.143445 2.139612
H 0.052141 0.660240 2.056168
H -0.559705 -0.586739 2.731292
O -0.371394 -0.592880 -0.749796
H -1.308175 -0.615187 -0.544773
H -0.290900 -0.467263 -1.697335
9
Structure 902 | Energy: -15.205760 Hartree
O -0.939352 -0.407482 -1.504815
H -1.416737 -1.229377 -1.375688
H -0.831104 -0.287379 -2.450308
O -0.023823 0.882030 2.809114
H -0.610185 0.812452 2.053186
H 0.097329 -0.003591 3.157090
O 1.220757 0.844567 0.757097
H 1.703706 0.018532 0.689887
H 1.693850 1.493685 0.232771
9
Structure 903 | Energy: -15.205720 Hartree
O -0.513366 0.444375 -1.272343
H -0.017539 -0.342423 -1.037426
H -1.444062 0.215104 -1.235743
O 1.181768 -2.065272 1.690946
H 0.259164 -2.167168 1.449060
H 1.701440 -2.216875 0.899083
O -1.359206 2.034674 0.646208
H -2.236819 1.654022 0.716855
H -1.431935 2.961792 0.881265
9
Structure 904 | Energy: -15.205679 Hartree
O 0.489616 -1.364145 -2.387849
H 0.181170 -0.551619 -2.793737
H 0.252208 -1.325751 -1.459268
O -0.094922 0.415839 0.496382
H -0.729911 0.035419 -0.113665
H 0.247566 -0.301190 1.033652
O 2.069105 1.259887 0.075188
H 2.120621 1.994378 0.689974
H 2.782141 1.368239 -0.557213
9
Structure 905 | Energy: -15.205675 Hartree
O -0.131657 0.892393 1.581860
H 0.335117 1.133538 2.384389
H 0.000750 1.603352 0.951696
O -2.215838 -0.843851 -0.596557
H -1.920562 -0.103124 -1.129683
H -3.146653 -0.977058 -0.786106
O 2.544342 0.281452 0.521837
H 2.826848 0.582337 -0.344044
H 2.952590 0.858514 1.170237
9
Structure 906 | Energy: -15.205626 Hartree
O -1.547223 1.125351 2.030997
H -1.990222 0.591286 2.693272
H -1.412638 1.995586 2.411364
O 0.596018 -1.686959 -0.122753
H -0.191283 -2.223475 -0.011413
H 0.863661 -1.762379 -1.040777
O 0.958363 1.653063 0.529170
H 1.826015 1.377114 0.227302
H 0.782130 2.511942 0.140121
9
Structure 907 | Energy: -15.205565 Hartree
O -2.017902 -1.900480 -0.289845
H -2.201465 -2.812926 -0.057835
H -1.981304 -1.852643 -1.247170
O -1.478671 0.002017 1.372878
H -1.290873 0.604407 0.650419
H -1.449666 0.513358 2.183912
O 0.572810 -0.100781 -0.682276
H 0.218441 -0.451500 -1.501733
H 1.311927 -0.658090 -0.430873
9
Structure 908 | Energy: -15.205523 Hartree
O 2.718005 -0.178657 0.810353
H 3.497663 -0.617387 0.464330
H 2.512855 0.546178 0.216529
O -1.495039 -0.400423 1.431891
H -1.096224 0.460452 1.290717
H -2.439886 -0.300860 1.299831
O 0.789496 -1.683790 -0.045532
H -0.083209 -1.911203 -0.372275
H 1.373416 -2.412813 -0.263825
9
Structure 909 | Energy: -15.205522 Hartree
O -0.087689 -1.192612 -1.856848
H 0.121247 -2.128714 -1.868677
H 0.328624 -0.798895 -2.626114
O 2.154587 0.780595 1.617966
H 2.597239 1.338464 0.975369
H 2.180911 1.240468 2.459341
O 2.088852 -0.434309 -1.056662
H 2.213283 -1.076811 -1.757946
H 2.073261 -0.917511 -0.228192
9
Structure 910 | Energy: -15.205473 Hartree
O 1.208053 0.328418 -0.168045
H 2.118122 0.036154 -0.248283
H 1.220455 1.176162 0.280593
O 1.414128 -2.229020 1.012953
H 2.092715 -2.552007 0.416891
H 1.195605 -2.946989 1.610327
O -1.920452 0.764531 -1.436894
H -2.808112 1.099793 -1.577431
H -1.314917 1.379725 -1.855169
9
Structure 911 | Energy: -15.205403 Hartree
O 1.227617 1.587700 0.343884
H 0.835461 0.958815 -0.265048
H 2.046685 1.202605 0.661578
O -0.596637 -1.884024 -1.269431
H -0.407974 -2.085664 -0.350825
H -1.387802 -2.369994 -1.510221
O -0.613630 1.771388 2.004329
H -1.568364 1.679521 2.015911
H -0.243299 0.886685 1.988625
9
Structure 912 | Energy: -15.205360 Hartree
O -1.954036 -0.080840 0.656964
H -1.700158 0.844145 0.651523
H -2.353146 -0.270878 -0.194328
O 0.315275 -1.789446 1.574899
H -0.495682 -1.525820 1.135651
H 0.948966 -2.013740 0.890635
O 0.195442 0.144361 -0.144338
H 0.185845 -0.027197 -1.088036
H 0.933375 0.731830 0.030090
9
Structure 913 | Energy: -15.205338 Hartree
O 2.004708 -0.332612 -1.853798
H 1.405671 0.405437 -1.725268
H 1.741511 -1.022120 -1.241094
O 0.281577 0.133917 0.619882
H -0.359217 0.276537 -0.079497
H 1.061182 0.647652 0.399925
O -0.064490 2.293817 0.218593
H -0.950347 2.364847 0.579569
H 0.187987 3.166794 -0.088417
9
Structure 914 | Energy: -15.205332 Hartree
O 0.211242 2.264821 -1.217531
H 0.257035 3.161262 -1.555729
H 0.321891 1.673384 -1.964564
O -0.487593 0.040559 1.881294
H -1.217254 -0.327846 1.379336
H 0.173751 -0.648705 1.968625
O -1.342654 0.078591 -0.790252
H -1.461503 -0.831654 -1.068496
H -1.503196 0.633069 -1.556327
9
Structure 915 | Energy: -15.205278 Hartree
O -0.055811 -0.716053 -1.529146
H 0.074296 -0.836063 -0.586410
H -0.069082 0.228430 -1.696109
O -2.109823 1.308524 0.086192
H -2.736334 2.034860 0.089215
H -1.557376 1.413158 -0.690945
O 2.361027 -0.508598 -1.208391
H 2.406362 -0.680099 -2.151060
H 1.942762 0.347160 -1.095150
9
Structure 916 | Energy: -15.205249 Hartree
O -1.269292 -0.423290 -2.249738
H -2.055166 0.056947 -1.981681
H -1.560236 -1.254197 -2.630586
O 0.830751 0.921336 1.123169
H 0.005637 1.160241 1.550018
H 1.495903 0.849901 1.810597
O 1.467828 -1.118085 -0.114962
H 2.111356 -0.727109 -0.709185
H 1.031415 -1.825130 -0.594255
9
Structure 917 | Energy: -15.205245 Hartree
O 1.679000 1.565114 1.639732
H 1.250034 2.109374 0.976519
H 2.625420 1.653601 1.511047
O -0.175161 -1.292148 -0.585217
H 0.604505 -0.740173 -0.498422
H -0.130789 -1.713091 -1.445987
O 0.061910 1.165066 -1.770937
H 0.532416 1.740508 -1.164652
H 0.692765 0.521134 -2.098753
9
Structure 918 | Energy: -15.205142 Hartree
O -1.517180 1.769305 0.293957
H -0.924773 1.261378 0.851762
H -1.130240 2.640586 0.187909
O 0.486422 -0.934658 -0.683933
H 1.111310 -1.599806 -0.388668
H 0.199775 -0.449693 0.092425
O 1.438200 0.804632 -1.967296
H 2.253563 0.727565 -2.466631
H 0.715398 0.644019 -2.577092
9
Structure 919 | Energy: -15.205050 Hartree
O -0.078756 1.608417 1.270202
H 0.833656 1.879752 1.388373
H -0.300840 1.752539 0.348244
O 1.887576 -1.495779 -0.612641
H 2.598176 -2.114504 -0.792403
H 1.826786 -1.402020 0.340041
O -0.353767 -0.736313 -0.664591
H -0.444247 -1.370036 -1.378943
H -0.522912 0.133042 -1.032968
9
Structure 920 | Energy: -15.205021 Hartree
O 2.146724 0.816855 -0.134672
H 2.039922 1.247777 0.715611
H 2.956445 1.153054 -0.523803
O -0.199324 -2.012940 0.725971
H -0.284518 -2.473139 1.563257
H -1.081204 -1.925400 0.358940
O 0.872057 -0.113346 2.652120
H 1.563499 0.097234 3.282719
H 0.044310 -0.138795 3.136141
9
Structure 921 | Energy: -15.204974 Hartree
O 1.239336 -1.385813 1.143333
H 1.679475 -1.253466 1.985262
H 0.788942 -2.231532 1.188097
O -2.172568 0.749257 -1.119048
H -1.904878 1.091521 -1.974201
H -3.067856 1.053963 -0.958732
O -2.165719 -1.261915 0.778582
H -3.057289 -1.566177 0.959191
H -1.692045 -1.992873 0.376806
9
Structure 922 | Energy: -15.204841 Hartree
O -1.087773 1.745231 1.975512
H -0.776341 1.763149 2.882580
H -0.569177 2.385532 1.484418
O -1.812601 -0.992963 -0.207424
H -1.045202 -1.397957 0.201437
H -1.564678 -0.754342 -1.102791
O 0.043020 -0.752092 2.163021
H 0.347184 -0.493460 3.035193
H 0.821120 -0.875154 1.615748
9
Structure 923 | Energy: -15.204819 Hartree
O -1.995578 -1.743830 0.702545
H -1.134992 -1.407968 0.960751
H -2.654873 -1.174095 1.103584
O -1.947541 0.214571 -0.865891
H -1.452987 0.521271 -1.628413
H -1.539770 0.601296 -0.088552
O 1.798156 1.234513 0.067578
H 1.016711 1.558538 0.519731
H 1.960202 0.343460 0.383575
9
Structure 924 | Energy: -15.204712 Hartree
O -0.034072 -0.168385 -2.173116
H -0.898958 -0.211772 -2.585634
H 0.326678 0.700471 -2.360329
O -2.686885 0.303571 0.172848
H -2.372862 1.194063 0.341675
H -2.082586 -0.096349 -0.455621
O 0.954070 -1.907660 -1.032569
H 1.723738 -1.355138 -0.882827
H 0.430733 -1.889600 -0.228901
9
Structure 925 | Energy: -15.204581 Hartree
O -0.930341 1.759642 -0.175104
H -1.712370 2.162745 0.207023
H -0.357485 1.506364 0.551385
O 0.169228 -1.193681 2.109848
H -0.484911 -1.894804 2.134665
H 0.507475 -1.152387 1.213202
O 0.173104 1.598994 -2.151074
H 1.028761 2.031012 -2.187169
H -0.493241 2.277665 -2.275494
9
Structure 926 | Energy: -15.204505 Hartree
O 1.760422 1.006062 -1.194466
H 1.125417 1.722966 -1.140630
H 2.534335 1.345564 -1.648225
O -0.479893 -0.978077 1.382223
H -0.913370 -1.006362 0.527013
H 0.122691 -1.723430 1.420039
O -1.081342 1.444203 1.869980
H -1.999194 1.624702 1.657709
H -0.543405 1.951707 1.259118
9
Structure 927 | Energy: -15.204492 Hartree
O -0.517461 0.472774 -2.545385
H 0.251387 0.082868 -2.966013
H -1.247898 0.396995 -3.162491
O -0.105429 -1.501448 0.497706
H -0.557451 -1.371302 1.333665
H -0.443667 -2.313518 0.115310
O 0.882387 1.557425 -0.980674
H 0.073519 1.487047 -0.469918
H 1.506980 2.061602 -0.455528
9
Structure 928 | Energy: -15.204476 Hartree
O 0.718637 -1.627897 -0.099139
H 0.134688 -1.874179 0.620882
H 0.871748 -2.416600 -0.623166
O 0.592619 0.899685 2.153500
H 0.434684 0.136839 1.593848
H 1.477768 1.215024 1.960726
O -0.179638 -1.712046 -2.214201
H 0.027577 -1.774639 -3.148672
H -0.875010 -2.347781 -2.034232
9
Structure 929 | Energy: -15.204448 Hartree
O -1.509674 1.198949 2.099307
H -2.077860 0.455400 2.309974
H -1.091697 1.477533 2.916490
O 0.165128 -1.128957 -0.271734
H 0.512030 -0.633636 -1.016316
H 0.739652 -1.885999 -0.141742
O -1.724512 -0.115624 -1.912276
H -2.470169 0.366982 -2.274462
H -0.941339 0.176911 -2.382545
9
Structure 930 | Energy: -15.204341 Hartree
O -0.865062 1.328916 -1.239129
H -0.414054 0.699342 -0.673170
H -1.272159 0.830591 -1.950496
O -0.818393 -2.348739 0.273319
H -0.432055 -1.470936 0.290448
H -1.630101 -2.311831 0.783079
O 1.437820 1.991175 -1.256712
H 1.833199 2.700481 -1.767252
H 1.419110 1.213507 -1.817936
9
Structure 931 | Energy: -15.204326 Hartree
O -1.566498 1.060015 0.867223
H -2.047541 1.044117 1.696938
H -2.006522 1.692464 0.295832
O 0.721853 -2.390701 0.009422
H 0.819151 -3.306179 -0.259876
H 1.604034 -2.022182 0.087134
O 0.656778 2.062743 1.882180
H 1.073981 2.813413 1.454948
H -0.139549 2.385151 2.308803
9
Structure 932 | Energy: -15.204166 Hartree
O 0.602380 -2.026724 -1.897147
H 0.987178 -2.631096 -1.259379
H -0.033926 -2.525605 -2.413222
O 0.069356 1.519854 0.502177
H 0.587214 2.250031 0.157572
H 0.647488 0.755482 0.542013
O -1.441806 -1.299112 -0.514594
H -1.540784 -1.565577 -1.430722
H -0.911302 -1.969455 -0.079514
9
Structure 933 | Energy: -15.204059 Hartree
O 0.882182 -0.666474 -2.049251
H 1.132435 -1.246534 -2.771045
H 0.662625 -1.223751 -1.300027
O 1.068138 1.692210 0.393714
H 0.763094 0.833879 0.694221
H 2.026170 1.657706 0.360975
O -1.021684 -0.758898 -0.265331
H -0.830488 -0.663156 0.669746
H -1.245059 -1.679360 -0.416805
9
Structure 934 | Energy: -15.203935 Hartree
O -0.816952 1.335620 -0.040951
H -1.125341 1.608212 -0.907364
H -0.887067 2.097134 0.538082
O 1.968676 -1.179194 0.531978
H 2.139201 -0.968958 -0.388245
H 2.622845 -1.826975 0.801292
O -1.419223 -0.307751 1.373136
H -1.974100 -1.025872 1.062484
H -0.531789 -0.473883 1.049175
9
Structure 935 | Energy: -15.203930 Hartree
O -0.302925 1.685690 2.148021
H -0.234637 2.419667 2.761776
H 0.182841 0.951209 2.528374
O -1.418678 -1.115250 -0.149086
H -0.485967 -1.339051 -0.141898
H -1.869833 -1.760436 0.398894
O 1.762097 1.245186 0.581957
H 2.416746 1.262355 1.282835
H 2.111551 0.692287 -0.119666
9
Structure 936 | Energy: -15.203893 Hartree
O 1.447672 -0.836623 -0.492381
H 0.914718 -0.942481 -1.282847
H 0.844141 -0.708509 0.242083
O -0.523180 0.622005 2.593279
H -1.221462 0.842938 3.212697
H 0.165815 1.281592 2.694864
O 1.886809 1.315976 0.237004
H 1.067950 1.645114 0.612809
H 2.222912 0.643770 0.833044
9
Structure 937 | Energy: -15.203819 Hartree
O -2.153872 -1.197377 0.600930
H -1.292659 -1.070944 1.003928
H -2.811998 -1.024720 1.277066
O -0.063863 1.275004 -1.016549
H 0.626433 0.984603 -1.615921
H -0.846985 0.757093 -1.212954
O 1.405362 -0.005703 0.084455
H 0.579786 0.130055 0.553587
H 2.070852 0.530919 0.519484
9
Structure 938 | Energy: -15.203804 Hartree
O 0.265561 2.034278 -0.390357
H 0.279359 2.912259 -0.776417
H 1.174643 1.791713 -0.203724
O 1.332162 -0.908234 1.573565
H 1.630807 -0.526939 2.401523
H 1.872833 -1.682649 1.406102
O -1.560790 -0.385977 0.254809
H -2.005736 -0.932217 -0.396142
H -1.983720 -0.549872 1.100006
9
Structure 939 | Energy: -15.203727 Hartree
O 0.227118 -0.394105 -2.441021
H 0.071867 0.358721 -3.014809
H -0.229262 -1.144335 -2.826989
O -0.364510 1.468519 1.339451
H -1.104566 1.936486 1.731131
H -0.148388 1.915157 0.518541
O -0.819929 -0.907646 -0.133856
H -0.641115 -1.619885 -0.750972
H -1.184775 -0.178665 -0.639389
9
Structure 940 | Energy: -15.203724 Hartree
O -0.065349 0.625591 -0.202822
H 0.565651 0.818562 0.493369
H -0.251194 1.451108 -0.654579
O -1.207828 -0.652601 2.080188
H -0.804337 -0.028581 2.686721
H -0.559947 -1.337925 1.905058
O -0.398240 -0.812367 -2.021529
H -0.625563 -1.369893 -1.274816
H -1.140078 -0.835032 -2.629190
9
Structure 941 | Energy: -15.203655 Hartree
O -0.493085 0.859251 -1.755210
H -0.764104 1.218902 -2.602135
H 0.406264 0.541358 -1.856277
O -1.718453 -1.106725 1.545741
H -1.501771 -1.486399 2.399548
H -2.546103 -0.632664 1.647475
O 1.244804 2.327272 -0.681429
H 1.805574 2.738338 -1.342226
H 1.803494 1.756936 -0.149760
9
Structure 942 | Energy: -15.203644 Hartree
O -2.468329 -0.037151 1.205651
H -2.692204 0.891378 1.293940
H -2.682769 -0.296905 0.307518
O 0.864837 -1.778431 -0.088868
H 0.650251 -2.669761 -0.370954
H 1.818700 -1.730601 0.000275
O 0.344281 0.556628 1.433578
H 1.150623 0.575406 0.914396
H 0.078326 1.466806 1.578259
9
Structure 943 | Energy: -15.203638 Hartree
O -2.433200 1.060868 -0.371794
H -3.340085 1.051964 -0.684143
H -2.416320 0.592098 0.464907
O 1.487128 0.012941 1.001660
H 1.023491 0.083429 0.164904
H 2.231293 -0.576724 0.865272
O -0.703713 1.908364 0.794751
H 0.235162 1.943472 0.601431
H -0.803786 2.032131 1.740667
9
Structure 944 | Energy: -15.203596 Hartree
O 0.873868 -2.186976 1.429886
H 0.480853 -2.078080 0.561692
H 0.200363 -2.560383 2.001776
O -0.372347 0.609868 -2.113122
H -1.118650 0.527086 -1.516241
H -0.670314 0.330242 -2.980943
O 0.947438 2.236605 -0.880363
H 1.368253 3.027956 -1.222079
H 1.044256 2.252830 0.073813
9
Structure 945 | Energy: -15.203546 Hartree
O -0.948629 -1.520162 1.388099
H -0.619870 -0.662623 1.111285
H -1.800185 -1.376650 1.805660
O -0.605414 2.555197 -0.351545
H -1.367703 3.127368 -0.243731
H 0.145774 3.117368 -0.550965
O 0.767270 1.016801 -1.044557
H -0.052407 0.710172 -1.437239
H 1.485477 0.655805 -1.567959
9
Structure 946 | Energy: -15.203495 Hartree
O -0.112027 -1.026664 1.784400
H -0.597697 -1.816020 1.537166
H 0.732552 -1.312019 2.138459
O 0.170949 0.528639 -2.449255
H 0.528502 1.092105 -3.138276
H -0.377110 -0.131527 -2.878091
O -0.920823 0.644908 -0.405346
H -0.805182 0.517867 0.538359
H -1.798986 0.330299 -0.628819
9
Structure 947 | Energy: -15.203284 Hartree
O 1.624518 -0.808777 2.317858
H 0.719590 -1.123882 2.361395
H 1.893007 -0.842268 1.397590
O -0.560747 0.206762 -0.159928
H -0.918121 -0.368398 -0.839312
H 0.115931 -0.289210 0.305052
O 0.881478 1.793018 -1.302106
H 0.668419 1.207172 -2.031134
H 0.993675 2.672590 -1.667968
9
Structure 948 | Energy: -15.203076 Hartree
O -0.177666 2.191465 0.501466
H -0.084116 3.141490 0.595187
H -0.832904 2.036577 -0.181742
O 0.476392 -0.989403 -2.453553
H 0.181165 -1.851662 -2.154490
H 1.363346 -1.098042 -2.802262
O -0.813136 0.041427 -0.025439
H -1.122504 -0.705091 -0.542250
H -0.697252 -0.265591 0.875894
9
Structure 949 | Energy: -15.203049 Hartree
O 1.139104 -1.363498 -1.857540
H 1.115744 -1.596740 -0.927414
H 1.063162 -0.408901 -1.913015
O 0.503700 0.812009 1.747447
H -0.339834 0.500544 2.081406
H 0.338678 1.219741 0.895032
O -0.818685 -0.995873 -0.608159
H -0.954871 -0.244408 -1.188542
H -1.268371 -0.802797 0.216823
9
Structure 950 | Energy: -15.202804 Hartree
O 1.192536 -0.861879 -1.185974
H 0.352151 -0.470316 -1.431970
H 1.228782 -0.877847 -0.227574
O -1.043712 0.554090 1.944260
H -1.961945 0.624772 2.212477
H -0.667305 -0.192818 2.413871
O -1.267942 1.595754 -0.161508
H -2.109097 1.593286 0.299515
H -1.149758 0.723013 -0.541569
9
Structure 951 | Energy: -15.202659 Hartree
O 1.100986 -0.545714 -0.629639
H 0.362402 -0.123774 -1.072969
H 0.939942 -0.482094 0.313821
O 2.095545 1.384972 0.271264
H 1.454586 1.841894 0.819427
H 2.641555 0.854496 0.854835
O -1.929519 1.502082 -0.214072
H -1.741111 0.589743 -0.442616
H -2.871379 1.636761 -0.335938
9
Structure 952 | Energy: -15.202553 Hartree
O 0.547078 2.695252 -0.662406
H 0.159011 2.838134 -1.527895
H -0.175572 2.616378 -0.036582
O -0.561304 -0.612664 -0.007944
H -1.275211 -0.821567 0.597685
H -0.593525 0.332230 -0.169885
O 0.829405 -1.755105 1.476469
H 1.006673 -0.832518 1.282820
H 1.209789 -1.942956 2.336766
9
Structure 953 | Energy: -15.202482 Hartree
O 1.245054 -2.108697 -1.377051
H 1.992579 -2.275657 -1.954469
H 0.608956 -1.593896 -1.877512
O 0.941992 0.998833 0.507991
H 1.434157 0.175726 0.489109
H 1.329135 1.576496 -0.152701
O -0.599729 -2.007960 -0.246475
H -1.504635 -2.218710 -0.008102
H -0.051795 -2.740000 0.043308
9
Structure 954 | Energy: -15.202481 Hartree
O -0.216544 1.312909 2.331331
H -0.620478 0.531909 2.714681
H 0.180375 1.048065 1.499218
O 0.201527 -1.646911 -0.871492
H 0.266003 -1.358825 0.041162
H 0.586487 -2.524128 -0.920328
O -1.393177 -0.539650 -2.227633
H -1.128313 0.176171 -2.808614
H -2.247573 -0.851482 -2.532359
9
Structure 955 | Energy: -15.202350 Hartree
O 0.100983 2.443039 -0.808535
H -0.312941 2.412103 0.056214
H -0.461344 2.976390 -1.373713
O -0.697802 -0.740791 1.915118
H -1.280565 -1.414644 1.559592
H -1.185407 0.085242 1.915110
O -1.081031 0.270036 -1.394060
H -1.708044 0.145299 -0.678947
H -1.572665 0.600468 -2.148513
9
Structure 956 | Energy: -15.202126 Hartree
O 0.471826 -0.069114 0.181004
H 1.130337 -0.370759 -0.447849
H -0.197132 -0.753838 0.242231
O 0.396507 2.319504 0.188259
H 0.271756 2.061028 -0.727009
H 0.094724 3.226238 0.271014
O -0.859070 -0.675556 -2.176249
H -0.615944 -1.602850 -2.142974
H -0.472360 -0.308947 -2.973835
9
Structure 957 | Energy: -15.201998 Hartree
O -1.252805 -1.369092 0.885331
H -1.749465 -2.183226 0.988264
H -1.383492 -0.853742 1.683727
O -2.265514 0.394759 -0.055560
H -2.777909 1.194835 0.076418
H -1.810141 0.484323 -0.895025
O 1.833612 -0.072590 1.956928
H 2.086036 0.000934 2.879407
H 1.547179 -0.976490 1.811978
9
Structure 958 | Energy: -15.201982 Hartree
O -0.022096 2.512253 0.610280
H 0.283193 2.079116 -0.189265
H -0.652040 1.922944 1.029785
O 0.165379 -0.568413 -0.852398
H -0.517169 -0.010522 -0.474281
H 0.868190 0.009198 -1.156555
O -1.026544 -2.538739 -0.551997
H -1.435792 -2.556613 0.315348
H -0.338481 -3.207056 -0.555263
9
Structure 959 | Energy: -15.201711 Hartree
O -2.457549 0.338874 0.789134
H -2.935545 -0.443552 1.070933
H -1.963791 0.658393 1.546901
O -0.011600 -0.257430 -0.549085
H -0.441971 -0.539145 -1.358718
H -0.591490 -0.493169 0.177718
O 0.099918 1.682525 -1.760943
H -0.820947 1.655184 -2.028060
H 0.431466 2.557185 -1.973396
9
Structure 960 | Energy: -15.201706 Hartree
O -0.428444 2.184287 -1.457985
H -0.828786 1.942516 -2.295455
H -0.750597 1.565215 -0.799906
O -0.177678 -0.460937 0.607056
H -0.864554 0.050323 1.039380
H -0.553780 -0.816100 -0.200716
O 0.223601 -2.572827 1.173619
H 1.049700 -2.087271 1.130189
H 0.216672 -3.047653 2.007035
9
Structure 961 | Energy: -15.201654 Hartree
O 0.723900 2.445222 -0.285209
H 0.728992 2.722311 -1.203511
H 1.173238 3.126053 0.219434
O 1.056607 -1.041655 1.341173
H 1.571252 -0.473002 0.765098
H 1.146708 -0.699233 2.232642
O -0.390169 -2.699098 0.638818
H -1.142285 -2.866442 1.210139
H -0.726142 -2.287622 -0.159869
9
Structure 962 | Energy: -15.201645 Hartree
O -2.131899 1.293005 1.285270
H -2.764074 1.970628 1.532786
H -2.625860 0.484231 1.136987
O -0.412992 -0.770682 -0.625430
H -1.340249 -0.902505 -0.418296
H 0.053776 -1.564293 -0.356363
O 2.120419 -0.089608 -1.093894
H 2.896804 0.133048 -1.611332
H 2.290102 -0.936786 -0.677255
9
Structure 963 | Energy: -15.201447 Hartree
O -2.505172 -0.287435 -1.241620
H -2.584706 0.218629 -2.052579
H -2.829372 -1.171303 -1.425393
O -0.773615 0.087693 0.180902
H -0.786435 0.637651 0.966695
H -0.053585 0.398334 -0.371499
O 2.565208 -0.463207 0.418041
H 3.022664 -0.867068 -0.322041
H 2.497093 -1.127518 1.106620
9
Structure 964 | Energy: -15.201171 Hartree
O 2.484089 0.482511 0.236070
H 2.767574 0.236013 -0.646515
H 2.616904 -0.281385 0.800804
O -1.898095 -0.849306 -0.428007
H -1.007404 -0.974239 -0.761397
H -2.501156 -1.167511 -1.102656
O -0.554486 0.471708 0.799639
H -1.060654 1.231960 1.092731
H -0.246503 0.015508 1.585207
9
Structure 965 | Energy: -15.201087 Hartree
O 0.070782 -2.430790 0.824818
H 1.011467 -2.243329 0.817634
H -0.226312 -2.358629 1.734009
O 0.367434 1.074697 -0.214412
H 1.115893 1.671916 -0.271224
H 0.253303 0.849540 0.710989
O -1.537128 1.637795 -1.610638
H -2.188649 2.301286 -1.375285
H -1.680431 1.413280 -2.532131
9
Structure 966 | Energy: -15.200743 Hartree
O 1.806680 0.260032 0.611484
H 2.043847 1.099055 0.211643
H 2.437250 0.092075 1.314529
O -0.125495 0.787140 2.342402
H 0.531478 1.485050 2.305027
H -0.906491 1.154346 2.761082
O -0.462966 -1.327718 -0.916643
H -1.035304 -0.693436 -1.352768
H -0.793157 -2.202481 -1.130778
9
Structure 967 | Energy: -15.200170 Hartree
O -0.523933 -0.404064 -0.200710
H 0.370867 -0.211224 0.086042
H -0.681334 0.102104 -1.000159
O -2.243645 0.856711 0.721442
H -1.591748 0.943878 1.419669
H -2.375380 1.729203 0.345290
O 1.763109 -0.563623 -1.934570
H 2.236298 -0.721012 -2.753967
H 2.247147 0.109195 -1.451750
9
Structure 968 | Energy: -15.200040 Hartree
O 1.632444 -1.727391 0.868497
H 1.104667 -2.499655 1.080962
H 1.455596 -1.505814 -0.047870
O -0.276253 -0.608412 1.325357
H -1.075156 -1.016782 0.986127
H -0.463019 0.324810 1.444957
O -1.871247 1.560251 -1.301113
H -1.677296 1.412694 -0.373373
H -1.041904 1.770620 -1.734732
9
Structure 969 | Energy: -15.199825 Hartree
O -0.283264 -1.627443 0.564441
H 0.043815 -2.522502 0.673852
H -1.229368 -1.686668 0.417885
O 1.685378 0.521975 -1.707456
H 1.587661 0.410542 -2.655149
H 1.679279 -0.353857 -1.316341
O 0.168627 -1.116809 2.671873
H 0.085992 -0.214685 2.356539
H -0.522601 -1.254752 3.322461
9
Structure 970 | Energy: -15.199717 Hartree
O 0.294606 0.445481 0.191818
H -0.359451 0.875992 -0.362213
H -0.121262 -0.331304 0.570973
O -0.185850 1.734110 2.017726
H -0.162432 0.959892 2.583524
H 0.288420 2.432829 2.472640
O 0.254035 -1.421773 -1.542535
H -0.674074 -1.514094 -1.766544
H 0.543220 -0.569914 -1.875399
9
Structure 971 | Energy: -15.199122 Hartree
O 1.664496 -0.150805 -0.241625
H 2.257651 -0.793371 -0.635781
H 0.812702 -0.578700 -0.134610
O -2.073597 0.774831 0.949829
H -2.564654 0.358762 1.661052
H -1.761131 0.074981 0.373060
O 0.843491 0.143448 1.753386
H 0.078469 0.377175 2.282730
H 1.608459 0.551020 2.164238
9
Structure 972 | Energy: -15.198162 Hartree
O -1.025057 1.235769 1.791893
H -1.105102 0.361116 1.406333
H -0.450704 1.157819 2.556185
O 0.295448 -1.298999 -1.666642
H 0.733545 -0.535131 -1.286294
H 0.430017 -1.260368 -2.615582
O -0.228802 -2.754417 -0.085931
H -0.543909 -1.876345 0.137204
H -0.947451 -3.366180 0.085474
9
Structure 973 | Energy: -15.196738 Hartree
O 0.468839 1.410657 -1.983440
H 0.700746 0.903160 -1.203218
H 0.652742 2.331631 -1.788281
O -0.690956 -0.619537 0.438636
H -0.258894 0.038989 0.986134
H -1.611371 -0.361961 0.357524
O -1.685065 1.001433 -1.135676
H -2.375462 1.481662 -1.597004
H -1.265665 1.617295 -0.531600
9
Structure 974 | Energy: -15.196356 Hartree
O 0.263112 0.194827 0.329553
H 0.005233 1.014689 0.755472
H 0.748990 -0.320675 0.976301
O 2.293691 -0.793757 -1.267777
H 2.817224 -1.440472 -1.745021
H 2.828041 -0.001563 -1.184190
O -1.365445 -0.715532 -1.165154
H -1.926999 -0.588636 -0.397921
H -1.821758 -0.333551 -1.917456
9
Structure 975 | Energy: -15.196323 Hartree
O -2.327606 0.261081 0.837062
H -1.403306 0.008800 0.882948
H -2.687841 0.182375 1.722577
O -0.195365 -1.724738 -0.873210
H 0.593716 -1.585012 -0.346031
H -0.820843 -2.204491 -0.326674
O 0.001961 0.252427 -1.511499
H -0.909353 0.200640 -1.806314
H 0.376902 1.051654 -1.886660
9
Structure 976 | Energy: -15.196185 Hartree
O 1.362384 1.443081 -0.733087
H 1.343793 1.804456 0.155251
H 0.724144 0.727604 -0.762114
O -2.248579 -0.603165 0.691646
H -2.331530 0.280727 1.054883
H -1.626797 -1.080320 1.244637
O -0.338624 2.062160 -2.016577
H -0.838542 2.446498 -1.293764
H -0.971935 1.693602 -2.635586
9
Structure 977 | Energy: -15.196101 Hartree
O 1.699329 1.132171 -1.057638
H 1.347169 0.715125 -1.846395
H 0.969972 1.577611 -0.622069
O -0.874048 -1.193246 1.030845
H -0.271919 -1.939335 1.060529
H -0.351455 -0.414276 0.830370
O -2.529610 -0.824873 -0.275758
H -2.941606 -0.140815 0.255670
H -3.010043 -0.868459 -1.104838
9
Structure 978 | Energy: -15.195022 Hartree
O 0.283407 0.463597 0.141950
H -0.567532 0.127249 0.429794
H 0.334195 1.380991 0.417467
O 2.025802 0.996370 -1.772270
H 1.840313 0.096507 -2.047822
H 2.216172 0.972126 -0.832451
O -0.162038 1.211739 -2.235570
H -0.355597 1.726735 -3.021321
H -0.821588 1.439167 -1.577268
9
Structure 979 | Energy: -15.195009 Hartree
O 2.149476 0.667889 0.742712
H 2.774613 1.124948 1.308735
H 1.615214 0.104692 1.306160
O -0.875283 -0.802776 -0.771385
H -0.198289 -1.352277 -1.171154
H -0.465594 0.035276 -0.547978
O 1.138152 1.856939 -0.642562
H 0.356182 1.777789 -1.192426
H 1.719970 2.491350 -1.065764
9
Structure 980 | Energy: -15.194956 Hartree
O -1.694097 -0.303056 -0.405234
H -2.482199 -0.354692 -0.949578
H -1.137128 -1.047755 -0.640415
O 0.273792 1.456407 1.466650
H 0.312990 1.811164 2.356986
H -0.421803 0.796039 1.454376
O -0.614262 1.239612 -1.476357
H -1.191383 1.394721 -2.226666
H 0.273142 1.485507 -1.744944
9
Structure 981 | Energy: -15.194413 Hartree
O -0.735377 -0.916598 -1.988912
H -1.040570 -0.184812 -2.528753
H 0.013541 -0.600811 -1.479501
O -2.283618 1.232592 0.618810
H -1.734661 0.602953 0.147336
H -1.694903 1.833110 1.080201
O 0.662356 -2.486517 -1.180283
H 0.706412 -2.101520 -0.302827
H 1.466858 -2.238509 -1.640021
9
Structure 982 | Energy: -15.194210 Hartree
O 1.298029 -1.420177 2.198375
H 1.043260 -1.031936 1.359064
H 1.710903 -0.727653 2.718034
O 0.483549 1.097521 -0.570401
H 0.194076 1.937905 -0.209777
H 0.299888 0.426617 0.090087
O -0.915800 0.581994 -2.137880
H -0.900462 0.979709 -3.010623
H -1.706554 0.041537 -2.085862
9
Structure 983 | Energy: -15.193867 Hartree
O 1.076260 2.023853 1.705782
H 1.146454 2.941333 1.434885
H 0.355853 1.968265 2.336674
O 0.298445 -0.781604 -0.483382
H -0.629935 -0.935330 -0.297457
H 0.346559 -0.055247 -1.108025
O 1.664670 -1.462663 1.094097
H 0.907689 -1.599653 1.667076
H 2.404039 -1.217693 1.653929
9
Structure 984 | Energy: -15.193381 Hartree
O -2.154279 0.645239 -0.278561
H -2.892151 0.033080 -0.308384
H -2.449247 1.465401 -0.679094
O -0.092574 -2.170502 0.312722
H -0.559454 -2.496532 1.084613
H 0.321995 -1.341762 0.560534
O -1.722651 -1.173828 -1.570580
H -2.571864 -1.603395 -1.690584
H -1.520248 -0.711746 -2.386425
9
Structure 985 | Energy: -15.192742 Hartree
O 1.363358 1.287390 2.044704
H 2.181217 1.483723 1.583574
H 1.358702 0.345535 2.226326
O -0.904660 -0.323969 -0.584794
H -0.850262 -0.263734 0.370978
H -1.684890 0.163551 -0.856184
O -0.043478 1.405867 -1.433259
H -0.002132 1.675750 -2.352794
H 0.770159 0.936867 -1.238007
9
Structure 986 | Energy: -15.191743 Hartree
O -1.204210 2.069719 1.284039
H -2.121296 1.837146 1.441976
H -1.158352 3.026537 1.234077
O 0.412904 -2.200615 -0.125902
H 0.004739 -3.066677 -0.184446
H 1.291751 -2.324791 0.237822
O 0.481647 0.686687 1.483484
H 1.363665 1.050910 1.580839
H 0.087562 0.659280 2.357575
9
Structure 987 | Energy: -15.191058 Hartree
O -0.513299 0.429383 0.181384
H -0.321826 0.248302 1.103680
H -0.553658 1.382529 0.081468
O -1.979836 -0.487432 -1.274182
H -2.735365 0.008399 -1.595762
H -2.156315 -1.415102 -1.442624
O 0.389683 -2.143625 -0.232673
H 0.240339 -2.598817 0.598344
H 1.302534 -2.300163 -0.482248
9
Structure 988 | Energy: -15.190901 Hartree
O -0.457733 -0.288267 0.244905
H -1.304650 -0.648107 0.515696
H 0.133999 -1.029920 0.103821
O 0.709450 1.503947 -1.155244
H 0.940950 2.204214 -1.768532
H 0.027677 1.848384 -0.575040
O -0.056725 1.257147 1.697919
H -0.329421 2.140130 1.440878
H 0.894124 1.278485 1.822504
9
Structure 989 | Energy: -15.190632 Hartree
O -0.272726 -2.354338 1.479591
H -0.056321 -3.287365 1.531664
H -0.917918 -2.251143 0.777325
O 0.324419 0.182266 -0.569629
H -0.629656 0.121791 -0.648195
H 0.550917 1.114353 -0.569631
O 2.134529 -0.540768 0.179162
H 2.319208 -0.449910 -0.757711
H 1.879822 -1.452941 0.331325
9
Structure 990 | Energy: -15.190340 Hartree
O -0.743371 0.065328 -0.635662
H -0.058662 0.365302 -0.034603
H -0.309917 -0.419276 -1.340912
O -2.596310 -0.150524 0.288272
H -2.111024 0.485551 0.817417
H -3.454692 0.233464 0.099006
O 2.168574 1.579812 -0.824317
H 1.505168 1.139319 -1.359058
H 2.659476 2.164292 -1.405255
9
Structure 991 | Energy: -15.189143 Hartree
O 1.440274 -0.919686 1.447985
H 0.602555 -0.493272 1.256987
H 1.484015 -1.047371 2.397661
O -1.741099 1.574363 -0.625483
H -2.162095 2.429884 -0.520911
H -1.151720 1.454578 0.121760
O -2.817285 -0.104883 0.070923
H -2.585923 -1.017006 0.256917
H -3.530081 0.134487 0.666502
9
Structure 992 | Energy: -15.188416 Hartree
O 0.522786 -1.038183 -1.009209
H 0.137755 -1.042788 -1.887737
H 1.025415 -1.849728 -0.915090
O 1.582148 1.800306 1.345366
H 1.199501 1.729316 2.222081
H 2.441902 2.214205 1.443346
O -1.208252 -1.970567 -0.201500
H -1.814578 -1.702246 0.491655
H -1.311684 -2.916955 -0.318722
9
Structure 993 | Energy: -15.187657 Hartree
O 0.777136 1.819837 -1.768479
H 0.317674 2.625507 -2.013167
H 1.705923 2.040059 -1.673828
O 0.130278 -0.305315 0.470603
H 0.958521 0.171785 0.551076
H -0.575404 0.317423 0.655799
O -0.668119 -2.241601 0.430834
H 0.112997 -2.238517 0.987555
H -1.402320 -1.940804 0.969870
9
Structure 994 | Energy: -15.186820 Hartree
O -1.251321 -0.854745 -1.270967
H -2.117395 -0.969353 -0.874907
H -1.335076 -0.178942 -1.946523
O 0.508205 -1.940609 -1.225353
H 0.016302 -2.477190 -0.600693
H 1.432703 -1.987760 -0.974018
O 0.800870 0.782012 0.642191
H 0.006345 1.296954 0.488382
H 1.328573 1.259244 1.285517
9
Structure 995 | Energy: -15.185617 Hartree
O -0.498387 -1.060830 2.095438
H 0.235087 -1.678260 2.125055
H -0.839063 -0.981384 2.988594
O 0.804238 1.265249 -0.762085
H 1.712976 1.317329 -0.459478
H 0.787970 0.665347 -1.510377
O -0.976472 2.044439 -1.359441
H -1.519923 2.826828 -1.471773
H -1.569794 1.305011 -1.213474
9
Structure 996 | Energy: -15.184120 Hartree
O -0.951026 -2.039319 -1.735319
H -1.726898 -2.276086 -1.223415
H -1.259748 -1.682190 -2.570334
O 0.276029 0.319906 -0.006877
H -0.214456 1.082107 0.307070
H 0.196665 -0.363811 0.661195
O 1.952099 0.662522 -1.209554
H 2.349042 1.420865 -1.642500
H 2.310083 0.623404 -0.320506
9
Structure 997 | Energy: -15.183433 Hartree
O 0.193827 1.074870 -0.633292
H -0.514113 1.712255 -0.745734
H 0.992226 1.568840 -0.436691
O -0.837086 -2.522321 0.350005
H -0.495239 -2.847977 -0.484966
H -0.082305 -2.301329 0.899146
O -0.329743 -0.158165 -2.149446
H -1.136115 -0.393328 -1.686247
H 0.391018 -0.621326 -1.718079
9
Structure 998 | Energy: -15.180126 Hartree
O 0.409241 -1.913403 1.024348
H -0.392365 -2.342550 0.718828
H 0.826755 -2.505745 1.652769
O -1.812290 1.542473 -0.377962
H -1.929484 0.935909 0.355819
H -1.156015 1.157915 -0.962348
O -0.722583 -1.033274 2.484882
H -0.414610 -1.257202 3.365280
H -1.633467 -1.326689 2.419400
9
Structure 999 | Energy: -15.179761 Hartree
O -1.183335 2.110519 1.269378
H -0.869734 3.005795 1.411565
H -1.929432 1.974250 1.856635
O -0.137269 -1.990296 -1.079968
H -0.251992 -1.294661 -0.429569
H 0.640772 -2.490739 -0.826400
O 1.221196 -0.896260 -2.068870
H 1.367443 0.051726 -2.073887
H 1.913804 -1.293348 -2.600572
9
Structure 1000 | Energy: -15.175294 Hartree
O -0.713084 -0.157156 -0.394384
H -1.637476 0.029446 -0.569770
H -0.447371 -0.860698 -0.989805
O 0.997284 1.744696 1.719098
H 0.442669 1.528580 2.471284
H 1.392059 2.601220 1.894044
O -0.452945 2.002169 0.143648
H -0.969655 2.139629 -0.652723
H -0.107689 2.856758 0.409290
