6
Structure 1
O -0.513798 -0.985108 -1.629984
H 0.024702 -0.614481 -0.928030
H -1.395388 -0.619224 -1.535014
O -0.395174 0.821968 0.510166
H -0.931396 1.573748 0.250589
H 0.269108 1.144694 1.122265
6
Structure 2
O -0.151225 1.392520 -1.073780
H 0.783952 1.344332 -1.281644
H -0.401135 2.318179 -1.101926
O -1.397784 -0.091877 1.701566
H -2.206076 -0.600016 1.609123
H -1.209197 0.299898 0.846560
6
Structure 3
O 0.313941 1.383464 -0.109122
H 0.840796 1.630210 0.653522
H -0.588261 1.656524 0.068533
O -1.037495 -1.402621 0.870296
H -1.008357 -0.460309 0.693415
H -0.889538 -1.519814 1.810754
6
Structure 4
O -0.656722 1.623638 -1.282337
H -1.356391 2.040274 -1.789253
H 0.166026 2.050114 -1.529913
O 1.563228 0.012506 0.435718
H 1.744863 0.589666 -0.308582
H 1.205638 -0.803990 0.081386
6
Structure 5
O -1.020103 -1.440515 -1.224654
H -1.860973 -1.275069 -0.793781
H -0.714422 -2.300704 -0.930164
O -1.076772 0.522735 0.762869
H -1.251893 0.921173 1.617660
H -0.143414 0.302965 0.737768
6
Structure 6
O -1.500656 1.200234 1.188453
H -1.810507 1.267372 2.093755
H -1.546601 2.078963 0.806594
O -0.013399 -1.778943 -0.180110
H -0.511140 -0.974349 -0.022091
H 0.868855 -1.518433 -0.451862
6
Structure 7
O 0.254769 -0.616258 -1.588798
H 0.054046 -1.151069 -0.818230
H -0.479720 -0.709764 -2.198612
O 1.867051 1.068022 0.348771
H 2.439601 0.407467 0.743666
H 1.537481 0.702613 -0.474605
6
Structure 8
O 1.620122 0.177159 0.003290
H 1.599460 -0.619319 -0.530827
H 2.379366 0.109100 0.585533
O -0.557152 0.415232 1.943027
H -0.896049 1.201308 2.375831
H -0.110699 0.701208 1.143661
6
Structure 9
O 0.679411 1.385311 0.845537
H 1.566312 1.339506 1.208021
H 0.477139 2.312507 0.705947
O 1.422545 -1.608035 -0.295559
H 1.412352 -1.206016 -1.166400
H 0.904080 -1.045495 0.283085
6
Structure 10
O 1.746806 -0.790005 0.539440
H 2.459933 -0.997409 1.146499
H 1.572066 -1.580943 0.025656
O -0.429438 1.495756 -0.608200
H 0.175920 1.288821 0.106508
H -0.728718 0.662478 -0.977209
6
Structure 11
O 0.193886 0.115810 1.622464
H 0.322664 -0.460913 2.378039
H -0.375008 -0.347902 1.004871
O 0.808027 -0.280526 -1.931553
H 1.388247 -0.999838 -2.188500
H 0.006367 -0.362522 -2.451847
6
Structure 12
O 1.339971 1.836243 -0.732148
H 0.936068 1.320410 -0.031532
H 0.787887 1.739475 -1.510563
O 0.104624 -0.114666 1.649180
H -0.355422 -0.250315 2.479869
H 1.003016 -0.429342 1.767330
6
Structure 13
O 1.454025 0.118886 -1.774943
H 2.076050 0.044667 -2.501346
H 1.160346 1.031531 -1.744582
O -1.054064 -0.561812 0.676390
H -0.535884 -1.143668 0.116908
H -1.707595 -0.137583 0.116914
6
Structure 14
O -0.586691 0.629392 -1.904720
H -0.041713 0.436584 -1.139272
H -1.459640 0.272786 -1.728985
O 0.022475 -0.353507 1.405810
H -0.036900 0.506605 1.826250
H 0.163386 -1.000022 2.100252
6
Structure 15
O -1.078515 -1.667927 -0.093192
H -0.654594 -1.997634 0.701585
H -1.962099 -2.040341 -0.119216
O -1.441387 1.737564 0.218617
H -1.229140 0.865992 0.558323
H -0.861737 1.900292 -0.528118
6
Structure 16
O 0.892758 -1.189599 1.673401
H 1.244360 -1.496206 0.835276
H 1.536054 -1.411355 2.349483
O 1.453206 0.865128 -0.411185
H 1.678536 1.045359 0.503599
H 0.563935 1.194709 -0.554927
6
Structure 17
O 1.061764 1.376138 -1.170147
H 1.375969 1.908433 -0.436645
H 0.828180 0.515450 -0.816954
O 0.582589 -1.020759 0.259548
H 1.170408 -1.778132 0.290256
H -0.311902 -1.358379 0.182180
6
Structure 18
O 1.815888 -0.619914 0.228736
H 2.128655 -1.511330 0.394993
H 2.587037 -0.050696 0.191167
O -1.070280 0.247325 -0.051683
H -1.674399 -0.211662 0.535223
H -0.714413 -0.404175 -0.659131
6
Structure 19
O 0.151269 0.629082 0.244223
H 0.846350 0.040997 -0.057613
H 0.468458 1.526863 0.128152
O 0.529678 -0.949869 -1.748170
H 0.325569 -1.884972 -1.684857
H 0.422539 -0.697336 -2.667319
6
Structure 20
O -0.699848 0.223950 -1.484043
H 0.003029 0.698201 -1.932525
H -0.480040 -0.709096 -1.518680
O -1.702181 -0.815161 1.260878
H -1.637945 0.048573 0.848659
H -2.627196 -1.068605 1.246668
