6
Structure 1 | Energy: -10.147150 Hartree
O 0.574648 -0.466889 1.044428
H 0.484350 -0.315779 0.101508
H 0.742166 -1.403339 1.167272
O 0.009229 0.408493 -1.729765
H -0.864727 0.060684 -1.917692
H 0.128599 1.187433 -2.276657
6
Structure 2 | Energy: -10.147053 Hartree
O 1.005224 -0.980126 -1.712082
H 1.795222 -0.437785 -1.755150
H 1.166503 -1.759911 -2.246886
O -0.874046 0.115491 0.265129
H -1.815858 0.104688 0.083576
H -0.429241 -0.203555 -0.522555
6
Structure 3 | Energy: -10.147043 Hartree
O 0.625311 -0.962373 -0.142897
H 0.903861 -1.874021 -0.036152
H 0.216370 -0.691917 0.681549
O -1.239137 0.045131 2.185412
H -1.945931 -0.297785 1.635013
H -1.114114 0.965637 1.946401
6
Structure 4 | Energy: -10.146870 Hartree
O -0.802327 -0.966321 -0.261661
H -1.107212 -1.663371 -0.845829
H -0.054886 -1.313616 0.229061
O 1.248455 0.123154 1.269504
H 1.091306 0.330368 2.192788
H 0.597730 0.605222 0.755445
6
Structure 5 | Energy: -10.146787 Hartree
O 0.112558 -0.459611 2.247000
H -0.279892 -0.932033 2.983808
H 0.987176 -0.827765 2.107010
O -1.711685 0.412774 -0.126679
H -1.225716 0.462649 0.698811
H -1.297353 -0.268791 -0.659490
6
Structure 6 | Energy: -10.146768 Hartree
O -1.104448 0.344961 1.796847
H -1.675661 -0.109352 1.174432
H -1.664327 0.899872 2.343383
O -0.302518 -0.104384 -1.048651
H 0.284814 0.228118 -1.730245
H -0.007721 0.265785 -0.214290
6
Structure 7 | Energy: -10.146741 Hartree
O 0.740118 0.746968 2.006738
H 1.259075 0.420831 1.268900
H 0.960881 1.673310 2.121827
O 1.517262 -0.187839 -0.902340
H 0.703359 -0.600458 -0.606713
H 1.940789 -0.797877 -1.509437
6
Structure 8 | Energy: -10.146725 Hartree
O -1.265647 0.355705 -0.345817
H -1.998309 -0.261386 -0.395738
H -1.570250 1.118852 0.149071
O -0.023626 -1.135722 2.142144
H -0.024769 -0.685971 1.294907
H 0.754540 -0.840859 2.619220
6
Structure 9 | Energy: -10.146649 Hartree
O 1.604610 0.191972 0.761740
H 1.055214 -0.458401 1.203630
H 1.081383 0.571291 0.052909
O 0.138598 1.372205 -1.571561
H -0.046116 0.537300 -2.006191
H 1.020482 1.641191 -1.836163
6
Structure 10 | Energy: -10.146567 Hartree
O -0.867899 0.246576 -0.541500
H 0.076754 0.326887 -0.395665
H -1.306659 0.658515 0.205419
O 0.879717 -1.416711 0.835081
H 0.022276 -1.724807 0.535150
H 1.486834 -2.156267 0.767594
6
Structure 11 | Energy: -10.146551 Hartree
O -1.794130 0.181410 1.378610
H -0.890220 0.346434 1.103290
H -1.921499 0.628139 2.217837
O 0.800325 -0.906873 -0.045996
H -0.104502 -1.195812 0.087751
H 1.019979 -1.076726 -0.964141
6
Structure 12 | Energy: -10.146472 Hartree
O -1.638454 -0.277616 0.496135
H -1.992969 0.305148 -0.178248
H -2.178857 -0.165957 1.280729
O 0.827526 -0.010843 2.373986
H 1.305132 0.459090 1.687588
H 0.143522 -0.526304 1.942100
6
Structure 13 | Energy: -10.146459 Hartree
O -1.691936 -0.972580 0.261490
H -1.619626 -0.099401 -0.128916
H -1.497745 -1.609432 -0.429017
O -1.315824 1.463398 -1.379057
H -1.929842 1.229875 -2.078010
H -0.461978 1.613614 -1.789507
6
Structure 14 | Energy: -10.146458 Hartree
O 1.739266 -0.085214 -0.117696
H 1.117372 0.045450 0.600818
H 1.342221 0.285967 -0.908057
O -0.259907 1.331866 1.865402
H 0.070461 2.201588 1.631887
H 0.171001 1.074357 2.682773
6
Structure 15 | Energy: -10.146450 Hartree
O 1.560494 0.498197 0.217678
H 1.125890 0.008391 0.918603
H 1.288920 0.105145 -0.614096
O -0.407393 -0.943172 -1.335997
H -0.304237 -1.801026 -1.752570
H -1.348757 -0.782276 -1.246366
6
Structure 16 | Energy: -10.146429 Hartree
O 0.767406 0.362360 -1.410032
H -0.166039 0.156830 -1.329264
H 0.848819 1.318112 -1.410463
O -0.229164 -2.013645 0.314420
H 0.376797 -2.204521 1.033075
H 0.296481 -1.703396 -0.425534
6
Structure 17 | Energy: -10.146382 Hartree
O 0.913894 -0.665175 -0.419510
H 1.647672 -0.127666 -0.114977
H 1.261583 -1.277913 -1.070475
O 1.067226 1.453532 1.231271
H 0.593242 1.909409 0.532986
H 0.583000 0.648378 1.424508
6
Structure 18 | Energy: -10.146360 Hartree
O 1.369723 -0.202095 2.040051
H 2.161342 0.059996 1.565990
H 1.027682 0.580661 2.476392
O 1.541454 0.760609 -0.597280
H 0.779628 0.291094 -0.251934
H 1.380936 0.915149 -1.530253
6
Structure 19 | Energy: -10.146348 Hartree
O -0.314972 0.189445 0.532439
H 0.338689 -0.223520 -0.035252
H -0.487465 -0.417248 1.255115
O -0.466476 -1.385430 -1.906424
H -1.209532 -1.296873 -1.306330
H -0.595305 -0.750410 -2.613701
6
Structure 20 | Energy: -10.146152 Hartree
O 2.148964 -0.820762 0.344732
H 1.547983 -1.255087 0.953230
H 2.509569 -1.498355 -0.230526
O 0.134987 1.461933 -0.494316
H 0.527466 2.119847 -1.071548
H 0.715199 0.698110 -0.498366
6
Structure 21 | Energy: -10.146127 Hartree
O -0.792357 -0.297805 1.955665
H -1.624419 -0.767025 1.868537
H -0.921674 0.390477 2.611131
O 0.322360 1.540306 -0.166781
H 0.174673 1.005560 0.615730
H 1.062468 2.120761 0.021370
6
Structure 22 | Energy: -10.146124 Hartree
O -0.058259 -1.204009 1.861833
H 0.268950 -1.469503 1.000129
H -0.917832 -0.800155 1.727199
O -1.506943 0.433533 -0.067513
H -0.852977 0.910782 -0.581955
H -2.352434 0.861732 -0.215428
6
Structure 23 | Energy: -10.146106 Hartree
O -1.230837 0.922546 -0.180735
H -0.510728 0.548483 0.330740
H -1.170815 0.556783 -1.065442
O -0.967374 -1.185226 1.925934
H -1.792137 -1.362145 1.469258
H -1.188732 -0.767197 2.760404
6
Structure 24 | Energy: -10.145988 Hartree
O 0.777613 0.737206 0.751773
H 0.180926 1.259592 0.212178
H 0.332832 -0.089680 0.948043
O -1.435696 -0.397849 -0.996161
H -0.743061 -0.912416 -1.415166
H -2.220575 -0.480947 -1.541274
6
Structure 25 | Energy: -10.145986 Hartree
O 1.240049 -1.767020 -0.256747
H 1.798417 -2.525396 -0.438893
H 1.351103 -1.548726 0.670672
O -0.108631 0.252882 1.057246
H 0.591413 0.363506 0.410880
H -0.874084 -0.089165 0.591227
6
Structure 26 | Energy: -10.145985 Hartree
O 0.153589 0.535234 -0.508123
H -0.445086 0.876768 -1.175228
H 0.999017 0.384622 -0.935508
O -0.602308 -0.895427 2.130553
H -0.194862 -0.156243 1.674832
H -0.330103 -1.694692 1.675395
6
Structure 27 | Energy: -10.145967 Hartree
O 0.639592 -1.235935 1.601343
H 1.538591 -1.457023 1.350330
H 0.130217 -1.156418 0.792452
O -0.752183 0.820163 -0.306122
H -0.190329 1.397484 0.214557
H -1.624366 1.218670 -0.330124
6
Structure 28 | Energy: -10.145960 Hartree
O -0.030865 -0.952864 0.686717
H 0.031784 -1.797069 1.137805
H -0.846867 -0.537747 0.972915
O 1.511320 0.223751 -1.620007
H 1.681123 0.157416 -0.678278
H 0.884079 -0.466253 -1.844843
6
Structure 29 | Energy: -10.145959 Hartree
O -0.727786 -0.555223 0.972735
H -0.800430 0.386308 0.804425
H -1.561300 -0.841184 1.351643
O 1.191098 0.070155 -1.340388
H 0.729770 -0.525634 -0.746840
H 1.446621 0.839877 -0.828211
6
Structure 30 | Energy: -10.145956 Hartree
O -0.501378 -1.313802 -1.092454
H -0.262281 -1.307799 -0.163539
H 0.284900 -1.553963 -1.586600
O -1.386702 0.491015 1.515005
H -1.355007 0.675376 0.574211
H -2.311051 0.406467 1.756913
6
Structure 31 | Energy: -10.145941 Hartree
O 0.160791 -0.499655 -0.487954
H 0.981171 -0.521995 0.008598
H -0.496086 -0.971961 0.027343
O 1.061679 1.596906 0.845032
H 0.425417 1.556057 0.128380
H 1.212482 2.524225 1.038488
6
Structure 32 | Energy: -10.145932 Hartree
O -0.683491 2.025955 -1.085255
H -0.159666 1.228707 -0.984804
H -0.702488 2.462801 -0.231501
O -2.041848 -0.159630 0.636344
H -2.115259 0.358967 -0.167245
H -2.125913 -1.082231 0.387690
6
Structure 33 | Energy: -10.145926 Hartree
O 0.508295 0.462839 1.149356
H 0.564366 0.806060 2.043303
H -0.129644 1.001899 0.677615
O 1.496710 -1.013992 -1.157147
H 0.621613 -0.708208 -1.403703
H 1.575892 -0.912054 -0.206659
6
Structure 34 | Energy: -10.145888 Hartree
O 0.199962 0.288841 1.217013
H -0.463128 0.149760 1.896023
H 1.031448 0.461339 1.663068
O 2.059762 -0.765411 -1.174431
H 1.323942 -0.656042 -0.568879
H 2.651598 -0.022729 -1.039368
6
Structure 35 | Energy: -10.145872 Hartree
O 0.765313 -0.388727 -0.938250
H 0.475140 0.492823 -0.695856
H 1.050253 -0.352367 -1.853443
O 0.617085 2.050790 0.551399
H 0.356393 2.971753 0.488505
H 1.503349 2.030826 0.917767
6
Structure 36 | Energy: -10.145855 Hartree
O -0.118402 -0.839792 -1.776101
H -0.031633 -0.014068 -2.256451
H -0.029653 -1.550357 -2.414311
O -0.484247 0.867319 0.890298
H -0.385734 0.036632 0.420893
H 0.163127 0.872138 1.598092
6
Structure 37 | Energy: -10.145839 Hartree
O 0.569619 -0.703604 1.986826
H 0.263446 -1.544426 1.641339
H -0.124021 -0.060889 1.825982
O -1.165500 1.069422 -0.195841
H -1.363148 2.007332 -0.159125
H -0.280307 0.979482 -0.554216
6
Structure 38 | Energy: -10.145815 Hartree
O 0.335501 -1.329545 0.020734
H -0.175875 -2.124010 0.186284
H -0.282042 -0.643417 -0.239957
O -2.111064 0.007079 -1.302944
H -3.014470 0.327541 -1.267594
H -1.549815 0.760422 -1.496755
6
Structure 39 | Energy: -10.145792 Hartree
O -0.781799 2.299714 0.303164
H -1.009013 1.370331 0.234555
H -1.513160 2.798909 -0.065626
O -1.421357 -0.113965 -1.244060
H -1.102320 -0.969631 -0.950565
H -1.902654 -0.255418 -2.061637
6
Structure 40 | Energy: -10.145749 Hartree
O -1.727017 -0.276598 -1.803247
H -0.813055 -0.044132 -1.978514
H -1.720401 -1.082521 -1.283116
O -0.686276 0.060323 0.905180
H -0.856088 -0.133725 1.829083
H -1.356538 0.683493 0.617959
6
Structure 41 | Energy: -10.145729 Hartree
O -1.298950 0.675313 -1.534425
H -1.279884 0.783924 -2.487277
H -1.572841 1.514144 -1.158344
O -1.284723 -0.082634 1.380519
H -0.852143 0.272616 0.601572
H -2.183261 -0.305690 1.129591
6
Structure 42 | Energy: -10.145697 Hartree
O -0.638724 1.059269 -1.950281
H -0.922614 1.974379 -1.904824
H -1.105333 0.582535 -1.261012
O -0.386184 -1.023686 0.538107
H 0.054442 -1.329982 1.333166
H 0.265570 -0.551758 0.016007
6
Structure 43 | Energy: -10.145689 Hartree
O -0.194026 -2.513714 -0.078122
H -0.662812 -2.058329 0.623983
H -0.773123 -2.529447 -0.842642
O -0.526211 0.413474 0.018075
H -0.417330 0.796246 0.890840
H 0.299011 -0.020831 -0.206592
6
Structure 44 | Energy: -10.145678 Hartree
O -0.643892 1.260968 -0.379289
H -1.181454 0.479214 -0.520617
H 0.179034 0.971516 0.019586
O 1.482745 -0.398775 1.564854
H 0.988809 -1.209004 1.705009
H 1.695351 -0.042495 2.429696
6
Structure 45 | Energy: -10.145671 Hartree
O 0.139502 1.297582 1.665255
H -0.285483 1.624359 2.460674
H -0.230359 1.783436 0.925499
O 1.031275 -0.437813 -0.640248
H 1.938560 -0.126951 -0.657185
H 0.810825 -0.621032 0.275132
6
Structure 46 | Energy: -10.145627 Hartree
O 0.368261 0.702198 0.357522
H -0.369054 0.093417 0.433927
H 0.102794 1.523730 0.775497
O -0.741978 -2.272008 -0.670062
H -0.513895 -2.751492 -1.468911
H 0.074551 -1.928808 -0.301847
6
Structure 47 | Energy: -10.145597 Hartree
O -1.990167 0.511661 -0.096410
H -2.937046 0.646480 -0.023399
H -1.640164 0.465875 0.795494
O 0.593316 -0.092098 1.073178
H 0.600591 0.585561 0.394346
H 1.328916 -0.681176 0.894383
6
Structure 48 | Energy: -10.145587 Hartree
O -0.255604 0.595813 -1.046020
H 0.672596 0.823356 -0.963830
H -0.587832 0.433900 -0.160866
O 0.259031 -1.115526 1.450306
H -0.609754 -1.497500 1.311042
H 0.879772 -1.621592 0.922418
6
Structure 49 | Energy: -10.145584 Hartree
O 1.933586 0.514982 -0.916279
H 1.031189 0.412762 -1.225015
H 2.498001 0.539165 -1.691483
O -1.163476 1.053223 -0.993904
H -1.020216 1.712460 -0.312017
H -1.449498 1.518003 -1.782738
6
Structure 50 | Energy: -10.145533 Hartree
O -1.603540 -0.898236 0.025645
H -1.054440 -1.681038 -0.050483
H -2.389156 -1.148896 0.515612
O -1.006514 1.951712 -0.406767
H -0.358709 1.255297 -0.282498
H -1.797441 1.543439 -0.764308
6
Structure 51 | Energy: -10.145531 Hartree
O -0.262603 1.548256 1.825257
H -0.597059 2.391548 2.136839
H -1.021266 0.983995 1.663607
O 0.006225 -0.296265 -0.981687
H 0.489578 -1.106367 -1.155443
H 0.397066 0.106419 -0.203756
6
Structure 52 | Energy: -10.145509 Hartree
O -0.352546 1.927474 -0.940886
H -0.003268 1.076996 -0.667431
H 0.389130 2.455132 -1.243515
O 0.525997 -0.632514 1.058794
H 0.609500 0.220362 1.489742
H -0.337295 -0.982808 1.287069
6
Structure 53 | Energy: -10.145502 Hartree
O 0.063826 -0.940362 2.148007
H -0.297869 -0.061506 2.018105
H -0.300706 -1.279207 2.968002
O -0.096679 1.522857 -0.096733
H 0.818643 1.798347 -0.176598
H -0.196740 0.717866 -0.608655
6
Structure 54 | Energy: -10.145500 Hartree
O 1.298371 0.407338 0.918263
H 1.537185 0.328056 -0.007355
H 0.995342 -0.455290 1.208327
O 0.363082 -0.600142 -2.160834
H -0.063822 -0.795099 -2.997393
H -0.246169 -0.064415 -1.649073
6
Structure 55 | Energy: -10.145474 Hartree
O -0.097074 -0.256439 0.838431
H -0.851904 -0.597521 1.322147
H 0.232081 0.502515 1.323957
O 0.133784 0.152374 -2.262421
H 0.726327 -0.453163 -1.812637
H -0.336981 0.643797 -1.586425
6
Structure 56 | Energy: -10.145355 Hartree
O 0.954906 -1.945521 -0.378819
H 1.018201 -2.773457 0.101390
H 0.799214 -2.162665 -1.300068
O 0.838781 0.759147 1.635155
H 1.320175 0.114668 1.112667
H 0.072024 0.313198 2.000259
6
Structure 57 | Energy: -10.145347 Hartree
O -0.040493 -0.469832 -0.533210
H 0.187351 -0.742098 0.357882
H 0.143399 0.469283 -0.599057
O 0.882042 0.784743 1.815827
H 1.198922 1.659980 2.047417
H 1.203419 0.179484 2.486995
6
Structure 58 | Energy: -10.145332 Hartree
O 1.360828 0.971862 -1.190860
H 1.939878 0.889582 -0.430586
H 1.260055 0.095393 -1.567341
O 0.420782 -1.464462 0.285535
H -0.428229 -1.272078 -0.117275
H 0.291294 -1.462198 1.235965
6
Structure 59 | Energy: -10.145304 Hartree
O 1.449118 1.864339 0.386196
H 1.166913 2.112103 1.268840
H 2.231990 1.318265 0.481095
O -0.977829 0.020959 0.713171
H -0.222563 0.474623 0.333897
H -0.644909 -0.758666 1.161990
6
Structure 60 | Energy: -10.145274 Hartree
O 1.147044 0.439828 -0.631626
H 1.002764 0.672187 0.287764
H 1.144295 -0.517817 -0.686386
O 0.532915 -0.908012 1.735594
H 0.482483 -0.488596 2.596776
H 0.725516 -1.836135 1.882500
6
Structure 61 | Energy: -10.145241 Hartree
O -0.644893 -1.158405 -2.048464
H -0.752333 -1.747915 -1.299451
H -0.314268 -0.324595 -1.708554
O -0.495031 0.773304 0.298792
H 0.397492 0.536983 0.558872
H -0.693382 1.620797 0.701907
6
Structure 62 | Energy: -10.145225 Hartree
O 0.533134 -0.171428 1.012492
H 0.412061 0.223062 1.878405
H 0.614485 0.546851 0.381979
O -0.922807 0.608050 -1.407037
H -0.484874 -0.195446 -1.694605
H -1.846011 0.533226 -1.656405
6
Structure 63 | Energy: -10.145221 Hartree
O 0.297452 1.357472 0.000516
H -0.055221 1.692539 0.827219
H 0.265376 2.076104 -0.634015
O -1.480398 -0.637062 -1.770346
H -2.220735 -0.027378 -1.753740
H -0.725624 -0.177612 -1.397104
6
Structure 64 | Energy: -10.145181 Hartree
O -1.443656 1.146101 1.365498
H -0.704558 0.769157 0.884110
H -1.536310 2.056097 1.076683
O -1.165676 -1.383057 -0.717719
H -1.604910 -1.760723 -1.482263
H -1.800325 -0.814033 -0.277810
6
Structure 65 | Energy: -10.145175 Hartree
O -1.003605 -0.434583 -0.802692
H -1.643430 -0.709503 -0.143048
H -0.287738 0.003907 -0.338633
O -0.511630 0.624105 1.770136
H -1.361437 0.975002 2.043607
H -0.268197 -0.055287 2.402002
6
Structure 66 | Energy: -10.145168 Hartree
O -0.500893 -1.886427 1.578344
H 0.059480 -2.318448 2.225976
H -0.080655 -1.055400 1.348377
O -0.276148 0.856613 -0.277952
H -0.397078 0.500975 -1.160553
H -0.736586 1.697443 -0.244958
6
Structure 67 | Energy: -10.145157 Hartree
O -0.755424 0.105568 2.184557
H -0.636447 0.980112 2.560194
H -0.965353 -0.488189 2.908070
O -0.524227 -0.352929 -0.659776
H -0.319748 -0.462557 0.270953
H -0.040067 -1.028592 -1.138479
6
Structure 68 | Energy: -10.145133 Hartree
O 0.442733 2.079231 0.582470
H 1.389752 1.973396 0.472743
H 0.244730 3.009664 0.459264
O 0.035196 -0.796967 -0.467016
H 0.409607 0.078325 -0.349683
H -0.857226 -0.681970 -0.799350
6
Structure 69 | Energy: -10.145132 Hartree
O 0.001099 -0.951260 -1.800166
H -0.316308 -1.675721 -1.257493
H 0.848463 -1.217646 -2.162248
O -0.117497 0.597198 0.467938
H -0.969399 1.021824 0.349435
H 0.355248 0.671979 -0.363331
6
Structure 70 | Energy: -10.145125 Hartree
O -0.266916 2.011714 0.745717
H 0.128559 2.453047 -0.008546
H 0.442203 1.804534 1.357532
O -0.208245 -0.366428 -1.634563
H -0.117326 -0.100639 -0.717406
H -1.125980 -0.610385 -1.769971
6
Structure 71 | Energy: -10.145121 Hartree
O 1.208340 0.242023 -0.386789
H 1.227915 0.242315 0.572222
H 0.332125 -0.043472 -0.652928
O -1.891628 -0.512643 0.730802
H -1.979538 -0.289640 1.659581
H -2.405637 -1.308312 0.579829
6
Structure 72 | Energy: -10.145108 Hartree
O -1.586580 0.704728 0.869425
H -1.828784 1.276717 1.600350
H -1.351390 1.270785 0.131620
O 0.150181 -1.010914 -1.290911
H 0.502816 -0.489158 -0.567373
H -0.782508 -1.148210 -1.113914
6
Structure 73 | Energy: -10.145081 Hartree
O -1.172185 0.628645 0.779847
H -0.288543 0.334609 1.009643
H -1.089296 1.503013 0.394229
O -0.736055 -1.956822 -1.426055
H -1.234263 -1.160143 -1.233240
H -1.274431 -2.701858 -1.151899
6
Structure 74 | Energy: -10.145061 Hartree
O -0.333211 -0.727157 0.561280
H -1.169748 -1.161004 0.740357
H 0.221308 -1.359010 0.099368
O -1.171088 1.132807 -1.778502
H -1.629843 0.934289 -0.959832
H -0.241446 0.944172 -1.636125
6
Structure 75 | Energy: -10.145050 Hartree
O 2.270277 0.869534 -0.839155
H 2.874122 0.125540 -0.795220
H 1.380730 0.518057 -0.766631
O -0.947277 0.965251 -1.170840
H -1.318110 0.337376 -1.794012
H -1.216920 1.840745 -1.455252
6
Structure 76 | Energy: -10.145048 Hartree
O 1.932720 1.166051 -0.403502
H 1.127162 0.688543 -0.611224
H 2.432369 1.248135 -1.218182
O -0.971310 1.175873 -1.013271
H -1.439074 1.925334 -0.639649
H -0.828538 1.364812 -1.942790
6
Structure 77 | Energy: -10.145030 Hartree
O 0.844097 -0.079681 -0.270377
H 0.257380 0.666818 -0.134039
H 0.299773 -0.824495 -0.533160
O -2.037738 0.961324 -0.292896
H -2.421327 0.142899 0.028237
H -2.088908 1.598757 0.422051
6
Structure 78 | Energy: -10.144999 Hartree
O 1.295491 0.798401 1.052677
H 0.633371 0.748194 0.360461
H 1.000313 1.460731 1.680594
O 0.468866 -0.306296 -1.978723
H -0.058436 -1.057562 -2.257362
H 1.018389 -0.599827 -1.249373
6
Structure 79 | Energy: -10.144982 Hartree
O 0.526129 2.115561 0.959740
H 1.340004 1.686499 0.688446
H 0.769095 2.868810 1.501658
O 1.302906 -0.421453 -0.550155
H 1.708811 -0.224203 -1.396572
H 0.356858 -0.301955 -0.654081
6
Structure 80 | Energy: -10.144977 Hartree
O -1.467465 0.858855 -1.856423
H -2.259208 0.317380 -1.862309
H -0.864092 0.472861 -1.218427
O 1.104590 1.549694 -0.255421
H 0.290527 1.750433 0.210511
H 1.249095 2.253479 -0.890947
6
Structure 81 | Energy: -10.144947 Hartree
O -0.234445 0.790780 -0.305642
H 0.431447 0.115032 -0.164080
H -0.878555 0.707137 0.400202
O -1.671669 -1.426201 -0.885404
H -2.339441 -2.019388 -1.235115
H -1.870201 -0.548135 -1.216573
6
Structure 82 | Energy: -10.144925 Hartree
O -1.959692 0.990621 -0.604833
H -2.089297 0.320049 -1.278347
H -2.061941 1.844152 -1.030416
O -0.781421 -0.933988 1.443797
H -1.529077 -0.494765 1.853898
H -0.835573 -0.766166 0.500934
6
Structure 83 | Energy: -10.144923 Hartree
O 1.215230 -0.616732 1.217487
H 0.806384 -0.791262 0.367505
H 1.327801 -1.461661 1.657387
O 0.372626 1.391856 -1.440556
H 0.626674 1.694063 -0.566360
H -0.194904 2.065552 -1.820203
6
Structure 84 | Energy: -10.144885 Hartree
O 1.423444 0.802803 -0.468465
H 0.983242 -0.047683 -0.523068
H 1.250634 1.265407 -1.290794
O 0.367291 -1.195446 1.572357
H -0.272606 -1.313630 2.277092
H 1.199639 -0.952087 1.982309
6
Structure 85 | Energy: -10.144876 Hartree
O -1.804352 -0.378831 1.403851
H -1.990120 -0.385910 0.462827
H -0.856916 -0.487368 1.507175
O -0.501272 0.193611 -1.701545
H 0.446572 0.056185 -1.648699
H -0.732549 0.223348 -2.631983
6
Structure 86 | Energy: -10.144868 Hartree
O -0.053558 -1.407790 -2.034801
H -0.421772 -0.573086 -1.738535
H 0.874284 -1.411263 -1.791513
O -0.746319 0.115928 0.369839
H -1.102473 -0.284547 1.165365
H -0.739293 1.065070 0.508287
6
Structure 87 | Energy: -10.144848 Hartree
O -1.034021 1.554800 0.708816
H -0.327079 2.189446 0.576368
H -1.695749 1.977559 1.259707
O 0.910089 -0.704834 -1.299019
H 0.589857 -0.006610 -0.724544
H 0.564388 -1.532765 -0.959742
6
Structure 88 | Energy: -10.144823 Hartree
O 0.342794 1.624297 1.517921
H 0.714495 1.862247 2.369569
H 1.071267 1.353458 0.955724
O 0.263930 -0.551510 -0.032487
H 0.035373 -1.380249 -0.457977
H -0.554605 -0.075166 0.119777
6
Structure 89 | Energy: -10.144808 Hartree
O -1.499177 1.306307 0.540635
H -1.464443 1.631337 1.442430
H -1.304199 0.367557 0.569338
O -0.597574 -1.695233 -0.677166
H 0.287525 -2.063656 -0.646308
H -1.050975 -2.106767 -1.415512
6
Structure 90 | Energy: -10.144797 Hartree
O 0.945661 -1.101970 -1.351374
H 0.061175 -1.423772 -1.536342
H 0.853463 -0.296878 -0.838132
O 0.513770 1.985409 0.582665
H 0.784952 1.619328 1.426781
H 1.261865 2.471553 0.230376
6
Structure 91 | Energy: -10.144784 Hartree
O 1.540429 1.648186 -0.220674
H 0.687248 1.716253 0.212380
H 1.611534 0.757590 -0.569777
O -0.610656 -0.552231 1.138670
H -0.395659 -1.360963 0.669824
H -0.680659 -0.773494 2.069385
6
Structure 92 | Energy: -10.144783 Hartree
O 0.313200 -1.219946 0.134257
H 1.009214 -0.867977 0.692619
H 0.715426 -1.462849 -0.701986
O 1.524456 0.895368 -1.743065
H 0.697405 0.979399 -1.264512
H 1.345983 0.376340 -2.529732
6
Structure 93 | Energy: -10.144778 Hartree
O 1.095426 0.981260 0.373612
H 0.536218 0.307188 -0.017540
H 0.522405 1.582133 0.853914
O 0.462746 -2.270061 -0.660710
H 1.344794 -2.524369 -0.938930
H 0.007005 -3.070912 -0.394201
6
Structure 94 | Energy: -10.144769 Hartree
O -1.629823 -1.161396 -0.383582
H -1.184632 -1.567631 -1.129816
H -2.522411 -1.511865 -0.360177
O 0.984176 1.264936 0.462846
H 0.051255 1.144058 0.275403
H 1.240249 0.580019 1.083654
6
Structure 95 | Energy: -10.144759 Hartree
O -0.832371 -1.680421 1.409279
H 0.101254 -1.487610 1.515373
H -1.073364 -2.304741 2.096475
O 0.967725 0.210731 -0.035642
H 1.045410 -0.575621 -0.579427
H 0.264397 0.745739 -0.408716
6
Structure 96 | Energy: -10.144752 Hartree
O 0.761723 -0.917968 1.367788
H 1.556954 -1.154697 1.849092
H 0.223255 -0.383165 1.954412
O 2.007097 0.652939 -1.381735
H 2.081310 -0.297861 -1.278978
H 1.275955 0.941838 -0.832138
6
Structure 97 | Energy: -10.144735 Hartree
O -1.381934 0.514514 -1.301422
H -0.837998 1.055850 -1.876899
H -2.297261 0.688550 -1.529410
O 0.206036 -0.754929 0.965987
H -0.076399 -0.110465 0.314079
H 0.409090 -0.274447 1.770968
6
Structure 98 | Energy: -10.144731 Hartree
O -0.040398 -0.254488 1.234242
H 0.560046 -0.991028 1.103612
H -0.634053 -0.234942 0.481061
O 0.596494 0.060766 -1.672746
H 1.103642 -0.627113 -2.108304
H 1.146438 0.846264 -1.647387
6
Structure 99 | Energy: -10.144723 Hartree
O 0.252420 -1.133767 0.517055
H -0.285128 -1.924048 0.435919
H 1.081441 -1.306646 0.066580
O -1.311413 0.292579 -1.637720
H -0.542412 0.100604 -1.097469
H -1.007963 0.797990 -2.394401
6
Structure 100 | Energy: -10.144716 Hartree
O 1.314038 -0.071403 0.151339
H 1.365287 0.056099 -0.797978
H 0.856502 0.688828 0.515756
O -1.033630 -1.500782 1.697591
H -0.391652 -1.315510 1.009387
H -1.848648 -1.760212 1.263391
6
Structure 101 | Energy: -10.144706 Hartree
O -0.493068 -0.033824 -0.843444
H -1.195092 0.322646 -1.391329
H 0.296183 -0.078832 -1.386718
O -0.172232 1.576086 2.016741
H -0.215659 0.687976 1.656934
H 0.537000 2.033080 1.560414
6
Structure 102 | Energy: -10.144680 Hartree
O 0.337498 1.052707 0.093016
H 0.687131 1.830681 0.531877
H -0.368070 1.346530 -0.486580
O 0.064491 -1.562133 0.914080
H -0.077120 -0.729831 1.369390
H 0.040791 -1.378652 -0.027122
6
Structure 103 | Energy: -10.144669 Hartree
O 0.555755 -2.444498 -0.266559
H 1.238492 -2.515835 -0.936535
H 0.325385 -1.516231 -0.193476
O -0.942058 0.510947 0.407770
H -1.825585 0.329740 0.081227
H -0.715939 1.402513 0.135614
6
Structure 104 | Energy: -10.144659 Hartree
O -1.009735 -1.735440 0.879414
H -0.701091 -1.729871 -0.028767
H -0.234611 -1.696185 1.443092
O -0.762592 0.528838 -1.141490
H -1.509166 -0.072767 -1.113436
H -1.116594 1.420109 -1.161661
6
Structure 105 | Energy: -10.144657 Hartree
O -0.446362 -0.343085 1.357179
H -0.126441 -0.634718 0.501208
H -0.050329 0.512913 1.531867
O 0.147584 1.495569 -1.443732
H 0.868853 1.574023 -2.071191
H -0.534568 2.112291 -1.716516
6
Structure 106 | Energy: -10.144647 Hartree
O -1.095039 0.831584 1.759104
H -0.760036 -0.067213 1.763958
H -0.409808 1.388104 1.383825
O -0.662007 -0.911086 -1.136589
H -1.197624 -0.118856 -1.061933
H -1.257226 -1.661835 -1.089908
6
Structure 107 | Energy: -10.144640 Hartree
O -1.876351 -1.360929 -0.202997
H -1.953798 -0.414198 -0.336370
H -2.653271 -1.767114 -0.592227
O 0.985784 -0.779148 -1.495145
H 0.558013 -0.632131 -0.649281
H 1.404217 -1.641385 -1.455793
6
Structure 108 | Energy: -10.144631 Hartree
O 0.414165 0.117937 -2.267546
H 0.648132 0.279160 -3.183707
H -0.253739 -0.570512 -2.261866
O -0.042830 -0.075902 1.157615
H 0.811392 -0.474086 0.979172
H -0.415361 0.187339 0.313807
6
Structure 109 | Energy: -10.144625 Hartree
O -2.172947 -0.485964 0.817388
H -1.771101 -0.082246 1.589151
H -3.043288 -0.096295 0.713678
O -0.255896 0.766841 -1.508492
H 0.133321 1.501541 -1.030148
H -0.503521 0.104910 -0.859942
6
Structure 110 | Energy: -10.144625 Hartree
O 0.199211 -0.624158 1.728277
H -0.579961 -0.651369 1.169495
H 0.614180 -1.487577 1.679292
O -2.284908 0.063835 -0.959147
H -2.347978 0.737311 -0.279045
H -2.273513 0.515043 -1.805534
6
Structure 111 | Energy: -10.144592 Hartree
O -0.787067 0.842032 0.317306
H 0.166118 0.921414 0.389571
H -1.018872 -0.049711 0.584049
O 0.899292 -0.987653 -1.600434
H 0.574955 -1.852595 -1.858829
H 0.629337 -0.368062 -2.281109
6
Structure 112 | Energy: -10.144591 Hartree
O -1.393126 0.452395 0.920869
H -1.324340 -0.395261 0.477209
H -1.902561 1.031150 0.350248
O 0.991537 -1.875473 -0.181166
H 0.987251 -0.934114 -0.365322
H 1.264928 -1.985090 0.731702
6
Structure 113 | Energy: -10.144551 Hartree
O 0.074793 0.537512 -0.870650
H -0.066491 -0.044459 -0.121361
H 0.952305 0.353658 -1.211619
O 1.615505 -1.588890 0.143055
H 1.556112 -1.754871 -0.799818
H 2.436111 -1.980006 0.449194
6
Structure 114 | Energy: -10.144550 Hartree
O -0.057058 0.108959 -2.289357
H -0.704458 -0.587970 -2.165869
H 0.159109 0.453061 -1.420475
O -0.113313 -0.851210 1.299317
H 0.828621 -0.989970 1.415910
H -0.520358 -0.923430 2.164872
6
Structure 115 | Energy: -10.144548 Hartree
O -0.642058 1.262397 -0.866164
H -1.011716 0.411309 -0.623086
H 0.113908 1.416944 -0.296321
O 1.842571 -0.759945 0.041924
H 1.451354 -1.515761 -0.400545
H 2.780457 -0.938789 0.133971
6
Structure 116 | Energy: -10.144541 Hartree
O -0.155158 1.167097 -0.443484
H -0.266092 0.553233 -1.172148
H 0.784505 1.221863 -0.258754
O -1.794204 -1.502315 0.630313
H -1.088834 -1.772095 1.221718
H -1.539213 -0.659469 0.249947
6
Structure 117 | Energy: -10.144526 Hartree
O -0.600677 -0.209482 0.717833
H -0.287217 -0.241763 -0.188140
H -1.486950 0.156920 0.698877
O -0.774707 1.128304 -1.581705
H 0.089175 1.298039 -1.962472
H -1.404613 1.680402 -2.049139
6
Structure 118 | Energy: -10.144511 Hartree
O 0.943571 0.512118 1.060136
H 1.583985 1.183371 0.816464
H 0.555742 0.181263 0.247600
O -0.662632 -1.167073 -1.732618
H 0.013962 -1.724035 -1.342617
H -1.510516 -1.489632 -1.420952
6
Structure 119 | Energy: -10.144508 Hartree
O 0.071230 -1.298631 1.716971
H -0.679188 -1.634853 1.223095
H -0.258967 -0.998580 2.566106
O -0.679419 0.074979 -1.379010
H -0.592334 0.234510 -0.437175
H 0.194054 0.166814 -1.764626
6
Structure 120 | Energy: -10.144504 Hartree
O -0.808663 -0.255379 0.450745
H -1.448699 0.383295 0.130530
H -0.946223 -1.066842 -0.041898
O 0.766648 0.435172 -2.169269
H 1.650279 0.109090 -2.350801
H 0.427461 -0.063595 -1.423432
6
Structure 121 | Energy: -10.144495 Hartree
O 0.517910 -1.110937 0.788964
H 0.390376 -1.887049 1.338028
H -0.143868 -0.467125 1.049054
O 0.532304 1.517225 -1.706559
H 1.487840 1.497041 -1.625125
H 0.189670 0.766087 -1.218214
6
Structure 122 | Energy: -10.144486 Hartree
O 1.814031 -1.202390 -1.155753
H 1.537846 -1.962996 -0.640693
H 1.022226 -0.711914 -1.385031
O 1.126602 0.106930 1.548146
H 1.919438 -0.274664 1.166198
H 0.993464 -0.309993 2.401689
6
Structure 123 | Energy: -10.144478 Hartree
O 0.294652 0.762643 -0.702322
H -0.591675 0.664870 -0.348838
H 0.859428 0.150688 -0.226266
O 0.220099 -0.020004 2.183181
H 0.969523 0.441714 2.564319
H 0.332515 -0.952661 2.377093
6
Structure 124 | Energy: -10.144476 Hartree
O 0.131542 -0.199653 0.858518
H -0.174261 -0.715115 0.109606
H 0.409009 0.654362 0.521233
O 0.725356 0.815719 -1.807073
H 0.568619 1.579380 -2.365951
H 0.285953 0.068359 -2.217518
6
Structure 125 | Energy: -10.144470 Hartree
O -0.350229 2.060412 -0.526330
H -0.490798 2.793679 -1.128531
H -0.215091 2.432342 0.347453
O -0.825678 -0.870023 0.750887
H -1.567297 -0.265636 0.820207
H -0.496560 -0.813858 -0.148343
6
Structure 126 | Energy: -10.144449 Hartree
O -0.969299 -0.717933 -0.077836
H -0.819774 -1.658505 -0.192087
H -1.866346 -0.536011 -0.364717
O -0.036825 1.859239 1.604750
H -0.063269 1.326882 0.807264
H 0.129901 2.764905 1.336312
6
Structure 127 | Energy: -10.144448 Hartree
O 0.424703 1.988757 0.821910
H 1.373585 2.107575 0.896688
H 0.010210 2.763110 1.207479
O -1.008410 -0.077237 -0.053454
H -0.673554 0.722271 -0.464240
H -1.137340 0.114315 0.877552
6
Structure 128 | Energy: -10.144420 Hartree
O 2.303386 -0.138967 -0.299633
H 2.223486 -1.092750 -0.362876
H 1.894032 0.126226 0.526317
O -0.239157 2.045139 1.139224
H 0.198126 2.470015 0.398717
H -0.572826 2.740723 1.709238
6
Structure 129 | Energy: -10.144419 Hartree
O 0.331509 -2.119635 -0.317149
H -0.219588 -2.614910 -0.926314
H -0.179766 -1.363601 -0.022019
O -2.012830 0.185704 1.074659
H -2.582221 0.302673 0.311639
H -2.216213 0.891380 1.691704
6
Structure 130 | Energy: -10.144411 Hartree
O 0.432430 -0.422459 0.712874
H 1.150060 -0.766210 0.177217
H -0.161572 -1.153329 0.894761
O 0.662479 1.365930 -1.760211
H 0.062915 1.287064 -2.504785
H 0.125027 1.468258 -0.972327
6
Structure 131 | Energy: -10.144396 Hartree
O -0.292598 -0.960632 -0.799052
H 0.281172 -1.259461 -1.507271
H 0.271684 -0.664205 -0.082249
O -0.491893 1.877905 1.103735
H -0.393373 2.830903 1.150373
H -1.188794 1.695029 0.470510
6
Structure 132 | Energy: -10.144382 Hartree
O 0.207620 0.333335 -1.864239
H 0.002211 -0.417934 -1.304339
H 1.065079 0.665245 -1.590945
O 0.343075 -1.648275 1.369145
H -0.480487 -2.135889 1.305375
H 0.748048 -1.882971 2.206404
6
Structure 133 | Energy: -10.144380 Hartree
O -0.110215 1.522322 -0.667512
H 0.180807 2.034609 -1.424450
H -1.061601 1.626225 -0.603017
O 1.087579 -1.971502 0.339122
H 1.537352 -1.868588 -0.501830
H 0.762824 -1.106069 0.595343
6
Structure 134 | Energy: -10.144378 Hartree
O 0.181435 -2.071240 -0.820201
H 0.818603 -2.568266 -0.303415
H -0.311357 -1.519715 -0.209409
O 0.602197 0.365945 1.760194
H 0.331103 0.992818 1.086677
H 0.590752 0.828879 2.600223
6
Structure 135 | Energy: -10.144373 Hartree
O 0.045553 1.053359 0.583509
H 0.897416 0.863174 0.185708
H -0.448916 1.584052 -0.044150
O 1.147177 -1.052032 -1.666468
H 0.357454 -0.534579 -1.497157
H 1.096446 -1.836068 -1.116194
6
Structure 136 | Energy: -10.144370 Hartree
O 0.008602 2.282982 -0.224452
H -0.144603 3.074536 -0.744121
H 0.728078 2.474974 0.380183
O -1.333966 -1.203353 0.745120
H -1.233880 -0.289426 1.018629
H -1.188186 -1.233869 -0.202458
6
Structure 137 | Energy: -10.144367 Hartree
O 0.009064 -1.954258 0.291501
H 0.291313 -2.067273 1.201253
H 0.030440 -1.014161 0.102159
O -0.209275 -0.108222 2.191762
H -1.000982 0.384099 1.966136
H 0.284509 0.420900 2.821282
6
Structure 138 | Energy: -10.144363 Hartree
O 0.592477 0.119945 -1.182461
H -0.090273 0.783412 -1.299718
H 1.435072 0.546853 -1.349415
O -0.298291 -1.208906 1.930891
H -0.100480 -0.488101 2.532055
H -0.181434 -0.875289 1.039189
6
Structure 139 | Energy: -10.144357 Hartree
O -0.823685 -1.175808 0.102948
H 0.068204 -1.335659 0.417699
H -1.378504 -1.874915 0.454396
O 0.637760 1.707514 -1.565781
H 0.580449 0.773197 -1.356367
H -0.212368 1.971136 -1.923377
6
Structure 140 | Energy: -10.144355 Hartree
O 0.590804 -0.219218 0.519261
H 1.117937 0.106225 1.251588
H 1.195362 -0.612235 -0.113303
O 0.186618 1.886855 -1.270344
H -0.305341 1.605522 -0.496447
H -0.200288 2.712476 -1.568237
6
Structure 141 | Energy: -10.144355 Hartree
O -0.592641 1.930902 0.292253
H -0.622224 2.090497 -0.653126
H -0.570705 0.980394 0.419313
O 0.183555 -0.125703 -2.424670
H -0.442305 -0.778164 -2.745109
H 0.960298 -0.601117 -2.123438
6
Structure 142 | Energy: -10.144350 Hartree
O 0.244651 -1.197131 0.590546
H -0.036592 -1.933021 1.137770
H 0.051571 -1.429983 -0.319724
O -2.274069 0.024153 -0.060917
H -1.444388 0.305230 -0.451703
H -2.062961 -0.434352 0.754739
6
Structure 143 | Energy: -10.144326 Hartree
O -1.533048 -0.800373 0.496105
H -2.436552 -0.537706 0.682578
H -1.244252 -0.300481 -0.269921
O -0.477149 2.410502 -0.486494
H -0.059897 3.260466 -0.333033
H 0.178862 1.734929 -0.303905
6
Structure 144 | Energy: -10.144315 Hartree
O 0.166476 2.126514 -1.204172
H -0.037050 1.539614 -1.935070
H 0.387347 2.981277 -1.579255
O 1.190915 -0.986824 0.481861
H 0.764574 -1.451088 1.204897
H 0.944042 -0.062649 0.552866
6
Structure 145 | Energy: -10.144311 Hartree
O -2.460220 -0.362875 0.435867
H -2.358772 0.368324 -0.176622
H -2.262543 -0.028328 1.312846
O 0.539842 -1.280600 1.430754
H 1.208489 -0.673939 1.106779
H -0.235153 -1.171743 0.876118
6
Structure 146 | Energy: -10.144285 Hartree
O 0.052754 0.781645 -2.076692
H -0.685167 1.331602 -1.806312
H -0.278399 0.163763 -2.731406
O -1.436541 -1.187987 0.172071
H -0.550090 -1.437988 -0.095870
H -1.352001 -0.454109 0.783924
6
Structure 147 | Energy: -10.144283 Hartree
O -0.998167 -0.667653 -2.146207
H -0.199653 -0.700680 -2.676651
H -1.231080 -1.571939 -1.926868
O 0.483721 0.009315 0.642758
H 0.782333 0.328707 -0.211002
H -0.413528 0.325197 0.766249
6
Structure 148 | Energy: -10.144278 Hartree
O -0.331179 1.520626 -1.146926
H -0.076283 0.635516 -0.879168
H -1.228993 1.662588 -0.840548
O -0.495357 -1.988078 0.723042
H -0.050780 -2.410424 1.460649
H -1.046053 -2.652893 0.304898
6
Structure 149 | Energy: -10.144273 Hartree
O 0.608850 0.565544 1.318453
H 1.453833 0.120006 1.231357
H 0.308354 0.431058 2.219401
O 2.043985 -1.317578 -0.222065
H 1.361144 -1.979837 -0.345471
H 2.751460 -1.521022 -0.837027
6
Structure 150 | Energy: -10.144245 Hartree
O -0.578496 0.926395 -1.124493
H -0.430882 0.561383 -0.249814
H -0.346241 0.245762 -1.759227
O -0.502677 -1.475972 1.444411
H -0.368983 -0.738627 2.043188
H -0.046513 -2.232198 1.818744
6
Structure 151 | Energy: -10.144239 Hartree
O 0.575161 -1.041486 1.835541
H 0.461654 -1.055618 2.787908
H 1.474480 -1.320431 1.652493
O -0.667167 0.043581 -1.267949
H -0.352873 -0.834503 -1.043727
H -0.287363 0.652374 -0.631389
6
Structure 152 | Energy: -10.144239 Hartree
O -2.058764 1.034288 0.843923
H -1.779391 0.760030 1.719605
H -1.357685 0.795565 0.234341
O 1.032506 -0.300106 -1.368571
H 1.344485 -1.205675 -1.316601
H 1.223139 0.015636 -2.254040
6
Structure 153 | Energy: -10.144237 Hartree
O 0.235656 0.262733 0.542774
H 0.868356 0.560440 -0.113844
H 0.480846 -0.631447 0.788570
O -0.515518 -1.674547 -1.605705
H -1.067312 -1.478850 -2.365516
H -1.100866 -1.826567 -0.861161
6
Structure 154 | Energy: -10.144223 Hartree
O -0.434048 -0.700067 2.072555
H 0.329201 -0.449123 2.596545
H -0.481555 -1.658070 2.080568
O 0.566801 1.784211 -0.222339
H -0.358605 1.793260 -0.474586
H 0.617971 1.403137 0.656440
6
Structure 155 | Energy: -10.144215 Hartree
O -1.896420 0.814187 1.486541
H -1.176268 0.245308 1.207534
H -1.511919 1.655689 1.739767
O 0.143431 -0.236454 -0.939610
H -0.110126 0.688530 -0.953795
H -0.665079 -0.752505 -0.930091
6
Structure 156 | Energy: -10.144215 Hartree
O -0.903240 -0.848399 1.631449
H -0.264499 -1.341988 1.113313
H -0.861076 -1.184047 2.529031
O -0.310957 0.022044 -1.720155
H -0.852795 0.744404 -2.043722
H -0.841085 -0.470899 -1.090823
6
Structure 157 | Energy: -10.144208 Hartree
O -0.481593 -0.246390 -1.173736
H -1.290247 -0.746433 -1.300712
H 0.141817 -0.822951 -0.727611
O -0.167777 0.220296 1.851268
H 0.692593 -0.013536 1.497469
H -0.742372 0.400894 1.104734
6
Structure 158 | Energy: -10.144184 Hartree
O -1.071536 0.497600 1.962669
H -0.973448 -0.246669 2.559769
H -1.919114 0.904495 2.152773
O -0.493116 -1.389692 -0.673970
H -1.111442 -1.168595 -1.373167
H -0.842750 -1.023465 0.140722
6
Structure 159 | Energy: -10.144181 Hartree
O 0.033190 -2.105644 -1.063878
H -0.793131 -2.268231 -1.523058
H -0.112643 -2.305826 -0.137190
O 1.438101 0.841112 0.601687
H 0.733131 0.736085 -0.040243
H 2.213209 0.401340 0.246868
6
Structure 160 | Energy: -10.144161 Hartree
O -0.973841 1.546768 -0.212269
H -0.335531 1.734706 -0.903156
H -0.591384 1.842978 0.616029
O -0.774664 -1.957533 0.414136
H -1.456282 -2.616219 0.267105
H -0.927290 -1.246354 -0.211178
6
Structure 161 | Energy: -10.144158 Hartree
O -1.538522 0.829465 -0.184370
H -1.676286 1.754439 -0.397750
H -1.047502 0.797981 0.639037
O -0.151685 -1.718989 1.184508
H -0.263814 -1.959431 0.262715
H -0.314715 -2.507619 1.705634
6
Structure 162 | Energy: -10.144153 Hartree
O 0.390999 -0.748226 -2.279609
H 0.443653 -0.701974 -1.322962
H -0.524848 -0.922121 -2.505606
O -0.337488 1.728179 0.168050
H 0.130707 2.396301 -0.336425
H -0.972593 2.184689 0.723323
6
Structure 163 | Energy: -10.144145 Hartree
O -0.018466 -2.487441 0.280432
H 0.747070 -2.952914 0.623033
H 0.096803 -1.558464 0.489731
O -0.683443 0.327978 -1.579159
H -0.823613 -0.555447 -1.925568
H -0.040623 0.757153 -2.147209
6
Structure 164 | Energy: -10.144137 Hartree
O -0.123813 -2.003628 -0.772218
H -0.524222 -1.131987 -0.773239
H 0.327706 -2.109785 -1.611832
O 0.295360 1.194603 0.324494
H 0.267686 2.125611 0.095263
H 1.077366 1.057738 0.862846
6
Structure 165 | Energy: -10.144129 Hartree
O -0.147964 -0.375856 1.564929
H -1.076666 -0.541565 1.738530
H 0.308879 -0.409032 2.407713
O -0.037441 0.091590 -2.316491
H 0.567360 -0.652574 -2.293610
H 0.018820 0.529639 -1.465001
6
Structure 166 | Energy: -10.144128 Hartree
O 0.173380 2.278275 0.054054
H -0.721368 2.163729 0.380232
H 0.110671 2.700003 -0.805192
O 0.117660 -0.523549 -0.229784
H 0.600451 -0.354810 0.581713
H 0.691158 -0.276886 -0.958033
6
Structure 167 | Energy: -10.144124 Hartree
O 1.152609 1.907047 -0.045540
H 1.921606 2.289336 0.381761
H 1.184055 2.163574 -0.969280
O -1.524055 -0.569222 1.160700
H -1.042250 -0.015186 0.543452
H -1.965719 0.014114 1.780975
6
Structure 168 | Energy: -10.144117 Hartree
O -1.059372 2.346952 0.151712
H -0.333717 1.725203 0.068410
H -1.870361 1.835321 0.176621
O -1.330154 -0.248176 -1.057025
H -1.119361 -1.125122 -0.730497
H -2.259868 -0.248842 -1.293075
6
Structure 169 | Energy: -10.144113 Hartree
O -0.173567 -0.006051 -0.877567
H -0.296806 -0.345939 0.010901
H 0.676742 0.437461 -0.896622
O 0.534538 0.542085 1.892708
H 0.593785 0.285062 2.814943
H 1.431256 0.616121 1.560288
6
Structure 170 | Energy: -10.144106 Hartree
O -2.004540 0.384942 1.066250
H -1.128072 0.058302 0.853655
H -2.518801 0.366037 0.256763
O 1.252117 -1.006850 -0.500026
H 2.025388 -1.568080 -0.415406
H 1.059825 -0.927488 -1.436409
6
Structure 171 | Energy: -10.144092 Hartree
O -0.222874 -1.596476 -1.322808
H -0.053201 -1.994696 -2.178797
H -1.165570 -1.427261 -1.270084
O -0.872887 1.796595 0.154627
H -0.332648 1.021627 -0.011663
H -0.727116 2.405698 -0.571894
6
Structure 172 | Energy: -10.144089 Hartree
O -0.576570 -1.553172 -0.013305
H 0.214530 -1.443696 -0.544588
H -1.006722 -0.697201 0.035410
O -0.772435 1.358089 -0.968697
H 0.158535 1.129545 -0.934804
H -1.082681 1.155308 -1.853408
6
Structure 173 | Energy: -10.144086 Hartree
O 0.170567 -0.380087 1.894514
H 0.572486 -1.099075 2.386045
H -0.777482 -0.525805 1.902254
O 0.978474 1.699000 -0.856922
H 0.407508 2.468620 -0.899007
H 1.101743 1.487129 0.070442
6
Structure 174 | Energy: -10.144084 Hartree
O 0.371203 -0.663014 1.629711
H -0.135322 -1.265765 1.081796
H 0.118651 0.228079 1.380188
O -0.543834 1.752988 -0.964504
H 0.225806 1.942158 -1.504835
H -1.123684 1.191488 -1.482750
6
Structure 175 | Energy: -10.144083 Hartree
O 1.336500 -0.175367 -0.788216
H 0.912026 -0.685134 -0.095363
H 1.052840 -0.544539 -1.626869
O -0.656052 1.887745 0.454377
H -0.971354 2.787391 0.560721
H 0.294882 1.903410 0.579147
6
Structure 176 | Energy: -10.144079 Hartree
O 0.984466 -0.023627 -1.369631
H 1.395714 -0.759442 -0.911880
H 0.436138 0.437140 -0.731572
O 0.703969 0.937848 1.989200
H 1.570748 0.818065 2.382182
H 0.085808 0.409943 2.498396
6
Structure 177 | Energy: -10.144071 Hartree
O -0.541245 -0.284214 1.137908
H 0.230370 0.284273 1.098936
H -0.611866 -0.725815 0.289326
O -0.692515 1.873401 -0.849557
H -1.608380 1.588317 -0.847115
H -0.572862 2.438195 -1.615571
6
Structure 178 | Energy: -10.144070 Hartree
O 0.476638 0.589048 1.735744
H 0.793973 1.485164 1.607834
H 0.210859 0.256426 0.876201
O -0.747313 -1.953661 -0.866649
H -0.211186 -2.373359 -0.190994
H -0.821314 -2.572628 -1.595684
6
Structure 179 | Energy: -10.144049 Hartree
O 1.248097 -1.503203 -1.332141
H 0.782455 -2.078132 -0.721633
H 1.795820 -2.062031 -1.886939
O -0.495958 0.975451 0.950454
H -0.026814 0.513659 1.648121
H -0.137047 0.668666 0.115496
6
Structure 180 | Energy: -10.144048 Hartree
O -1.347886 1.057276 -1.265103
H -2.240897 1.329479 -1.485382
H -1.405246 0.181672 -0.877654
O 0.498462 -0.479663 0.756155
H 1.326989 -0.494639 1.239277
H 0.714263 -0.407425 -0.175671
6
Structure 181 | Energy: -10.144043 Hartree
O 1.065961 0.967488 0.817805
H 1.035479 0.900999 1.774223
H 1.580670 1.748052 0.603592
O -2.519973 -0.311271 -0.057967
H -2.355799 0.448958 -0.619380
H -1.666918 -0.636839 0.235958
6
Structure 182 | Energy: -10.144034 Hartree
O 1.163635 0.740258 0.001039
H 1.412231 -0.180795 0.100776
H 1.472892 1.204073 0.781633
O -1.897664 -0.937866 -0.845134
H -2.472492 -1.185893 -1.571868
H -1.265263 -0.302891 -1.187133
6
Structure 183 | Energy: -10.144030 Hartree
O 2.317938 -0.182377 0.067320
H 2.146210 -1.125242 0.107329
H 2.745176 0.063699 0.890123
O -0.949116 0.597328 -0.944836
H -0.760798 -0.313000 -1.181324
H -0.139691 1.096589 -1.069964
6
Structure 184 | Energy: -10.144026 Hartree
O 0.971261 2.003166 -0.674362
H 0.497456 2.748406 -0.299915
H 1.894289 2.256303 -0.737865
O 1.349206 -1.319731 0.396987
H 1.753873 -1.248555 1.263743
H 0.863563 -0.507073 0.242631
6
Structure 185 | Energy: -10.144017 Hartree
O -0.682752 1.816458 -0.026259
H -1.324274 1.515546 -0.672777
H -1.016818 2.635108 0.345633
O 1.888463 -1.164758 0.178272
H 1.262197 -0.917929 0.861612
H 2.058059 -0.381026 -0.348122
6
Structure 186 | Energy: -10.143989 Hartree
O 1.584663 0.010732 1.725624
H 1.057278 -0.446942 1.067988
H 2.417494 0.243127 1.310321
O 0.667501 1.174235 -1.363552
H -0.135362 1.696317 -1.309423
H 0.969918 1.211702 -2.273072
6
Structure 187 | Energy: -10.143983 Hartree
O 1.102259 -1.417058 -1.046927
H 0.300906 -1.238589 -1.542979
H 1.175386 -0.739413 -0.371989
O 1.846409 1.232177 0.614715
H 2.772412 1.341966 0.389880
H 1.344560 1.318498 -0.198171
6
Structure 188 | Energy: -10.143981 Hartree
O -1.241748 0.065341 -0.199698
H -1.646979 -0.621803 0.332945
H -1.911225 0.385589 -0.807425
O -0.177623 -1.793280 1.350351
H 0.397053 -1.855055 0.584833
H 0.385503 -1.706961 2.122055
6
Structure 189 | Energy: -10.143968 Hartree
O 0.774190 -1.686606 1.648368
H 0.011121 -1.679069 1.067200
H 0.526752 -1.218400 2.448148
O -1.924994 -0.268239 0.486147
H -1.116790 0.067416 0.878867
H -1.962690 0.063067 -0.413244
6
Structure 190 | Energy: -10.143949 Hartree
O -2.056168 -1.011486 0.853021
H -2.152570 -1.703627 0.195957
H -1.549894 -0.304297 0.448471
O 0.428377 1.448682 -0.814849
H 0.741671 0.972956 -0.043086
H 0.845123 2.312572 -0.804561
6
Structure 191 | Energy: -10.143941 Hartree
O -0.307616 -0.257079 -2.195577
H -1.012793 -0.658756 -1.684238
H 0.019389 -0.924618 -2.801837
O -0.995325 1.176182 0.608025
H -0.713702 2.081879 0.464883
H -0.220909 0.618895 0.509034
6
Structure 192 | Energy: -10.143940 Hartree
O -1.067786 -1.250730 0.524190
H -0.481764 -2.000648 0.404658
H -1.963398 -1.565296 0.386284
O 0.859438 2.230330 -0.338849
H 1.727456 1.909329 -0.086674
H 0.233082 1.526355 -0.159444
6
Structure 193 | Energy: -10.143938 Hartree
O -0.966898 -0.524062 0.504648
H -1.580732 0.193736 0.672155
H -1.182337 -0.886859 -0.356778
O 1.064779 1.513199 -0.942836
H 1.274814 0.947017 -0.197576
H 0.383203 2.122835 -0.653207
6
Structure 194 | Energy: -10.143934 Hartree
O -1.315379 -0.280028 -2.083491
H -0.770876 -1.038467 -1.863551
H -2.159190 -0.398865 -1.643091
O 0.114122 0.891213 0.423578
H 0.677321 0.143380 0.214681
H 0.033080 1.417409 -0.374318
6
Structure 195 | Energy: -10.143920 Hartree
O 0.783724 0.935813 -0.449163
H 0.745646 1.006154 0.506708
H 0.081824 0.340010 -0.718323
O -1.486258 -1.063872 1.383079
H -2.139630 -0.450760 1.040608
H -1.741838 -1.278295 2.282407
6
Structure 196 | Energy: -10.143912 Hartree
O -2.403046 0.477950 -0.353709
H -2.280443 0.020869 -1.188054
H -2.054295 1.364953 -0.461827
O -0.018140 -1.309678 0.401620
H 0.202740 -0.380067 0.317215
H -0.945190 -1.403197 0.173760
6
Structure 197 | Energy: -10.143902 Hartree
O -0.078457 -1.524947 1.488040
H 0.471688 -1.321673 2.247057
H 0.504440 -1.621203 0.732357
O -0.250584 0.677791 -0.252918
H -0.515574 1.206050 -1.008438
H -0.830709 -0.085503 -0.222502
6
Structure 198 | Energy: -10.143876 Hartree
O -0.030231 -0.016131 -0.435667
H 0.142955 -0.178956 0.493624
H 0.800763 0.243671 -0.838210
O 1.244838 1.953428 0.889240
H 0.752348 2.575042 0.349669
H 2.142668 2.284383 0.956004
6
Structure 199 | Energy: -10.143870 Hartree
O 0.243898 -0.964300 1.800307
H -0.325558 -0.194066 1.749854
H 1.060945 -0.686546 2.219087
O -0.771298 0.699067 -1.373184
H -1.237503 -0.133410 -1.274583
H 0.159193 0.492511 -1.480928
6
Structure 200 | Energy: -10.143856 Hartree
O 0.753964 0.279630 1.086914
H 0.551084 -0.605356 0.777517
H 0.531982 0.312350 2.019515
O -2.213771 -1.223172 -0.506304
H -2.337204 -0.381755 -0.062606
H -1.640488 -1.065929 -1.259105
6
Structure 201 | Energy: -10.143855 Hartree
O 1.307432 1.029774 -0.637464
H 0.943714 1.528608 0.096675
H 1.510460 1.657007 -1.334206
O -0.801849 -1.351373 1.886704
H -0.147137 -0.891452 1.357635
H -0.674678 -2.291071 1.742194
6
Structure 202 | Energy: -10.143852 Hartree
O 0.075104 -2.123371 -1.224530
H -0.083281 -1.620782 -0.423028
H 0.834195 -2.686598 -1.061294
O -0.703718 1.045790 0.632360
H -1.452540 1.576140 0.911791
H -0.057119 1.644562 0.253585
6
Structure 203 | Energy: -10.143852 Hartree
O -1.107517 1.328178 0.471608
H -0.640568 0.513979 0.273809
H -0.453860 1.966964 0.762770
O 0.522091 -0.905063 -2.190909
H 1.204838 -0.415069 -2.653348
H -0.305076 -0.739478 -2.647488
6
Structure 204 | Energy: -10.143846 Hartree
O -0.109222 -0.821158 -1.176293
H -0.913439 -1.275036 -0.916840
H 0.523952 -0.936153 -0.464986
O 0.935354 1.251278 1.430408
H 1.860374 1.501742 1.471571
H 0.443328 2.026288 1.152277
6
Structure 205 | Energy: -10.143828 Hartree
O 0.872373 1.061248 0.436603
H 1.113215 1.341378 -0.448613
H 1.681620 0.805671 0.883694
O -1.741204 -0.658151 -1.629131
H -1.620446 -0.207869 -0.790828
H -2.640369 -0.487493 -1.916298
6
Structure 206 | Energy: -10.143809 Hartree
O -0.500832 -1.035919 -1.147532
H 0.360294 -0.621580 -1.230422
H -1.159048 -0.344993 -1.244826
O 1.903276 0.709780 0.900319
H 1.966596 1.636595 1.139260
H 1.918345 0.204585 1.715573
6
Structure 207 | Energy: -10.143794 Hartree
O 0.016556 1.355122 -0.863920
H -0.838483 1.468764 -0.444301
H 0.482130 0.670734 -0.379210
O -0.100539 -1.963620 0.554400
H 0.834123 -1.892707 0.350768
H -0.455384 -2.674018 0.016340
6
Structure 208 | Energy: -10.143792 Hartree
O 0.231519 2.002553 -1.078293
H 0.941724 1.360092 -1.132506
H 0.477953 2.642472 -0.407574
O 1.476748 -0.418635 1.283913
H 0.985156 -0.393892 2.107206
H 0.841018 -0.332725 0.570782
6
Structure 209 | Energy: -10.143785 Hartree
O -1.401678 1.457491 -1.244137
H -1.898039 1.908434 -0.558307
H -1.988556 1.349466 -1.995133
O -0.840124 -1.137288 0.295481
H -1.043284 -1.589689 -0.525584
H -0.079208 -0.577076 0.130380
6
Structure 210 | Energy: -10.143772 Hartree
O -0.907811 1.159452 1.259374
H -0.247623 1.827839 1.065733
H -1.265530 1.356582 2.127284
O 0.928942 -0.149188 -2.042587
H 1.027521 -0.343432 -1.108436
H -0.003553 0.008179 -2.203137
6
Structure 211 | Energy: -10.143769 Hartree
O -0.931747 0.069002 -1.225985
H -0.090246 0.024411 -1.684214
H -1.391359 0.845669 -1.551000
O -0.307540 -1.220463 2.116485
H -0.994625 -0.597419 2.361060
H -0.607427 -1.679557 1.329473
6
Structure 212 | Energy: -10.143757 Hartree
O -0.236804 -0.171759 1.833371
H -1.168915 -0.102078 1.617964
H 0.215832 -0.471611 1.042611
O 2.039409 1.021965 -0.367713
H 2.618529 0.485136 -0.912251
H 2.308997 0.895439 0.544099
6
Structure 213 | Energy: -10.143750 Hartree
O -0.585798 -1.156827 -1.923646
H -0.650064 -2.027418 -2.321173
H -0.767841 -1.257970 -0.987312
O 0.290058 0.684749 0.950192
H 0.041002 1.189171 1.727120
H 0.394911 1.307884 0.228531
6
Structure 214 | Energy: -10.143742 Hartree
O -0.738842 1.188364 1.364090
H -0.194193 1.745082 0.804172
H -0.223164 0.407898 1.576318
O 1.097887 -1.813903 0.015513
H 1.198285 -2.752280 0.187140
H 1.648553 -1.602996 -0.741041
6
Structure 215 | Energy: -10.143742 Hartree
O 0.175653 -1.952224 0.118129
H -0.671117 -2.379245 0.262073
H 0.034954 -1.250410 -0.520425
O 1.237827 1.671975 -0.947490
H 1.552428 1.760774 -0.045698
H 1.977621 1.369641 -1.477949
6
Structure 216 | Energy: -10.143742 Hartree
O 0.544713 -1.626755 -0.956988
H 0.581826 -0.972368 -1.657336
H 0.602934 -2.489891 -1.371352
O -1.466167 0.748610 1.292885
H -1.320069 -0.194724 1.198739
H -0.744115 1.096695 1.819731
6
Structure 217 | Energy: -10.143735 Hartree
O 0.134721 -0.760820 -1.486260
H 0.512565 -0.285817 -0.743501
H 0.279558 -0.225650 -2.269016
O 0.429588 1.665889 1.246653
H -0.362635 1.993567 0.816424
H 0.972436 2.427309 1.460295
6
Structure 218 | Energy: -10.143707 Hartree
O 0.289254 -0.088252 0.482938
H -0.089983 0.788972 0.400820
H -0.295228 -0.598755 1.046727
O -1.077196 -0.015066 -2.335314
H -0.870723 0.921264 -2.308031
H -0.244637 -0.490518 -2.305664
6
Structure 219 | Energy: -10.143705 Hartree
O 0.832170 -0.194978 2.138578
H -0.014299 0.241269 2.253757
H 0.753042 -0.771819 1.376290
O -0.047395 0.609428 -0.210379
H -0.526319 1.365991 0.133613
H 0.888118 0.794840 -0.107781
6
Structure 220 | Energy: -10.143703 Hartree
O -0.634753 -0.865913 -1.904586
H -0.715247 -0.633762 -0.977380
H -0.401192 -0.065382 -2.378601
O -0.041949 1.853664 0.385323
H 0.479364 2.587977 0.715632
H 0.346931 1.049401 0.734638
6
Structure 221 | Energy: -10.143694 Hartree
O -0.528309 1.779367 0.132621
H 0.385713 1.490145 0.164251
H -1.072287 1.029517 0.381427
O 0.845768 -0.182228 -2.307945
H 0.974279 -0.948634 -2.870255
H -0.072290 0.082197 -2.393604
6
Structure 222 | Energy: -10.143692 Hartree
O -0.291641 -1.625153 -1.361865
H -0.763513 -0.839751 -1.078022
H 0.311995 -1.864539 -0.655884
O 0.020906 1.140726 0.239310
H 0.457369 1.990307 0.327615
H -0.258391 1.058495 -0.674648
6
Structure 223 | Energy: -10.143689 Hartree
O 0.997994 0.690000 0.785195
H 0.356161 0.053146 1.105436
H 1.416607 0.307029 0.011770
O -1.338249 -1.042794 0.548504
H -1.826869 -1.858304 0.676099
H -0.799244 -1.154539 -0.237037
6
Structure 224 | Energy: -10.143682 Hartree
O -0.240777 1.527733 1.513550
H 0.453631 2.186543 1.451470
H 0.103531 0.800447 2.035658
O 1.722803 -0.171150 -0.179966
H 1.233700 -0.035275 -0.993848
H 1.218379 -0.787041 0.355125
6
Structure 225 | Energy: -10.143678 Hartree
O 1.576215 -1.085364 1.754530
H 1.749407 -0.152969 1.898513
H 0.833772 -1.146363 1.150255
O -0.430676 0.387595 -1.423089
H -0.317252 0.207601 -2.358410
H -0.509588 1.338440 -1.324327
6
Structure 226 | Energy: -10.143675 Hartree
O -1.273784 0.554028 1.284631
H -0.706430 1.304563 1.097836
H -1.276071 0.429436 2.235716
O -0.480097 -0.531384 -2.156607
H -0.916145 -0.864074 -1.369671
H -1.000831 -0.814112 -2.910920
6
Structure 227 | Energy: -10.143673 Hartree
O 1.720906 -1.483693 1.122442
H 0.857037 -1.095884 1.275479
H 1.603333 -2.435098 1.089314
O 0.529089 0.074271 -1.515388
H 0.688815 -0.166224 -0.600655
H 1.166259 0.753175 -1.746024
6
Structure 228 | Energy: -10.143659 Hartree
O 0.073955 0.780838 2.274233
H -0.050529 0.937152 1.336067
H -0.747458 1.012248 2.712206
O -1.294968 -0.214889 -0.290095
H -1.519985 -1.119946 -0.514427
H -1.910577 0.071248 0.387576
6
Structure 229 | Energy: -10.143655 Hartree
O 2.076719 -0.176078 -0.568791
H 1.315415 0.175130 -0.102792
H 1.968061 0.043202 -1.496261
O -0.298343 0.367500 2.406050
H 0.203449 -0.414030 2.166252
H -1.079684 0.070163 2.876354
6
Structure 230 | Energy: -10.143651 Hartree
O -0.723359 -1.086180 1.191659
H -0.516504 -0.397207 1.826177
H -0.684947 -0.689597 0.319112
O 0.006811 2.251826 -0.303436
H -0.884332 2.166813 -0.647999
H 0.107125 3.154476 0.005186
6
Structure 231 | Energy: -10.143651 Hartree
O -0.888079 -1.948870 -0.772767
H -1.404340 -1.624999 -0.032046
H 0.008672 -2.079664 -0.458409
O 1.218539 0.720177 0.297223
H 0.291217 0.964705 0.316384
H 1.640804 1.259851 -0.373994
6
Structure 232 | Energy: -10.143645 Hartree
O -1.221261 -0.995121 -0.439789
H -1.280278 -0.057448 -0.246473
H -0.878295 -1.426025 0.345569
O 2.031606 -0.043491 -1.132474
H 1.878386 -0.134108 -2.075023
H 1.712657 -0.845731 -0.714419
6
Structure 233 | Energy: -10.143620 Hartree
O 0.092711 -1.839328 -1.157590
H -0.736751 -1.386110 -0.994276
H -0.022515 -2.365352 -1.951386
O -1.182151 1.075395 1.139553
H -0.226102 0.999718 1.157720
H -1.490630 0.995936 2.044326
6
Structure 234 | Energy: -10.143615 Hartree
O 0.609408 -1.609520 0.568422
H 1.074997 -0.940942 1.074699
H -0.329249 -1.439467 0.668900
O -1.973651 0.496216 -0.594457
H -2.017874 0.852355 -1.484006
H -2.533511 1.044179 -0.040940
6
Structure 235 | Energy: -10.143600 Hartree
O 1.031792 -1.645703 -1.273860
H 0.864249 -2.458918 -1.754171
H 1.371755 -1.890372 -0.410928
O -1.532920 0.981335 0.416522
H -2.413997 0.636613 0.258539
H -0.929277 0.482940 -0.137830
6
Structure 236 | Energy: -10.143597 Hartree
O 1.449489 -1.077919 1.171496
H 1.415260 -1.299534 0.238865
H 0.636970 -0.614178 1.383269
O -1.530817 0.975513 -0.091524
H -2.255285 1.597143 -0.185387
H -1.648766 0.298664 -0.760890
6
Structure 237 | Energy: -10.143596 Hartree
O 2.137074 0.283740 -0.732088
H 1.811358 0.916614 -1.375101
H 1.373261 -0.083222 -0.282624
O -0.842748 -0.653951 -2.080833
H -1.513075 -0.757655 -1.402603
H -1.294732 -0.637127 -2.926714
6
Structure 238 | Energy: -10.143595 Hartree
O 0.474968 -0.691637 0.743019
H 1.248758 -0.983381 0.256994
H 0.359525 -1.293384 1.481032
O 1.585759 1.467420 -1.265085
H 1.416438 1.685139 -2.183788
H 1.015820 0.729999 -1.038219
6
Structure 239 | Energy: -10.143589 Hartree
O 0.650690 -1.443585 1.241254
H 0.288223 -1.190006 2.092372
H 0.786952 -2.392845 1.261976
O 1.013500 1.006449 -0.725850
H 0.725693 0.913861 0.184469
H 1.911681 0.673377 -0.775071
6
Structure 240 | Energy: -10.143580 Hartree
O -1.895228 0.077686 0.121664
H -2.085489 -0.821114 -0.154097
H -2.565569 0.642317 -0.268111
O 0.542916 -1.305925 -1.830257
H -0.310284 -1.036179 -2.175763
H 0.757318 -0.712498 -1.107787
6
Structure 241 | Energy: -10.143573 Hartree
O -0.812613 1.968497 -0.698303
H -0.149942 2.258028 -1.328481
H -0.527033 2.261862 0.169149
O 0.123385 -0.817507 0.246367
H -0.104667 0.102652 0.392610
H -0.609604 -1.346330 0.567557
6
Structure 242 | Energy: -10.143570 Hartree
O -0.334935 -2.206485 0.751042
H 0.436575 -2.227923 0.181482
H -0.396770 -1.320052 1.112296
O -0.522829 0.026957 -0.643259
H -1.367252 -0.137542 -0.219021
H -0.648572 -0.101238 -1.585513
6
Structure 243 | Energy: -10.143565 Hartree
O 2.297400 -0.399748 0.540022
H 1.792629 0.415814 0.552252
H 2.884026 -0.359390 -0.217825
O 0.794029 0.274512 -1.748925
H 0.290031 -0.529952 -1.611411
H 1.627605 0.022256 -2.150928
6
Structure 244 | Energy: -10.143564 Hartree
O 0.325271 0.783813 1.403221
H 1.201314 1.034824 1.103840
H 0.405165 -0.071523 1.829961
O 0.788475 -1.731144 -1.386029
H 0.952962 -2.062676 -2.270969
H -0.020058 -1.216250 -1.421316
6
Structure 245 | Energy: -10.143562 Hartree
O 0.535489 -1.255004 1.170915
H 0.697975 -1.007225 0.258616
H 0.849357 -0.534684 1.721112
O -0.637523 2.118285 -0.738966
H -1.287726 1.426177 -0.603654
H -1.118237 2.927054 -0.925769
6
Structure 246 | Energy: -10.143561 Hartree
O -0.678555 -1.834459 -0.451005
H -0.920496 -1.709559 0.468751
H 0.078609 -1.271700 -0.624490
O 0.230162 0.219136 2.216886
H 0.104992 -0.671032 2.551581
H 0.170617 0.815259 2.966006
6
Structure 247 | Energy: -10.143553 Hartree
O 1.587444 -0.622962 1.516220
H 0.669322 -0.495089 1.269672
H 2.001387 0.242249 1.528602
O -1.675208 -0.164082 0.151569
H -1.087253 0.485954 -0.238110
H -2.360918 -0.349451 -0.493046
6
Structure 248 | Energy: -10.143533 Hartree
O 0.521644 -1.931579 -0.703706
H 0.014829 -1.177125 -0.397074
H 0.852052 -1.715467 -1.577901
O -0.237958 1.041788 1.085201
H 0.258765 0.328838 1.491473
H 0.354406 1.491458 0.479404
6
Structure 249 | Energy: -10.143533 Hartree
O 2.185195 -0.153163 -0.790128
H 2.727635 0.444734 -1.308166
H 1.283222 0.170053 -0.835589
O -1.560183 0.744932 0.495363
H -1.148072 1.319423 1.143600
H -1.601364 -0.133099 0.879361
6
Structure 250 | Energy: -10.143526 Hartree
O 0.143010 -0.881021 1.139231
H -0.309769 -1.427237 1.784774
H -0.513522 -0.302744 0.745972
O 1.368986 1.082713 -1.486585
H 2.227310 0.706904 -1.281317
H 0.839493 1.034482 -0.688212
6
Structure 251 | Energy: -10.143519 Hartree
O -0.747767 -0.511422 1.117911
H 0.035479 -0.603467 0.571890
H -1.245617 0.234271 0.777062
O -0.069306 1.942234 -1.344604
H 0.537874 1.318626 -1.747758
H -0.722949 2.171665 -2.008080
6
Structure 252 | Energy: -10.143516 Hartree
O -0.168706 1.694300 0.480489
H -0.042475 0.963023 -0.127283
H 0.355358 2.428482 0.154262
O -0.638771 -1.640466 -1.505261
H -0.834755 -1.367768 -2.403767
H -1.284020 -2.307890 -1.263834
6
Structure 253 | Energy: -10.143500 Hartree
O -1.022298 -2.068147 -0.187353
H -0.485840 -2.530156 -0.834537
H -0.490058 -1.351157 0.162986
O -0.005309 1.067904 1.530382
H 0.261792 1.841274 1.029739
H -0.862609 0.795878 1.197028
6
Structure 254 | Energy: -10.143482 Hartree
O 0.226993 -1.358618 -0.751710
H -0.275731 -1.541714 0.044425
H -0.114186 -0.541987 -1.121575
O 0.817697 1.783649 1.487254
H 1.160900 2.666170 1.334102
H 1.571338 1.195553 1.566355
6
Structure 255 | Energy: -10.143480 Hartree
O -0.140784 0.399425 2.312145
H 0.256650 0.564504 1.454893
H 0.047310 1.161202 2.863877
O -1.110670 -1.239651 -1.022645
H -1.656517 -0.733456 -0.417744
H -1.499856 -2.113536 -1.092988
6
Structure 256 | Energy: -10.143463 Hartree
O -1.336427 -0.049876 -1.140741
H -1.478643 0.221223 -2.049787
H -1.258421 0.748671 -0.615072
O -0.035627 -2.115461 1.280788
H 0.477398 -1.438577 1.726569
H -0.014162 -1.916457 0.342692
6
Structure 257 | Energy: -10.143461 Hartree
O -1.149383 -1.085656 -1.906414
H -0.252035 -0.929619 -2.207255
H -1.477758 -0.257566 -1.550706
O -0.753389 0.275096 1.086721
H -0.828690 0.744513 1.919826
H -1.609309 -0.117141 0.903311
6
Structure 258 | Energy: -10.143456 Hartree
O 0.873417 1.266497 0.600868
H 1.680392 0.864568 0.928479
H 1.128697 2.018992 0.063583
O 0.845919 0.019173 -2.226501
H -0.048784 0.003547 -1.881028
H 0.932642 -0.725949 -2.824297
6
Structure 259 | Energy: -10.143451 Hartree
O 1.613408 -0.581824 -0.534174
H 1.939660 -1.432226 -0.233402
H 1.952488 0.082126 0.069387
O 0.368867 2.213541 0.881488
H -0.385978 2.629183 0.460135
H 0.041520 1.450630 1.362009
6
Structure 260 | Energy: -10.143449 Hartree
O 0.915726 -1.466746 -1.089794
H 0.868939 -2.341248 -1.481130
H 0.677788 -1.556340 -0.164889
O -1.223928 0.400938 0.577602
H -0.322378 0.181558 0.820847
H -1.184000 0.899480 -0.240903
6
Structure 261 | Energy: -10.143433 Hartree
O -2.031468 -0.966547 0.321470
H -1.092110 -0.895963 0.140611
H -2.223457 -0.383338 1.058421
O 0.541995 1.428626 -0.505294
H -0.354807 1.088390 -0.513849
H 0.660166 1.938193 -1.309325
6
Structure 262 | Energy: -10.143431 Hartree
O 0.518518 0.366339 2.417870
H 1.439983 0.357534 2.151579
H 0.250171 1.285010 2.482100
O 1.054794 -0.874722 -1.194596
H 0.225558 -0.749338 -1.660142
H 0.890026 -1.496957 -0.483425
6
Structure 263 | Energy: -10.143427 Hartree
O 0.412687 1.075199 -0.717978
H 0.427793 0.122679 -0.830064
H 0.346222 1.463126 -1.592727
O -1.909015 -1.631766 0.115465
H -1.123900 -1.608795 0.666060
H -2.650240 -1.373419 0.666762
6
Structure 264 | Energy: -10.143373 Hartree
O 0.168004 -0.831146 -0.720466
H -0.710976 -0.501914 -0.522762
H 0.781956 -0.359837 -0.153879
O -0.508347 -1.540679 1.949195
H -0.222892 -2.160095 1.274713
H 0.179251 -0.877410 2.035052
6
Structure 265 | Energy: -10.143359 Hartree
O -0.581699 1.995565 1.093804
H -1.047788 2.662767 1.601433
H 0.282294 1.885092 1.495554
O -1.693938 -0.816167 -0.504092
H -1.160032 -0.032092 -0.646427
H -2.211626 -0.955551 -1.299490
6
Structure 266 | Energy: -10.143358 Hartree
O 1.299014 0.859654 1.908900
H 0.779477 1.096182 1.138042
H 2.022850 1.486390 1.966818
O 0.191135 -1.187291 -0.942297
H 0.278750 -1.560694 -1.821491
H 0.631213 -1.784978 -0.334688
6
Structure 267 | Energy: -10.143349 Hartree
O -0.096732 1.584786 1.525504
H 0.789358 1.950330 1.561669
H -0.500366 1.898149 0.713732
O 0.616473 -0.588276 -0.199703
H 1.361685 0.002139 -0.326813
H 0.491527 -0.688451 0.746046
6
Structure 268 | Energy: -10.143348 Hartree
O -0.232012 -1.480482 0.045735
H 0.266385 -1.855877 -0.682802
H -1.120476 -1.312699 -0.274533
O 0.811878 0.969360 2.225607
H 1.048807 0.423783 1.473079
H 0.170331 1.613151 1.918951
6
Structure 269 | Energy: -10.143338 Hartree
O -0.729507 0.373491 -0.405778
H -0.430303 -0.536131 -0.461913
H -0.123137 0.836608 0.175538
O 0.003637 -0.801471 2.349496
H -0.917450 -0.565605 2.476192
H 0.035326 -1.457303 1.650234
6
Structure 270 | Energy: -10.143337 Hartree
O 0.175065 -0.941388 1.659866
H 0.244898 -1.609167 0.974826
H 0.267552 -0.086865 1.234039
O 0.700651 0.900748 -1.865930
H -0.156036 0.478722 -1.955752
H 0.739436 1.605818 -2.515129
6
Structure 271 | Energy: -10.143337 Hartree
O 0.998874 -0.800944 1.174316
H 0.914688 -1.539494 0.568063
H 1.833711 -0.905353 1.635008
O 1.376012 0.900521 -1.913409
H 1.473133 0.187769 -2.547948
H 1.055261 0.512292 -1.097023
6
Structure 272 | Energy: -10.143330 Hartree
O 0.953589 0.316994 0.955186
H 0.929150 -0.136993 0.110565
H 0.757873 1.240822 0.786877
O -0.785737 -1.830576 -1.249851
H -1.384925 -1.124722 -0.999188
H -1.276880 -2.434460 -1.810378
6
Structure 273 | Energy: -10.143320 Hartree
O -0.731172 -1.384711 0.804036
H -0.664507 -0.550575 1.272928
H -1.651076 -1.499300 0.557588
O 0.936301 1.183272 -1.565070
H 1.156611 0.712341 -0.758984
H 1.361481 0.720425 -2.289696
6
Structure 274 | Energy: -10.143315 Hartree
O -0.731541 -0.168272 -1.705935
H -0.216892 -0.702060 -2.314452
H -1.570331 0.019036 -2.131888
O 1.538738 -1.400310 -0.055956
H 2.302695 -0.823895 -0.120779
H 0.910104 -0.973967 0.529824
6
Structure 275 | Energy: -10.143312 Hartree
O -1.414103 0.598972 1.207923
H -1.309586 1.113202 0.404972
H -2.329264 0.314112 1.245698
O 1.563805 -1.776583 -0.480518
H 1.434183 -0.971385 0.024399
H 0.960909 -2.433633 -0.127120
6
Structure 276 | Energy: -10.143294 Hartree
O 1.156314 0.019055 -0.571444
H 0.567207 -0.701093 -0.338152
H 0.999479 0.728552 0.054741
O -0.745233 0.451355 1.966829
H -1.097004 -0.099834 1.265021
H -0.614738 -0.112015 2.732122
6
Structure 277 | Energy: -10.143293 Hartree
O 0.888773 0.920610 -1.793947
H 0.251604 0.665405 -2.464002
H 1.661790 1.257903 -2.250859
O -1.430274 -1.182633 0.904276
H -1.771410 -0.293655 1.020165
H -0.834865 -1.162646 0.152494
6
Structure 278 | Energy: -10.143286 Hartree
O -1.211747 0.136239 1.550686
H -0.536833 -0.543643 1.599025
H -0.845678 0.864425 1.044890
O 1.647719 -0.281046 -1.218379
H 2.203774 0.079711 -1.911737
H 0.742946 -0.251307 -1.535537
6
Structure 279 | Energy: -10.143266 Hartree
O 0.359769 0.935076 -0.640918
H 0.861145 0.751912 0.156051
H 0.323106 0.120954 -1.146836
O -0.196395 -1.510351 1.522003
H 0.535091 -2.128949 1.570509
H -0.972132 -1.960520 1.862101
6
Structure 280 | Energy: -10.143265 Hartree
O -1.607532 -1.332114 0.206264
H -1.556056 -1.717875 1.082977
H -1.089443 -0.524971 0.220214
O 1.042522 0.813151 -1.312492
H 1.247676 1.030056 -2.224058
H 1.846522 0.475380 -0.913015
6
Structure 281 | Energy: -10.143258 Hartree
O -0.263028 2.497816 0.177515
H 0.222674 1.827404 -0.306972
H -1.179529 2.216654 0.210156
O -1.701619 -0.950112 -0.553804
H -1.069901 -0.715519 0.128828
H -1.963223 -1.859757 -0.398252
6
Structure 282 | Energy: -10.143254 Hartree
O 1.781399 -0.781851 0.866539
H 1.390139 -0.654692 0.000033
H 2.568385 -0.234863 0.905896
O -0.840127 -1.007739 1.327489
H -0.011278 -1.424446 1.571315
H -0.631396 -0.291445 0.724628
6
Structure 283 | Energy: -10.143247 Hartree
O 1.342981 1.743137 -0.652748
H 1.934268 1.456732 -1.351630
H 1.148161 0.974647 -0.112785
O 0.465835 -1.151965 1.011102
H -0.035375 -0.363218 0.794877
H 0.018376 -1.894356 0.600341
6
Structure 284 | Energy: -10.143239 Hartree
O 0.418188 0.761308 0.190132
H 1.315216 0.453647 0.334255
H -0.163792 0.009420 0.316831
O -1.438484 -1.405976 -0.723710
H -1.324955 -1.994797 0.024947
H -2.364022 -1.439204 -0.973439
6
Structure 285 | Energy: -10.143234 Hartree
O 0.354965 -0.619380 1.376943
H 1.213841 -0.865282 1.027730
H 0.416076 0.293661 1.664540
O -1.056643 0.082172 -1.766006
H -1.717809 0.761589 -1.912087
H -1.448064 -0.575429 -1.187699
6
Structure 286 | Energy: -10.143233 Hartree
O 2.356150 -0.926626 -0.434656
H 2.152903 -0.071890 -0.049684
H 1.828519 -1.579759 0.029146
O -0.691395 1.115316 1.280849
H -0.611947 1.258881 2.225923
H -1.569862 0.765517 1.119529
6
Structure 287 | Energy: -10.143223 Hartree
O -1.461258 -0.330447 0.365587
H -2.178606 -0.819210 -0.042591
H -1.851250 0.416131 0.824518
O -0.312303 0.273483 -2.042384
H 0.141022 0.939612 -2.562822
H 0.094186 0.266596 -1.173588
6
Structure 288 | Energy: -10.143215 Hartree
O 0.690091 -1.452783 -0.416872
H -0.247519 -1.650522 -0.460151
H 0.851849 -0.713014 -1.005656
O 1.428267 1.230088 0.738176
H 0.909156 0.851767 1.450555
H 2.086241 1.801686 1.138718
6
Structure 289 | Energy: -10.143212 Hartree
O -0.483073 -0.341231 -1.912200
H -0.145558 0.199938 -2.628654
H -0.169213 -1.235579 -2.059586
O -0.877116 0.497781 1.126411
H -0.145197 -0.093859 0.941092
H -0.863711 1.184597 0.456938
6
Structure 290 | Energy: -10.143211 Hartree
O -0.166881 -2.156484 1.128457
H -0.896671 -1.893352 1.692597
H 0.393448 -2.740838 1.642901
O -1.075869 1.431053 -0.698555
H -0.871346 1.346059 -1.631847
H -0.395085 0.959570 -0.214484
6
Structure 291 | Energy: -10.143195 Hartree
O -1.437894 0.571199 -0.548043
H -0.834534 1.281084 -0.319776
H -0.928506 -0.096575 -1.011393
O 0.601480 -1.893019 0.419215
H -0.300936 -2.194759 0.298030
H 1.163491 -2.455255 -0.117555
6
Structure 292 | Energy: -10.143194 Hartree
O 0.347529 1.383789 0.221180
H -0.496458 1.819728 0.354331
H 1.012726 1.909659 0.669582
O -1.715279 -1.151357 -0.469168
H -1.923446 -2.050069 -0.731982
H -0.944383 -0.879903 -0.971284
6
Structure 293 | Energy: -10.143173 Hartree
O -1.671540 1.213215 1.198819
H -2.173026 0.940747 0.427872
H -0.748361 1.245358 0.940365
O 0.566736 -1.024188 -1.062053
H -0.241798 -1.289185 -1.504927
H 0.768505 -1.699309 -0.411216
6
Structure 294 | Energy: -10.143168 Hartree
O 0.555542 -1.018310 0.819274
H 1.447376 -1.371459 0.817335
H -0.043406 -1.758720 0.704623
O -0.125680 2.208311 -0.669751
H -0.364680 1.306236 -0.447880
H -0.941234 2.686698 -0.831319
6
Structure 295 | Energy: -10.143162 Hartree
O -0.261454 0.591345 1.686719
H -0.678446 1.449893 1.782103
H -0.929310 -0.071198 1.874055
O -0.700347 -1.168544 -1.673052
H 0.211868 -1.294278 -1.404461
H -1.123907 -0.633864 -0.998663
6
Structure 296 | Energy: -10.143158 Hartree
O 0.124362 -0.235347 1.772874
H 0.283805 -0.535535 2.669842
H -0.574472 -0.783118 1.410012
O -1.042770 0.863215 -1.730328
H -1.635443 1.594045 -1.544012
H -0.765645 0.500097 -0.886862
6
Structure 297 | Energy: -10.143131 Hartree
O 1.703514 0.013747 -1.504569
H 0.987353 0.539504 -1.142935
H 1.898541 0.361306 -2.377071
O -1.320101 -1.060002 1.154876
H -0.819772 -0.526403 1.775384
H -0.690747 -1.599533 0.672270
6
Structure 298 | Energy: -10.143128 Hartree
O -1.085160 -2.062952 -0.731549
H -1.407076 -2.256080 -1.614248
H -1.061208 -1.108373 -0.640466
O 0.010636 1.330366 0.846156
H 0.835487 1.068319 1.259725
H 0.186284 2.127216 0.341908
6
Structure 299 | Energy: -10.143126 Hartree
O 0.601473 -0.998110 0.948369
H 0.770614 -1.847394 0.535823
H 1.048130 -0.332454 0.421595
O 0.500037 1.820552 -1.490072
H 0.170213 1.014200 -1.088700
H -0.062364 2.537565 -1.190595
6
Structure 300 | Energy: -10.143122 Hartree
O -0.872577 1.834033 -0.148300
H -1.528758 1.515603 0.474688
H -0.900778 2.792559 -0.125422
O -0.605231 -0.506251 0.956549
H 0.186555 0.005720 1.132753
H -0.358043 -1.215333 0.359734
6
Structure 301 | Energy: -10.143112 Hartree
O -1.695834 -0.816235 -1.532039
H -2.212436 -1.622047 -1.469787
H -1.599237 -0.471296 -0.642220
O 0.115847 1.055203 1.424334
H 0.681718 1.821023 1.540082
H 0.538440 0.319517 1.871847
6
Structure 302 | Energy: -10.143105 Hartree
O -0.268239 -0.457540 -0.477560
H 0.388656 0.133565 -0.850616
H -0.022184 -0.615341 0.436030
O 1.763185 -0.080963 1.528760
H 2.217563 0.302973 0.776283
H 1.178500 0.592682 1.881514
6
Structure 303 | Energy: -10.143087 Hartree
O -0.018485 -0.527401 -0.698700
H 0.063385 0.287099 -0.198727
H -0.888527 -0.887151 -0.515127
O -0.523265 -0.427641 2.361985
H 0.165323 -0.886027 1.876376
H -1.355731 -0.623563 1.927586
6
Structure 304 | Energy: -10.143065 Hartree
O 1.145574 1.353544 1.593527
H 0.236306 1.186572 1.337719
H 1.237870 1.080904 2.508535
O -0.234570 -1.324584 -0.879042
H -0.400926 -1.042145 -1.780508
H 0.610634 -1.778127 -0.874862
6
Structure 305 | Energy: -10.143049 Hartree
O 1.223784 1.100768 1.935667
H 1.004207 1.065898 1.002578
H 0.652525 0.475132 2.385482
O -1.496967 -1.671540 -0.132234
H -1.753655 -2.406936 0.427580
H -2.280519 -1.390221 -0.608673
6
Structure 306 | Energy: -10.143048 Hartree
O 1.282795 0.121628 -1.881907
H 1.820899 0.890359 -2.080862
H 1.210670 0.064793 -0.927099
O -1.208118 -0.616738 0.867492
H -2.079231 -0.346364 1.164386
H -1.184093 -1.575305 0.893187
6
Structure 307 | Energy: -10.143045 Hartree
O -0.548786 -0.240918 0.989257
H -1.073591 -0.637014 0.290850
H -0.785604 0.687679 1.030687
O 1.595805 0.183422 -0.923604
H 1.116565 1.012977 -0.971082
H 1.018506 -0.454246 -0.499111
6
Structure 308 | Energy: -10.143044 Hartree
O 1.336703 -1.258986 -0.685559
H 1.396652 -1.653321 -1.557908
H 0.827003 -1.858639 -0.137185
O 0.666424 1.620625 1.832761
H 1.559080 1.327616 1.639375
H 0.393951 2.194679 1.114215
6
Structure 309 | Energy: -10.143043 Hartree
O -1.168785 -0.152965 -1.089842
H -1.346968 -0.563672 -1.938168
H -0.318254 0.285047 -1.159366
O 1.520515 1.286482 1.288924
H 1.533229 0.587463 1.945657
H 1.408201 2.115350 1.758447
6
Structure 310 | Energy: -10.143042 Hartree
O -0.547276 -1.255063 -0.027921
H -1.347394 -0.837182 -0.352378
H -0.809944 -1.891339 0.640097
O -1.612323 1.274111 0.591497
H -1.903359 1.595441 -0.264151
H -0.874319 1.822488 0.864851
6
Structure 311 | Energy: -10.143041 Hartree
O -1.267947 1.710927 -1.063350
H -0.835363 1.652648 -0.209207
H -1.208175 0.845034 -1.471696
O 1.103663 -0.184958 0.415506
H 1.486742 -1.027511 0.163630
H 0.911671 0.293033 -0.393661
6
Structure 312 | Energy: -10.143040 Hartree
O -2.303943 0.860085 0.637906
H -3.008163 0.542688 0.069207
H -1.584378 1.140971 0.069206
O 0.411064 1.018260 0.745276
H 0.166644 1.409923 1.586077
H 0.902469 1.680638 0.255516
6
Structure 313 | Energy: -10.143032 Hartree
O 0.288063 -0.789664 -2.281324
H 0.435024 -1.662614 -2.650711
H 1.112352 -0.509026 -1.878980
O -0.296628 1.247915 0.915879
H 0.408146 1.893663 0.995824
H -0.456720 1.116648 -0.020725
6
Structure 314 | Energy: -10.143022 Hartree
O -1.926219 -0.231113 1.122887
H -2.469570 0.462023 1.502910
H -2.311392 -0.461333 0.275107
O 0.428444 1.943455 -0.103606
H 0.412124 1.789122 0.842968
H 1.303813 1.705278 -0.415196
6
Structure 315 | Energy: -10.143010 Hartree
O 0.520507 0.149863 1.599024
H 1.219316 -0.052127 0.973763
H 0.191774 -0.685392 1.937214
O 0.501698 0.010042 -2.323474
H -0.014797 0.545239 -1.717764
H 0.064350 -0.840702 -2.394535
6
Structure 316 | Energy: -10.142973 Hartree
O 1.286970 -1.302002 0.364252
H 1.189677 -1.377804 -0.586997
H 0.882820 -0.472370 0.625907
O -0.906097 1.940307 -0.826867
H -1.429516 1.483123 -0.165730
H -1.493946 2.160425 -1.552174
6
Structure 317 | Energy: -10.142972 Hartree
O -1.655347 -0.973029 -0.404861
H -1.838000 -1.520990 0.360947
H -2.493727 -0.617533 -0.706243
O 0.769461 0.409420 2.276988
H 0.717392 -0.430325 2.737644
H 0.854155 0.215419 1.341425
6
Structure 318 | Energy: -10.142970 Hartree
O 1.060807 0.770661 -1.667200
H 1.156039 -0.160486 -1.457480
H 0.120976 0.955919 -1.717083
O -0.191631 -0.167677 0.562664
H -0.946778 0.212307 0.109396
H 0.450616 0.534629 0.682559
6
Structure 319 | Energy: -10.142962 Hartree
O 1.390719 0.864534 0.789046
H 2.094039 0.846418 1.441042
H 1.408707 0.023373 0.328376
O -1.431571 -0.584628 -1.489697
H -1.112770 -0.464298 -2.386343
H -1.743619 0.268713 -1.182250
6
Structure 320 | Energy: -10.142961 Hartree
O 2.316341 -0.406937 0.125984
H 1.979087 -1.258139 0.411996
H 3.172868 -0.561661 -0.277144
O 0.129285 1.185525 0.016275
H -0.148354 1.081495 -0.895964
H 1.069948 1.373039 0.007285
6
Structure 321 | Energy: -10.142954 Hartree
O 0.412910 -0.866256 -1.601461
H 0.832053 -1.677229 -1.306965
H 1.035165 -0.417861 -2.177509
O -1.274242 1.332703 1.250908
H -1.392895 0.404988 1.037944
H -1.795624 1.837141 0.623381
6
Structure 322 | Energy: -10.142954 Hartree
O 0.709312 1.830936 1.583773
H -0.236721 1.715406 1.475331
H 1.129239 1.016246 1.300877
O -1.080944 -1.895198 -0.003175
H -1.998046 -1.700783 0.199841
H -0.965833 -2.843578 0.082915
6
Structure 323 | Energy: -10.142933 Hartree
O 1.382161 2.024107 -0.392917
H 0.901413 2.004219 -1.222720
H 1.483948 1.115832 -0.101769
O -1.512634 0.294728 -1.065826
H -2.019304 1.046039 -1.380320
H -1.534376 -0.371371 -1.755701
6
Structure 324 | Energy: -10.142931 Hartree
O 0.342646 0.902082 -2.183039
H 0.928642 0.207382 -1.876304
H 0.465753 0.979501 -3.131164
O -1.412954 -0.823614 0.968057
H -0.704371 -1.354486 0.599042
H -1.505772 -0.047642 0.411873
6
Structure 325 | Energy: -10.142927 Hartree
O -1.802508 1.063856 -0.107927
H -1.403536 0.869185 -0.958227
H -2.706218 0.743729 -0.138235
O 0.485357 -1.221991 1.049355
H -0.409922 -0.909769 0.904161
H 0.426255 -2.014033 1.587188
6
Structure 326 | Energy: -10.142925 Hartree
O -0.533283 0.907254 -1.849593
H -1.127135 0.155925 -1.903723
H -0.125372 1.009597 -2.711698
O -1.859314 -0.443464 0.199654
H -2.401309 -0.981943 0.779628
H -2.112258 0.470740 0.342272
6
Structure 327 | Energy: -10.142924 Hartree
O 0.226236 1.167748 -1.091780
H 0.252089 1.971213 -0.568461
H 0.732188 0.504212 -0.618680
O 2.451721 -0.492455 0.258017
H 1.753082 -0.332560 0.895532
H 2.352381 -1.394757 -0.051936
6
Structure 328 | Energy: -10.142918 Hartree
O 0.382498 -0.380767 -1.410651
H 0.950288 0.388073 -1.329508
H -0.168100 -0.411368 -0.625796
O 1.453590 1.171707 1.617828
H 1.762707 0.717047 2.403842
H 0.495380 1.189108 1.658081
6
Structure 329 | Energy: -10.142914 Hartree
O -0.938075 -0.129344 2.331587
H -0.463930 -0.479394 1.574793
H -0.606951 -0.583261 3.109024
O 1.961390 0.239307 -0.072371
H 2.128006 0.382130 0.861400
H 1.161846 0.720170 -0.295051
6
Structure 330 | Energy: -10.142910 Hartree
O -0.644706 0.522018 0.893365
H 0.181630 0.950175 1.125605
H -0.592766 -0.383657 1.205049
O 0.035104 -2.162955 -0.351262
H -0.319426 -2.498038 0.474640
H -0.669367 -1.679762 -0.787533
6
Structure 331 | Energy: -10.142902 Hartree
O 0.071493 1.674709 0.888374
H -0.803765 1.282518 0.902305
H 0.113625 2.248134 0.120585
O -0.616157 -1.101635 -2.095730
H 0.249766 -1.006547 -2.497255
H -0.548260 -1.793181 -1.434487
6
Structure 332 | Energy: -10.142895 Hartree
O 1.143350 0.108266 -0.095622
H 0.288891 0.470790 0.146376
H 1.806747 0.584234 0.407815
O -0.415566 2.081783 -1.240978
H 0.041520 1.597393 -1.931286
H -1.090995 1.500674 -0.885738
6
Structure 333 | Energy: -10.142895 Hartree
O -0.896663 0.774828 1.921041
H -0.321461 1.245133 1.314375
H -0.334894 0.338773 2.564751
O 1.539625 -0.158546 -1.251231
H 1.372747 -0.728889 -2.004191
H 0.756833 -0.182937 -0.697400
6
Structure 334 | Energy: -10.142893 Hartree
O -1.738904 0.288199 -1.336521
H -0.822416 0.331920 -1.616206
H -1.748510 0.370699 -0.380910
O 0.590294 -1.770948 0.120128
H 0.777337 -1.393281 -0.741539
H -0.117695 -2.407555 0.003635
6
Structure 335 | Energy: -10.142893 Hartree
O 0.696843 2.228947 -0.598844
H 0.013813 1.658660 -0.957073
H 0.372320 2.570568 0.236662
O 0.570041 -1.116891 0.629839
H 0.613256 -0.794040 1.532051
H 1.412800 -1.531942 0.435992
6
Structure 336 | Energy: -10.142888 Hartree
O 2.304132 -0.424490 -0.709320
H 2.173003 -1.323882 -1.015889
H 2.953308 -0.019104 -1.287527
O -0.649696 -1.390755 -1.117193
H -1.440846 -1.327291 -0.578546
H -0.568873 -0.566690 -1.601417
6
Structure 337 | Energy: -10.142881 Hartree
O -2.062913 -1.394920 -0.257981
H -2.181433 -0.670236 -0.875130
H -2.847860 -1.943756 -0.310213
O 1.332342 1.324222 0.361006
H 1.136919 1.520294 1.279403
H 1.341469 0.369369 0.270123
6
Structure 338 | Energy: -10.142867 Hartree
O 0.207107 -0.932839 -2.296639
H -0.334103 -1.597775 -1.866480
H -0.354746 -0.469749 -2.921107
O 0.379991 1.027054 1.102570
H 1.338008 1.037114 1.055765
H 0.084237 0.210693 0.694928
6
Structure 339 | Energy: -10.142862 Hartree
O -1.277342 1.667029 1.327127
H -0.344911 1.691811 1.103419
H -1.348944 1.285778 2.204402
O 0.548843 -1.153785 -0.286748
H -0.265112 -1.183143 0.219910
H 0.812477 -2.060847 -0.453554
6
Structure 340 | Energy: -10.142861 Hartree
O -0.082874 0.593213 -0.233032
H 0.648549 1.171391 -0.007605
H -0.627812 0.505468 0.551464
O 0.620376 -0.669149 2.183371
H 0.264392 -0.489957 3.055869
H 1.311898 -1.325599 2.288047
6
Structure 341 | Energy: -10.142856 Hartree
O 0.165094 -1.374889 0.544730
H 1.068166 -1.593850 0.306816
H -0.288517 -1.124330 -0.262455
O 0.355799 2.266034 -0.146205
H -0.101848 1.934583 0.628900
H -0.311181 2.466796 -0.805689
6
Structure 342 | Energy: -10.142850 Hartree
O -0.208008 -0.208204 2.526348
H -0.239795 0.626837 2.055411
H -0.164422 -0.904248 1.867778
O -1.356035 0.156336 -0.863178
H -2.209061 0.008842 -1.276311
H -0.971085 -0.705189 -0.690913
6
Structure 343 | Energy: -10.142850 Hartree
O 1.727663 -1.667134 -0.707090
H 1.356789 -0.882982 -1.116534
H 0.997759 -2.164417 -0.332870
O -1.579806 1.143691 0.757827
H -1.598016 2.087261 0.586273
H -1.525005 1.028840 1.708561
6
Structure 344 | Energy: -10.142847 Hartree
O -1.361038 -0.038714 2.078495
H -1.015937 -0.758469 1.546570
H -2.317729 -0.075083 2.019252
O -0.464627 1.028723 -0.903402
H -0.114382 1.190587 -0.025213
H -0.969597 0.214235 -0.862149
6
Structure 345 | Energy: -10.142845 Hartree
O 1.093794 1.434131 -1.653499
H 1.326164 0.704691 -1.075564
H 1.600966 1.329506 -2.460915
O 0.585202 -1.784074 0.396112
H 1.270825 -1.319140 0.879686
H -0.256408 -1.523659 0.775539
6
Structure 346 | Energy: -10.142844 Hartree
O 1.301069 -0.836661 1.749181
H 1.263977 -1.762940 1.995588
H 1.395579 -0.330935 2.558749
O -1.429767 0.251135 -1.405706
H -1.216449 1.033075 -1.918689
H -0.600355 -0.169999 -1.171591
6
Structure 347 | Energy: -10.142841 Hartree
O -0.616658 0.524077 2.140760
H -0.230764 -0.333324 2.330590
H 0.069918 1.180460 2.274422
O 1.383554 -1.093952 -0.341175
H 1.919026 -1.379444 -1.084041
H 0.598240 -1.644604 -0.328839
6
Structure 348 | Energy: -10.142837 Hartree
O 0.190605 2.049484 0.710894
H -0.042435 1.241779 0.248951
H 0.295066 1.826472 1.637956
O 0.027577 -0.422699 -1.812909
H -0.084319 -1.259602 -1.357760
H 0.967432 -0.231663 -1.829226
6
Structure 349 | Energy: -10.142835 Hartree
O 1.600132 -1.442143 -1.083234
H 1.592367 -1.117469 -1.985792
H 0.702230 -1.380544 -0.751469
O -0.177734 1.717759 0.692771
H -0.930933 2.087198 1.157846
H 0.431386 1.387229 1.355953
6
Structure 350 | Energy: -10.142813 Hartree
O 1.056542 -1.806196 0.218011
H 1.131262 -1.552727 1.140105
H 0.460810 -1.181874 -0.200817
O 0.262531 0.905037 -1.107451
H 0.773667 1.618066 -0.719613
H -0.573046 0.866523 -0.637965
6
Structure 351 | Energy: -10.142808 Hartree
O -1.521048 -0.562606 1.307777
H -1.365666 0.374141 1.443597
H -1.533209 -0.714132 0.360685
O -0.671770 1.641556 -0.878489
H 0.168103 1.286433 -1.176128
H -1.357234 1.044815 -1.185291
6
Structure 352 | Energy: -10.142799 Hartree
O -0.472589 -0.962190 1.365065
H -0.250266 -0.699702 0.469655
H 0.305786 -0.814678 1.905864
O -0.741454 1.783039 -0.959484
H -1.686992 1.804849 -1.119391
H -0.325599 1.455132 -1.759253
6
Structure 353 | Energy: -10.142797 Hartree
O 1.583240 0.472666 0.592538
H 1.379950 1.038176 -0.155096
H 2.045895 1.010580 1.238053
O -2.185858 -0.086729 -0.267562
H -2.549886 -0.808622 -0.783742
H -1.857795 -0.461035 0.552413
6
Structure 354 | Energy: -10.142794 Hartree
O 2.394673 0.077180 -0.758373
H 2.407246 0.971971 -1.103739
H 2.705544 0.118200 0.148141
O 0.023412 -0.226102 1.400274
H -0.390738 0.616975 1.205878
H -0.428138 -0.891638 0.877538
6
Structure 355 | Energy: -10.142783 Hartree
O -0.342303 -1.741776 -0.291133
H -0.304420 -0.783775 -0.261403
H -1.128070 -2.010021 0.189185
O 0.984483 0.929731 1.723308
H 1.839747 1.351667 1.826175
H 0.351686 1.443324 2.229151
6
Structure 356 | Energy: -10.142779 Hartree
O 1.506151 -0.199580 -1.678259
H 1.096173 -0.622133 -0.920992
H 1.540583 -0.850054 -2.382382
O -1.016072 0.022074 0.865848
H -1.416054 0.771905 1.310656
H -0.148534 -0.108584 1.253656
6
Structure 357 | Energy: -10.142772 Hartree
O -1.194926 -0.440469 -0.051243
H -1.258044 -1.396574 -0.006901
H -0.459182 -0.178243 0.505542
O 1.925841 0.005428 1.710246
H 1.339144 0.333921 2.394327
H 1.804580 0.563825 0.939806
6
Structure 358 | Energy: -10.142769 Hartree
O 1.075889 0.843411 1.821186
H 0.466588 0.181794 2.154504
H 0.990510 1.616600 2.382418
O -0.802634 -0.598809 -1.756054
H -0.490150 -1.373270 -1.284195
H -0.544775 0.169598 -1.243075
6
Structure 359 | Energy: -10.142768 Hartree
O -0.689716 -2.393184 -0.141865
H -0.525300 -2.323508 0.800578
H -1.639552 -2.454625 -0.260723
O -0.675802 1.433796 0.135811
H -0.607348 1.025246 1.000963
H -0.575092 0.737311 -0.515998
6
Structure 360 | Energy: -10.142763 Hartree
O 0.277559 0.288722 1.412340
H 0.313148 -0.212259 2.229553
H 0.462759 -0.322164 0.696372
O -2.031707 -0.566421 -1.070492
H -2.671708 -1.254437 -1.263160
H -2.523885 0.236783 -0.889624
6
Structure 361 | Energy: -10.142761 Hartree
O -0.094468 -1.620894 -0.565525
H -1.052991 -1.656571 -0.558637
H 0.215828 -2.182944 0.147151
O 0.842383 2.275490 0.684900
H 1.750104 2.192028 0.983503
H 0.801717 1.917427 -0.204046
6
Structure 362 | Energy: -10.142760 Hartree
O 0.784875 1.113482 -0.244993
H 0.763842 0.662141 0.601137
H 1.134092 1.993160 -0.089090
O 1.419925 -1.577960 0.663129
H 1.261419 -2.309624 1.262821
H 2.133321 -1.839837 0.077831
6
Structure 363 | Energy: -10.142754 Hartree
O 0.148089 1.845056 1.398958
H 0.423339 0.949919 1.191466
H 0.290299 2.375472 0.612494
O -1.672946 -0.422659 -0.043362
H -2.593687 -0.356438 -0.304011
H -1.509187 -1.338301 0.190885
6
Structure 364 | Energy: -10.142753 Hartree
O -0.198104 0.131418 -1.780566
H -0.492062 0.694769 -2.499114
H 0.531340 -0.395444 -2.112859
O -2.158433 -0.688164 0.489416
H -2.395622 -0.383381 -0.388614
H -1.633153 -1.483512 0.381756
6
Structure 365 | Energy: -10.142742 Hartree
O 0.101418 0.749362 -0.933879
H 0.230311 1.041795 -0.029470
H -0.625712 0.123782 -0.929238
O 0.748682 -0.883790 1.767107
H 0.252926 -0.348005 2.389399
H 1.277283 -1.498558 2.279679
6
Structure 366 | Energy: -10.142741 Hartree
O 1.514729 -1.373810 -0.919397
H 0.972495 -0.656866 -1.254150
H 2.045705 -1.018253 -0.204041
O -0.936570 1.892953 1.299620
H -1.402381 1.676022 2.109588
H -1.373710 2.655801 0.916136
6
Structure 367 | Energy: -10.142737 Hartree
O 0.565046 -1.802030 -0.854957
H 0.313567 -1.812306 0.070645
H 1.251889 -2.461646 -0.970036
O 0.809648 2.009498 1.023364
H 0.290537 1.602336 0.327067
H 0.425768 2.871232 1.196970
6
Structure 368 | Energy: -10.142734 Hartree
O 1.159332 0.885276 1.105899
H 1.307059 -0.010024 0.794932
H 1.919937 1.130911 1.636214
O 0.551425 -2.296587 -0.625610
H 0.458377 -3.014805 -1.254571
H 0.529812 -2.683011 0.252056
6
Structure 369 | Energy: -10.142728 Hartree
O -0.332060 -0.979881 -1.163945
H -0.766637 -1.734027 -1.567047
H 0.610966 -1.088231 -1.301975
O 0.421313 2.131241 0.342427
H -0.212300 1.489210 0.668643
H 1.278221 1.700596 0.324002
6
Structure 370 | Energy: -10.142714 Hartree
O 1.670398 -0.925248 -1.219794
H 1.692411 -1.578177 -0.517451
H 2.579269 -0.694130 -1.421359
O -1.295628 0.332842 1.280463
H -0.973143 0.010305 0.436626
H -1.488310 -0.434387 1.822977
6
Structure 371 | Energy: -10.142706 Hartree
O 2.161500 0.065337 0.945247
H 2.126719 -0.087133 1.891624
H 2.281191 1.007905 0.813599
O -1.748262 -0.566488 -0.602552
H -0.790584 -0.525866 -0.566620
H -2.082964 0.196880 -0.127860
6
Structure 372 | Energy: -10.142690 Hartree
O -0.085026 -0.104451 1.667730
H 0.203321 0.188018 0.800895
H 0.394215 -0.910493 1.869511
O -1.520284 -0.774618 -1.667425
H -1.742528 -1.467553 -2.292353
H -2.031508 0.000276 -1.908835
6
Structure 373 | Energy: -10.142690 Hartree
O -1.144777 0.634019 2.131644
H -1.386384 0.720349 1.207383
H -0.519283 1.334137 2.328323
O 0.285004 1.709392 0.090077
H 0.603925 2.609214 -0.003179
H -0.242249 1.512948 -0.686777
6
Structure 374 | Energy: -10.142674 Hartree
O -0.228042 0.512842 -1.255626
H -0.864939 1.125640 -0.882898
H -0.244947 -0.278721 -0.714115
O 1.957134 -0.821121 0.624281
H 2.388962 -1.216286 -0.135625
H 2.124134 -1.393718 1.375501
6
Structure 375 | Energy: -10.142671 Hartree
O -0.297584 -1.828185 -0.909875
H -0.878944 -2.371527 -1.445493
H 0.494449 -2.341844 -0.739789
O -0.755505 1.181717 1.061297
H -0.796127 1.640172 0.219718
H 0.021936 0.620212 1.041649
6
Structure 376 | Energy: -10.142663 Hartree
O -2.117057 0.089399 1.359305
H -2.617251 0.905713 1.299939
H -1.216208 0.324411 1.590243
O 0.679208 -1.663589 -1.363116
H 0.231815 -1.599098 -2.209147
H 0.194891 -2.299974 -0.833456
6
Structure 377 | Energy: -10.142662 Hartree
O 0.175442 0.956638 -0.414980
H -0.520367 0.946745 0.245201
H 0.298105 1.868928 -0.684740
O 0.573547 -0.054236 2.349855
H 1.455552 0.149883 2.032852
H 0.543464 0.183391 3.278681
6
Structure 378 | Energy: -10.142658 Hartree
O 1.815159 -1.561520 -0.202764
H 1.945486 -0.679217 -0.555812
H 1.079236 -1.951899 -0.678276
O -0.046441 0.635365 1.938049
H -0.417186 -0.093663 2.439200
H 0.541456 1.114080 2.525670
6
Structure 379 | Energy: -10.142648 Hartree
O -0.954160 -1.792412 -0.215234
H -0.493695 -1.645421 -1.043758
H -0.356361 -1.538996 0.490817
O 0.338417 1.345427 2.077376
H -0.620481 1.351860 2.053689
H 0.601387 0.734975 2.768956
6
Structure 380 | Energy: -10.142647 Hartree
O -1.603571 0.777379 -0.782301
H -0.937644 0.548994 -0.130789
H -1.208952 0.652531 -1.647621
O 0.580821 -0.787290 2.241950
H 0.937083 -1.200939 3.030657
H 0.640628 -1.429980 1.532401
6
Structure 381 | Energy: -10.142645 Hartree
O -0.086617 1.476737 1.871731
H -0.286845 0.541095 1.939331
H 0.237546 1.634349 0.982817
O -0.643314 -1.068186 -0.617872
H -1.070295 -1.755144 -1.133492
H -0.792192 -1.273386 0.307232
6
Structure 382 | Energy: -10.142640 Hartree
O 0.960925 -0.978943 0.502443
H 0.786571 -1.841627 0.121046
H 0.262125 -0.391614 0.207800
O -1.225512 1.367456 -0.057849
H -0.509462 1.565377 0.548935
H -0.829576 1.033573 -0.865218
6
Structure 383 | Energy: -10.142627 Hartree
O 0.259416 -1.475087 1.954144
H -0.235865 -2.090617 1.410173
H 0.966590 -1.970594 2.371840
O -0.212033 0.745423 -0.227028
H 0.533396 0.646825 0.368540
H -0.167416 1.630611 -0.593823
6
Structure 384 | Energy: -10.142624 Hartree
O 1.461751 1.620555 0.675139
H 0.889974 1.057003 1.200083
H 2.316680 1.188657 0.623641
O -1.955963 -0.292235 -0.574723
H -1.613642 0.359690 0.040011
H -1.573450 -0.101343 -1.433403
6
Structure 385 | Energy: -10.142618 Hartree
O -1.295053 -2.132336 0.117062
H -1.158975 -2.266508 -0.822920
H -0.562332 -2.551280 0.572799
O 1.019773 0.395205 -1.896634
H 0.954929 0.531652 -0.949393
H 0.152699 0.124231 -2.204603
6
Structure 386 | Energy: -10.142609 Hartree
O 0.488109 -2.354311 -0.107894
H 0.074862 -2.181738 0.740358
H -0.080673 -2.963931 -0.582174
O -0.406874 0.681805 0.252003
H -0.151370 0.034048 0.911712
H 0.384444 0.917206 -0.236353
6
Structure 387 | Energy: -10.142603 Hartree
O -0.946001 -1.135268 1.320015
H -0.138476 -1.579813 1.054742
H -1.223196 -1.522700 2.152571
O 0.211494 2.329001 -0.577749
H -0.243507 2.895930 -1.203571
H -0.413214 2.115025 0.117982
6
Structure 388 | Energy: -10.142594 Hartree
O 2.005726 -0.314836 0.664093
H 2.329909 -0.525619 -0.213723
H 1.870675 0.634262 0.696709
O -1.773819 0.637235 -1.458617
H -1.901798 -0.019913 -2.145541
H -1.427186 0.180520 -0.689627
6
Structure 389 | Energy: -10.142589 Hartree
O -0.241179 0.825281 1.279968
H -1.028120 0.278181 1.241339
H -0.442396 1.644913 0.824110
O -0.305422 -2.309092 -0.625734
H 0.135081 -2.103034 -1.452525
H 0.211728 -2.989518 -0.190231
6
Structure 390 | Energy: -10.142587 Hartree
O 1.019145 -0.169107 1.849656
H 0.686288 0.031318 0.972659
H 1.534078 -0.975438 1.780621
O -1.521209 1.594407 -1.039878
H -1.996189 1.134425 -1.734786
H -1.984797 1.423412 -0.217725
6
Structure 391 | Energy: -10.142586 Hartree
O -0.487423 2.273122 -0.898313
H -1.227048 2.611467 -0.389822
H -0.773827 2.214774 -1.811909
O 1.062994 -0.209628 1.303598
H 1.409120 0.293005 0.563568
H 1.791252 -0.361800 1.909050
6
Structure 392 | Energy: -10.142586 Hartree
O 1.745232 -1.095273 -1.074438
H 2.367827 -1.302636 -0.374822
H 0.875154 -1.042840 -0.674056
O -1.759772 0.039112 1.689059
H -2.485178 0.408721 2.196269
H -1.069239 0.704008 1.654941
6
Structure 393 | Energy: -10.142580 Hartree
O -0.103112 0.815986 -0.770490
H 0.707232 0.379823 -1.041027
H 0.072485 1.246518 0.068497
O 0.381499 -0.825166 2.399083
H 0.738079 -0.974269 1.521184
H -0.521542 -0.520374 2.290892
6
Structure 394 | Energy: -10.142570 Hartree
O 0.076608 -0.856661 2.362459
H -0.266806 -0.433742 1.572970
H 1.033349 -0.801915 2.320737
O 1.517136 0.688396 -0.425126
H 1.435884 -0.266834 -0.393162
H 2.400831 0.908548 -0.123955
6
Structure 395 | Energy: -10.142566 Hartree
O -0.522046 1.634239 1.779515
H -0.291450 2.220827 1.056448
H -0.321116 0.740407 1.495292
O 0.211307 -1.633991 -1.073963
H -0.088144 -1.184945 -1.866916
H -0.542574 -2.103419 -0.711487
6
Structure 396 | Energy: -10.142558 Hartree
O -0.214478 -1.982875 0.361363
H 0.678365 -1.638595 0.427608
H -0.153445 -2.939472 0.397254
O 1.682541 1.523670 -1.100158
H 1.078424 1.652837 -0.366369
H 1.702106 2.342430 -1.599495
6
Structure 397 | Energy: -10.142548 Hartree
O -1.555298 0.632880 -0.582588
H -0.853587 0.990287 -1.130264
H -2.067363 0.035376 -1.131103
O 2.051811 -0.097777 1.527588
H 1.520599 0.037843 0.740499
H 1.486132 -0.507673 2.184916
6
Structure 398 | Energy: -10.142546 Hartree
O 1.049746 -1.327794 0.703403
H 1.522784 -0.805204 1.353956
H 0.123121 -1.087811 0.765581
O 1.953358 0.897488 -0.044146
H 2.760142 0.379081 -0.065148
H 1.364904 0.534211 -0.708857
6
Structure 399 | Energy: -10.142522 Hartree
O -1.483744 1.610251 0.871228
H -0.917967 2.317764 1.186518
H -1.965807 1.273021 1.628844
O 1.120279 -1.361758 -0.306656
H 0.540395 -1.130572 -1.034925
H 1.536706 -0.551335 -0.006837
6
Structure 400 | Energy: -10.142521 Hartree
O 0.700862 2.071292 0.909370
H 0.905510 1.765286 0.023613
H 1.481304 2.518250 1.242880
O -0.295985 -0.910186 -1.577104
H -1.237614 -0.774415 -1.454672
H -0.189143 -1.502578 -2.323927
6
Structure 401 | Energy: -10.142520 Hartree
O 1.523528 -1.380836 -0.775150
H 2.415508 -1.055113 -0.639640
H 1.409665 -2.143093 -0.204107
O 0.548240 0.981376 1.138587
H 0.586095 1.909946 0.901075
H -0.297599 0.645045 0.836053
6
Structure 402 | Energy: -10.142516 Hartree
O -2.339968 -0.050746 -0.830824
H -2.138844 -0.230382 0.089701
H -3.201053 0.371121 -0.856351
O 1.596731 0.939375 0.636354
H 0.825375 0.842070 0.074544
H 1.638166 1.859227 0.905134
6
Structure 403 | Energy: -10.142510 Hartree
O -1.324726 0.437009 -0.039252
H -0.845853 1.070574 0.498672
H -0.793192 -0.360441 -0.079715
O 0.691901 -2.209842 -0.667587
H -0.121745 -1.990539 -1.125816
H 1.278604 -1.455909 -0.753915
6
Structure 404 | Energy: -10.142490 Hartree
O -0.856091 -0.198984 -2.217620
H -1.749478 -0.335038 -1.896007
H -0.546780 -1.039465 -2.561144
O -0.267145 1.489642 1.352436
H 0.540044 1.446343 0.836046
H -0.811497 0.744134 1.091694
6
Structure 405 | Energy: -10.142486 Hartree
O -1.225949 -0.130651 -0.029351
H -1.044433 0.183951 0.858435
H -1.898911 -0.810424 0.042228
O 1.408571 1.898772 -0.578921
H 0.951805 2.284399 0.171242
H 1.311551 0.946838 -0.511863
6
Structure 406 | Energy: -10.142485 Hartree
O 2.102688 0.090896 -0.470982
H 1.460275 -0.053783 0.226484
H 2.127760 -0.706262 -1.003899
O -1.040522 -1.247105 -1.572878
H -1.966710 -1.478724 -1.665695
H -0.542571 -1.831507 -2.147863
6
Structure 407 | Energy: -10.142484 Hartree
O -0.840560 -2.074979 0.146514
H -1.282031 -1.709273 0.915571
H -1.492339 -2.583292 -0.340204
O 0.109422 0.487447 -1.918472
H 0.519489 -0.273153 -2.334910
H 0.718874 0.808883 -1.251138
6
Structure 408 | Energy: -10.142483 Hartree
O 0.195634 1.471830 1.116972
H -0.195958 0.629487 0.877810
H -0.520326 2.053409 1.380142
O 0.376776 -0.770467 -2.401017
H 0.568302 -1.335038 -1.649576
H 1.123214 -0.177708 -2.508514
6
Structure 409 | Energy: -10.142475 Hartree
O 1.059688 1.642224 -1.260968
H 1.166139 0.836245 -0.751897
H 1.075947 2.373997 -0.641020
O -1.786508 -0.878360 1.081631
H -1.924158 -1.374007 1.891245
H -2.503760 -1.102950 0.485647
6
Structure 410 | Energy: -10.142472 Hartree
O 0.149213 0.166782 -1.037018
H 0.766034 0.574608 -0.426038
H -0.690290 0.620137 -0.938050
O 0.176610 -1.153834 2.129821
H 0.140305 -1.050276 3.082735
H 0.459171 -2.053147 1.952385
6
Structure 411 | Energy: -10.142472 Hartree
O 0.004939 0.361933 -1.546286
H 0.517278 1.112323 -1.853711
H -0.703446 0.706675 -0.999081
O -0.282258 -0.556881 1.918855
H -0.539456 -0.819906 2.804718
H -0.716094 -1.155422 1.307606
6
Structure 412 | Energy: -10.142469 Hartree
O 0.253307 1.726055 1.659211
H -0.699144 1.612447 1.663278
H 0.555596 1.558034 0.764515
O -1.797670 0.123042 0.148479
H -1.014109 -0.129672 0.640673
H -2.459870 0.393071 0.787747
6
Structure 413 | Energy: -10.142467 Hartree
O -0.271773 -2.336227 -0.243843
H 0.091453 -1.603303 -0.744818
H -1.226473 -2.289936 -0.324443
O -1.181882 1.092370 0.988438
H -0.724655 0.338265 1.365740
H -2.033343 0.780789 0.675360
6
Structure 414 | Energy: -10.142442 Hartree
O -1.745407 -1.285049 -0.553415
H -2.535480 -1.514892 -1.046409
H -1.812790 -1.708458 0.304650
O 1.995795 0.454144 1.420970
H 1.173520 0.460371 1.914845
H 1.785372 0.692273 0.515926
6
Structure 415 | Energy: -10.142440 Hartree
O -1.913781 -1.197768 -0.720018
H -1.905841 -1.251950 -1.677664
H -2.205332 -2.049816 -0.389712
O 0.184584 1.859232 0.365208
H -0.361107 1.206901 0.808798
H 1.084172 1.734201 0.673747
6
Structure 416 | Energy: -10.142430 Hartree
O 0.170102 0.080203 1.824631
H 0.841617 -0.023838 1.147631
H -0.521766 0.632872 1.455896
O 0.754192 -1.187085 -1.961480
H 0.469496 -1.345536 -1.059300
H 0.055171 -1.499961 -2.539031
6
Structure 417 | Energy: -10.142422 Hartree
O -1.699229 0.371705 -1.554493
H -1.915749 0.990430 -0.854219
H -2.247206 0.594275 -2.309659
O 0.598553 -1.185156 1.021935
H 0.696199 -1.130144 0.069293
H 1.475623 -1.106993 1.402364
6
Structure 418 | Energy: -10.142421 Hartree
O -0.134785 -0.963739 0.171754
H 0.290161 -1.603112 -0.403320
H -0.993646 -0.767282 -0.207526
O 2.141543 0.744047 -0.771602
H 2.119472 0.318363 0.087696
H 2.554526 0.130237 -1.382152
6
Structure 419 | Energy: -10.142421 Hartree
O 1.374348 -2.148571 0.402707
H 1.743585 -1.525038 -0.225749
H 0.963815 -1.637010 1.102607
O 1.436193 0.792088 -0.062042
H 0.749993 0.365680 0.455059
H 1.092227 0.907856 -0.949946
6
Structure 420 | Energy: -10.142414 Hartree
O -1.101923 -1.520561 1.606428
H -0.236269 -1.294450 1.260590
H -1.651337 -1.765130 0.859152
O 1.967191 0.281860 -0.505484
H 1.583864 0.310813 -1.384296
H 1.468642 0.891516 0.042107
6
Structure 421 | Energy: -10.142402 Hartree
O 0.009686 -2.155216 0.755715
H 0.200494 -2.711017 -0.002417
H -0.008150 -1.247775 0.445355
O -0.201884 1.425998 -1.159384
H -0.459741 2.153906 -0.590397
H -0.904077 0.773612 -1.121877
6
Structure 422 | Energy: -10.142398 Hartree
O 0.816082 0.959144 -0.883443
H 1.398894 1.204341 -1.604758
H 1.240628 0.243767 -0.405860
O -0.059228 -0.417091 2.445795
H 0.811517 -0.327767 2.053478
H -0.691105 -0.058508 1.819506
6
Structure 423 | Energy: -10.142397 Hartree
O 2.008483 -1.499000 -0.166901
H 1.590762 -1.302241 0.673861
H 2.956732 -1.486138 -0.022856
O -0.975866 -0.102177 -0.793849
H -1.028556 -0.217991 -1.744585
H -1.118412 -0.962599 -0.394547
6
Structure 424 | Energy: -10.142396 Hartree
O -1.523013 0.471008 -1.257804
H -1.619433 0.524611 -0.304958
H -1.489978 -0.459573 -1.488060
O 2.290034 -0.943772 0.239306
H 2.219043 -1.622600 -0.434668
H 2.333165 -0.098587 -0.212235
6
Structure 425 | Energy: -10.142396 Hartree
O -0.266087 -1.302752 -1.543437
H 0.345616 -0.566038 -1.487247
H -0.455032 -1.584147 -0.646103
O -0.514478 1.844907 1.545312
H -0.213445 2.176127 0.696925
H -1.322465 2.313859 1.762862
6
Structure 426 | Energy: -10.142389 Hartree
O -0.430582 -1.243007 -0.695669
H 0.025586 -2.023353 -1.016694
H 0.221026 -0.542860 -0.622928
O 1.196814 1.528167 1.296295
H 1.195491 1.795175 0.374996
H 0.425403 1.922967 1.707569
6
Structure 427 | Energy: -10.142387 Hartree
O -1.261904 -1.160440 -0.467444
H -0.936707 -1.988827 -0.109523
H -1.679014 -0.683975 0.253036
O 1.077647 2.043929 0.161755
H 1.408893 1.364620 -0.428925
H 1.487438 2.871209 -0.098567
6
Structure 428 | Energy: -10.142384 Hartree
O -0.262701 1.657758 -1.227203
H -0.278153 1.149971 -2.040837
H -0.391424 2.578237 -1.464353
O 0.897394 -2.237835 0.657974
H 1.174627 -2.400086 1.561801
H 1.221864 -1.369061 0.412944
6
Structure 429 | Energy: -10.142382 Hartree
O 0.101468 -0.247902 1.916505
H 0.162526 0.666328 1.632709
H 0.902306 -0.689326 1.626859
O -0.804169 2.177924 -0.497602
H -0.566015 2.287607 -1.420283
H -0.596635 1.273054 -0.256298
6
Structure 430 | Energy: -10.142378 Hartree
O -0.548918 -2.425131 0.266965
H 0.109186 -2.485706 -0.428245
H -1.331039 -2.023460 -0.116492
O 0.969110 1.101192 -1.270659
H 1.895565 1.273453 -1.449812
H 0.524619 1.950318 -1.231916
6
Structure 431 | Energy: -10.142374 Hartree
O 0.789806 -0.916976 1.498314
H 0.804019 -1.372165 2.342522
H 0.408428 -1.519747 0.856980
O -2.154815 1.186273 -0.363342
H -1.679695 1.212347 0.469526
H -3.070425 1.401302 -0.174900
6
Structure 432 | Energy: -10.142371 Hartree
O 0.100766 -1.665615 -0.293436
H -0.190718 -2.113129 0.503342
H 0.590303 -0.887598 -0.019333
O 0.266328 2.154074 0.474147
H -0.152358 3.016242 0.512289
H 1.009466 2.172108 1.080372
6
Structure 433 | Energy: -10.142370 Hartree
O -0.512772 -1.690123 0.800508
H -1.106457 -1.024566 1.153578
H -0.832315 -2.543479 1.100119
O -0.161937 2.409354 -0.534791
H 0.592681 2.143317 -0.005770
H 0.156533 2.564208 -1.426243
6
Structure 434 | Energy: -10.142361 Hartree
O -0.450182 -2.557667 0.007395
H 0.315414 -2.210018 -0.454222
H -0.803766 -1.847238 0.546246
O -0.993546 0.000852 -0.823125
H -1.161950 0.357184 0.051378
H -1.679077 0.337083 -1.403714
6
Structure 435 | Energy: -10.142360 Hartree
O 0.038755 1.420540 0.885879
H 0.700273 1.693028 1.524808
H -0.339520 0.597702 1.202007
O -1.059920 -0.753355 -1.807834
H -0.657616 -1.277337 -2.503306
H -1.235979 0.116021 -2.172904
6
Structure 436 | Energy: -10.142348 Hartree
O -0.976521 1.623727 -1.213844
H -1.083184 0.810521 -0.716446
H -0.349473 2.169354 -0.735103
O 0.182685 -0.959475 2.227173
H -0.403123 -0.447563 2.788300
H -0.279922 -1.767201 1.995524
6
Structure 437 | Energy: -10.142346 Hartree
O 2.086810 -0.384887 0.709077
H 2.763649 -0.684174 1.319324
H 2.086657 -0.990905 -0.034450
O -0.916542 0.473378 -1.323845
H -0.873684 0.696997 -0.392048
H -1.367362 -0.370462 -1.393013
6
Structure 438 | Energy: -10.142343 Hartree
O -0.948105 -0.128319 -1.107325
H -0.353518 0.511804 -1.503297
H -1.619806 -0.334063 -1.760455
O 0.087423 2.130122 0.936238
H 0.276227 2.737824 1.653970
H 0.513320 1.297532 1.149529
6
Structure 439 | Energy: -10.142341 Hartree
O -1.123901 -2.317102 -0.101708
H -0.302789 -1.944791 -0.429195
H -1.776658 -1.614274 -0.107360
O 0.436394 1.626399 0.724666
H -0.257548 2.032480 0.201568
H 1.028716 2.327311 1.003887
6
Structure 440 | Energy: -10.142333 Hartree
O 0.993403 0.135237 0.911390
H 1.654649 -0.073880 0.248737
H 1.147835 -0.444684 1.659677
O -1.522292 1.652273 0.966421
H -1.485765 0.694504 1.004258
H -1.316526 1.909010 0.065402
6
Structure 441 | Energy: -10.142332 Hartree
O -0.258709 -1.223475 -1.420239
H 0.642734 -1.371442 -1.712801
H -0.838364 -1.524492 -2.122721
O -0.375026 1.969008 1.202232
H -1.260718 2.073656 1.555341
H -0.463575 1.762330 0.269746
6
Structure 442 | Energy: -10.142310 Hartree
O -0.432721 0.040532 -0.255710
H 0.455367 0.371205 -0.107245
H -0.367421 -0.671977 -0.894582
O 0.246326 -0.986146 2.197384
H 0.507420 -0.064393 2.149543
H -0.664901 -1.008127 2.496164
6
Structure 443 | Energy: -10.142309 Hartree
O 1.685204 -0.525457 -0.442847
H 2.535577 -0.148710 -0.677394
H 1.275586 0.069073 0.188690
O 0.147030 0.806918 2.269106
H 0.985659 1.272522 2.270775
H -0.530619 1.441413 2.510553
6
Structure 444 | Energy: -10.142306 Hartree
O 0.394536 1.711654 1.093929
H 0.279485 2.325909 0.366234
H -0.410923 1.194909 1.159509
O 1.592662 -0.630729 -1.616557
H 1.570587 0.327105 -1.570155
H 2.508160 -0.898943 -1.516494
6
Structure 445 | Energy: -10.142305 Hartree
O 0.692043 -0.169961 0.939979
H 0.920652 0.353543 0.169417
H -0.081752 0.233534 1.338130
O -1.657789 0.011164 -1.805802
H -2.337957 0.384264 -2.369943
H -2.077067 -0.231806 -0.977997
6
Structure 446 | Energy: -10.142301 Hartree
O 0.529906 -0.566591 -0.523137
H 0.968082 -1.409627 -0.391316
H -0.401004 -0.697421 -0.332400
O -0.087166 0.633351 1.853413
H 0.688253 0.693082 1.291946
H -0.402208 -0.271477 1.807346
6
Structure 447 | Energy: -10.142297 Hartree
O 0.798701 -2.348202 0.260748
H 1.697543 -2.296576 -0.070164
H 0.844536 -2.292828 1.217264
O -1.593724 0.993686 -0.536317
H -2.546786 0.959725 -0.639310
H -1.216152 0.401135 -1.189318
6
Structure 448 | Energy: -10.142296 Hartree
O 0.445726 2.459940 0.448126
H -0.334711 2.265404 0.970773
H 0.734026 1.635953 0.050609
O 0.667571 -1.431670 -0.781818
H 1.370101 -0.807907 -0.588275
H 1.022459 -2.077741 -1.395605
6
Structure 449 | Energy: -10.142277 Hartree
O -1.208744 0.642452 -0.099007
H -0.395453 0.882802 -0.547198
H -1.657094 1.458144 0.132766
O 0.989780 -0.318333 1.971047
H 0.786125 -0.726177 2.815011
H 0.411516 0.441003 1.875609
6
Structure 450 | Energy: -10.142263 Hartree
O -0.198516 0.101645 1.822548
H 0.480821 0.700034 2.139593
H -0.526518 0.457483 0.994366
O -0.494310 -1.996361 -0.547847
H -0.762793 -1.075629 -0.563876
H 0.103504 -2.105048 0.194375
6
Structure 451 | Energy: -10.142257 Hartree
O -2.170628 -0.300102 -0.170833
H -1.500423 -0.407096 -0.848670
H -2.939924 0.089438 -0.590991
O 0.812994 1.450931 1.899582
H 0.318209 0.657397 2.113073
H 1.632297 1.172153 1.485924
6
Structure 452 | Energy: -10.142255 Hartree
O -0.360883 -1.957125 0.876662
H -1.005108 -1.943136 0.166124
H 0.304230 -2.608055 0.644270
O -0.308220 1.203812 -1.461279
H -0.423409 0.496441 -2.098810
H -0.070588 0.797181 -0.625653
6
Structure 453 | Energy: -10.142245 Hartree
O -0.089930 0.735021 1.632856
H 0.078620 -0.076275 1.149663
H 0.599158 1.357370 1.392170
O 2.156723 -0.271698 -1.286879
H 1.403631 0.286933 -1.084715
H 1.926620 -0.789575 -2.060793
6
Structure 454 | Energy: -10.142243 Hartree
O 0.647815 -0.142580 1.444051
H 1.009582 0.740401 1.346295
H 1.083189 -0.701156 0.797110
O -0.865313 1.147743 -1.624641
H -1.737968 1.543936 -1.664545
H -0.860407 0.409184 -2.236683
6
Structure 455 | Energy: -10.142239 Hartree
O 0.072683 -1.208163 -1.819547
H -0.471239 -0.458471 -1.570154
H 0.703387 -0.897014 -2.471842
O -0.068704 1.454628 1.027730
H 0.372371 2.089783 0.460175
H 0.608631 1.026246 1.554792
6
Structure 456 | Energy: -10.142235 Hartree
O 0.279389 2.207555 -0.652262
H 0.226870 1.281522 -0.896784
H -0.317176 2.340405 0.087030
O 0.031959 -1.401156 1.455236
H -0.257594 -0.758926 2.106226
H 0.967507 -1.251632 1.305297
6
Structure 457 | Energy: -10.142232 Hartree
O 1.056281 -0.456415 1.058379
H 0.154311 -0.637888 1.329678
H 1.190285 0.490459 1.132966
O 0.787879 1.068030 -1.758460
H 1.326404 1.626391 -1.194267
H 1.378936 0.452302 -2.196202
6
Structure 458 | Energy: -10.142228 Hartree
O 0.151965 1.554114 0.897186
H -0.245859 0.741851 0.577732
H -0.276190 2.279643 0.438513
O -0.936026 -1.538701 -1.659876
H -0.054513 -1.269443 -1.925439
H -0.874147 -1.866065 -0.760381
6
Structure 459 | Energy: -10.142227 Hartree
O 0.157378 -0.924618 -0.491230
H 0.620152 -0.473365 -1.199959
H -0.155542 -0.252172 0.117038
O -0.737933 2.010700 0.720679
H -0.061757 1.777190 0.081659
H -1.355214 2.597533 0.279454
6
Structure 460 | Energy: -10.142217 Hartree
O -1.603758 0.974492 0.459371
H -1.392313 0.234346 1.031700
H -1.275017 0.759792 -0.415800
O 0.552865 -1.956551 -1.058619
H 1.243067 -1.644041 -0.470362
H -0.056205 -2.476717 -0.530841
6
Structure 461 | Energy: -10.142216 Hartree
O -0.269297 1.217447 0.990105
H -0.374956 2.156320 1.155755
H -1.135496 0.868399 0.771115
O 0.732989 -0.917015 -2.152490
H 1.324440 -1.078612 -2.890161
H 0.910335 -0.029268 -1.835406
6
Structure 462 | Energy: -10.142212 Hartree
O -0.170472 -1.296794 -1.404457
H -0.030858 -0.587597 -2.035039
H 0.694122 -1.586262 -1.106503
O -1.863269 1.631273 0.346182
H -1.525498 1.838506 -0.527347
H -2.481268 0.904452 0.246708
6
Structure 463 | Energy: -10.142210 Hartree
O 0.141200 0.219650 1.850854
H -0.741256 0.326994 2.211181
H 0.723002 0.798803 2.347018
O -0.443450 -2.190594 -0.605845
H -0.253992 -1.529515 -1.274550
H 0.389922 -2.422093 -0.191132
6
Structure 464 | Energy: -10.142199 Hartree
O -1.450116 0.175471 2.113138
H -0.925749 -0.189210 2.828774
H -0.892920 0.191946 1.332528
O -0.464662 -0.576216 -1.946571
H -0.202488 0.334690 -2.093548
H -0.109244 -1.094552 -2.671205
6
Structure 465 | Energy: -10.142174 Hartree
O 0.654323 -1.656884 0.553001
H 0.620805 -2.612522 0.477375
H 1.578316 -1.409973 0.626229
O 1.899360 1.121652 -0.887380
H 1.066182 0.820802 -1.255335
H 2.558095 0.455721 -1.094002
6
Structure 466 | Energy: -10.142170 Hartree
O 1.813939 -0.614713 -0.035595
H 1.042400 -0.709639 0.526369
H 2.384222 0.039431 0.373018
O -1.481246 -0.859887 1.617800
H -2.305876 -0.897070 2.106360
H -0.769989 -0.966399 2.252510
6
Structure 467 | Energy: -10.142162 Hartree
O -1.204455 -0.630659 0.691163
H -0.778291 0.083338 1.169367
H -0.851838 -1.453487 1.035699
O -1.512438 1.566456 -0.635595
H -1.464282 1.004693 -1.411604
H -2.441725 1.708436 -0.444926
6
Structure 468 | Energy: -10.142147 Hartree
O -0.684240 2.391499 0.353298
H -1.223151 1.909355 0.983535
H -0.184516 1.743637 -0.147342
O 1.187833 -1.584421 -0.932993
H 1.265187 -1.337258 -0.009405
H 1.422416 -2.512134 -0.999387
6
Structure 469 | Energy: -10.142147 Hartree
O 0.897538 -1.747381 -0.758545
H 0.363039 -1.074378 -0.332560
H 1.114534 -1.424842 -1.635456
O 1.014724 2.251863 0.043175
H 0.069153 2.302664 -0.109799
H 1.152933 2.313200 0.990394
6
Structure 470 | Energy: -10.142140 Hartree
O -1.120804 -0.375840 1.410479
H -1.486833 -0.025991 2.225166
H -0.724017 0.359070 0.938719
O 1.705358 0.583794 -0.980549
H 1.710945 -0.209514 -0.441365
H 1.865930 1.326372 -0.394987
6
Structure 471 | Energy: -10.142133 Hartree
O 1.835434 -0.958316 -0.037578
H 2.574844 -0.940193 0.573184
H 1.793479 -1.842689 -0.406652
O -1.354252 0.199162 0.896835
H -1.290436 0.465994 1.815974
H -0.821241 -0.591528 0.792930
6
Structure 472 | Energy: -10.142132 Hartree
O -1.015551 1.444135 0.438849
H -1.932507 1.242181 0.242651
H -0.581111 1.631394 -0.395589
O 0.733081 -1.965890 -1.131716
H 1.156002 -2.644220 -1.661898
H 0.595083 -2.334085 -0.256800
6
Structure 473 | Energy: -10.142128 Hartree
O 0.822725 -1.715053 -1.351893
H 1.730918 -1.459361 -1.524792
H 0.468946 -1.092488 -0.713657
O 0.961868 2.222254 0.452266
H 1.839707 1.856840 0.578593
H 1.043086 2.948015 -0.169637
6
Structure 474 | Energy: -10.142122 Hartree
O -1.712737 -0.883198 -0.774523
H -1.447753 -1.020053 0.137146
H -1.438877 -1.657985 -1.269293
O 1.581740 1.636972 0.953307
H 1.324125 1.761474 0.037763
H 2.534418 1.739918 0.996848
6
Structure 475 | Energy: -10.142115 Hartree
O -0.805835 0.899512 1.594867
H -0.693200 -0.045228 1.472944
H -1.742201 1.059029 1.728522
O 0.774347 -1.050017 -2.174766
H 1.080697 -0.484566 -2.886456
H 0.109866 -0.558805 -1.687668
6
Structure 476 | Energy: -10.142114 Hartree
O -0.369350 -0.746692 -1.733323
H -1.055818 -1.198521 -1.238652
H 0.279640 -1.406290 -1.985976
O 2.083056 -0.034605 0.256868
H 2.056423 0.714310 -0.341886
H 2.968498 -0.073667 0.623686
6
Structure 477 | Energy: -10.142109 Hartree
O 1.778056 -0.230546 0.762578
H 1.298176 0.434302 0.264805
H 2.383289 -0.659039 0.154156
O 0.732280 0.751059 -2.281529
H 1.407949 0.095935 -2.096132
H 1.174416 1.519097 -2.648572
6
Structure 478 | Energy: -10.142091 Hartree
O 0.458695 -0.780479 -1.124221
H 0.122947 -0.979634 -2.000404
H -0.173427 -1.128084 -0.492016
O 0.464863 0.993870 2.295512
H -0.008643 1.162846 1.478611
H 0.658784 0.054850 2.322414
6
Structure 479 | Energy: -10.142083 Hartree
O 0.454532 1.799045 -1.275634
H -0.309848 1.584298 -0.737403
H 0.276690 1.478866 -2.162171
O 1.150308 -0.452233 1.036621
H 1.332559 -1.250519 1.536233
H 1.581003 0.273140 1.493156
6
Structure 480 | Energy: -10.142076 Hartree
O -0.340561 1.842993 -1.502893
H -0.962657 2.255695 -2.105189
H 0.170884 1.210955 -2.011856
O 0.522782 -1.207020 1.469857
H -0.165054 -0.581094 1.234939
H 0.672478 -1.765166 0.704251
6
Structure 481 | Energy: -10.142075 Hartree
O -0.713821 -0.188349 -1.566590
H -0.085342 -0.908942 -1.643048
H -1.220057 -0.165345 -2.381015
O 2.166553 0.885233 0.553107
H 2.268282 1.424675 -0.233494
H 1.726141 1.424852 1.212604
6
Structure 482 | Energy: -10.142072 Hartree
O 0.906106 -0.840975 1.390417
H 0.218687 -0.867687 2.058869
H 0.475406 -0.696024 0.545682
O -1.965018 1.239910 -0.341597
H -1.537136 1.415821 -1.181870
H -1.290948 1.298962 0.338278
6
Structure 483 | Energy: -10.142064 Hartree
O 0.411059 1.098226 0.376330
H 0.423022 0.936763 -0.569119
H -0.259803 1.763392 0.542430
O -1.430530 -1.651047 0.136767
H -1.836348 -1.781200 -0.722570
H -1.048935 -0.771013 0.140344
6
Structure 484 | Energy: -10.142059 Hartree
O -0.145812 -1.623586 -0.600809
H -0.360026 -0.694180 -0.702807
H 0.552428 -1.824539 -1.227044
O -0.915578 2.242518 0.272687
H -1.591902 1.639510 0.587416
H -0.068824 1.809089 0.396118
6
Structure 485 | Energy: -10.142058 Hartree
O -0.252728 1.073823 -0.335916
H 0.134880 1.093583 0.541270
H 0.329873 0.553080 -0.892236
O -0.718842 -0.999887 1.589526
H -1.264241 -0.920826 2.374623
H -0.541651 -1.933594 1.459592
6
Structure 486 | Energy: -10.142056 Hartree
O 0.268924 -0.526348 -0.687342
H 0.394412 -1.307062 -0.144365
H 0.600312 0.222896 -0.188438
O -1.043062 -0.247623 2.141096
H -1.454949 -1.108579 2.045227
H -0.501833 -0.278193 2.932439
6
Structure 487 | Energy: -10.142051 Hartree
O 0.616755 -0.836110 1.433024
H 0.974643 -0.291619 2.136964
H 1.044493 -1.692709 1.491073
O 0.111606 2.085190 -1.260096
H 0.346728 1.875002 -0.354212
H -0.726472 2.551126 -1.235243
6
Structure 488 | Energy: -10.142033 Hartree
O 0.125514 -0.249022 -2.123984
H -0.290788 0.527051 -1.743865
H -0.504194 -0.639535 -2.733129
O -0.114514 1.595833 1.049241
H -0.730696 0.887064 1.244315
H -0.140960 2.206674 1.788337
6
Structure 489 | Energy: -10.142030 Hartree
O -1.256771 -0.588366 0.917212
H -1.051199 -0.424484 -0.005268
H -1.985785 -1.211371 0.939436
O 0.466465 1.751550 -1.246042
H 0.025235 1.233264 -0.570185
H -0.163833 2.401973 -1.561894
6
Structure 490 | Energy: -10.142023 Hartree
O 0.957356 -2.085787 0.927147
H 1.576288 -1.370376 0.768413
H 0.450270 -1.854707 1.707888
O -1.105772 0.858024 -0.558911
H -1.475273 1.721075 -0.362190
H -1.829502 0.228713 -0.542448
6
Structure 491 | Energy: -10.142022 Hartree
O 1.062076 0.284165 1.889033
H 0.429278 0.541362 2.562460
H 0.715458 -0.499544 1.458049
O -0.360320 -1.403686 -0.973220
H -0.803665 -0.873950 -0.307703
H 0.555251 -1.118853 -0.999430
6
Structure 492 | Energy: -10.142016 Hartree
O -0.659802 0.851797 1.322338
H -0.203528 0.077854 0.986313
H -0.078757 1.603559 1.190682
O -2.082264 0.466055 -1.256721
H -2.554994 0.544670 -2.087644
H -2.023194 1.345860 -0.879173
6
Structure 493 | Energy: -10.142009 Hartree
O -1.657446 0.459535 1.433491
H -1.118849 0.597571 0.651860
H -2.203783 1.240245 1.543487
O 0.640055 -1.294227 -0.301164
H 0.749460 -1.775722 -1.123526
H -0.299412 -1.138630 -0.185924
6
Structure 494 | Energy: -10.142009 Hartree
O 0.493322 -0.007266 1.526203
H 0.747167 0.414490 2.349471
H 1.126988 0.265906 0.859919
O -0.271323 -0.539613 -1.999314
H -0.407596 -1.248434 -1.367578
H 0.675901 -0.431479 -2.104962
6
Structure 495 | Energy: -10.142003 Hartree
O 0.131840 0.773654 1.167866
H -0.806970 0.823489 0.977504
H 0.222275 0.588233 2.104632
O 0.925536 -0.231331 -2.303454
H 1.471129 0.397142 -1.826550
H 1.461223 -0.591531 -3.012949
6
Structure 496 | Energy: -10.141989 Hartree
O -0.566753 -1.828850 -0.028368
H 0.305305 -2.129236 -0.291746
H -1.199880 -2.242521 -0.618383
O 1.353555 1.673320 1.240341
H 1.466260 2.570560 1.560254
H 0.604068 1.297617 1.706393
6
Structure 497 | Energy: -10.141983 Hartree
O 0.860192 0.916181 -1.382924
H 0.326470 0.159022 -1.134052
H 1.779267 0.663470 -1.275545
O -1.956129 -0.444163 1.264659
H -1.260485 -0.861105 1.776836
H -1.568837 0.315198 0.824813
6
Structure 498 | Energy: -10.141982 Hartree
O -0.710422 -1.784153 -0.895794
H -0.978132 -0.985231 -1.354206
H -1.501112 -2.307979 -0.752593
O 0.692487 0.434261 0.016077
H 1.301747 -0.221316 0.361198
H 0.341944 0.918880 0.765978
6
Structure 499 | Energy: -10.141961 Hartree
O 0.373375 -2.199200 0.543001
H 0.033103 -2.307860 1.433223
H -0.230906 -2.651121 -0.049200
O 0.467036 0.573352 -1.136750
H 1.315393 0.182074 -0.919312
H 0.530692 0.909805 -2.032761
6
Structure 500 | Energy: -10.141955 Hartree
O 0.890284 0.270847 -1.475599
H 1.170290 -0.222840 -2.248875
H 0.088109 0.740023 -1.713256
O -0.381448 -1.340489 1.970579
H -0.271540 -0.541100 1.451941
H -1.323302 -1.510733 2.033942
6
Structure 501 | Energy: -10.141945 Hartree
O -0.992703 1.248613 0.895905
H -0.405021 1.290454 1.652850
H -1.722376 1.846581 1.069406
O 0.442074 -0.900686 -2.288338
H 0.169794 -0.958830 -1.370422
H 0.982879 -1.670955 -2.473547
6
Structure 502 | Energy: -10.141930 Hartree
O 1.193376 0.898108 0.471321
H 1.763183 0.193552 0.156667
H 1.111434 0.794268 1.421370
O -0.357691 -2.217795 -1.203072
H -0.155538 -1.886205 -0.325992
H -1.308541 -2.161090 -1.316011
6
Structure 503 | Energy: -10.141914 Hartree
O -2.108926 -0.750931 0.406335
H -2.403929 -0.410386 -0.440475
H -1.301840 -1.244645 0.248379
O 0.207711 1.881882 -0.701722
H 0.144036 1.419393 -1.539658
H -0.307259 1.384849 -0.063089
6
Structure 504 | Energy: -10.141905 Hartree
O -1.437044 0.061106 2.019790
H -2.226550 0.537325 2.284332
H -0.683765 0.603619 2.261330
O 1.699145 0.326991 0.320086
H 1.313867 -0.545016 0.214010
H 1.427475 0.654932 1.179584
6
Structure 505 | Energy: -10.141885 Hartree
O 0.539629 1.837377 0.755400
H 0.942610 1.091265 1.203741
H -0.369997 1.598142 0.567151
O 0.345840 -1.780814 -0.854804
H 0.204080 -2.158286 0.015544
H 0.641507 -2.491040 -1.427733
6
Structure 506 | Energy: -10.141882 Hartree
O -1.262031 -0.468112 1.036960
H -0.307532 -0.480088 1.131166
H -1.591085 0.257586 1.570980
O 1.447000 0.283109 -1.576115
H 2.320676 0.668815 -1.665608
H 0.835671 0.851903 -2.048172
6
Structure 507 | Energy: -10.141869 Hartree
O 0.068850 -0.610241 1.632001
H -0.482664 0.174564 1.631817
H -0.383391 -1.275102 2.155000
O -1.184587 0.908331 -1.468181
H -0.513703 0.892682 -2.153570
H -0.892717 1.530670 -0.799156
6
Structure 508 | Energy: -10.141866 Hartree
O -0.764979 0.421766 2.279299
H -0.699922 1.028075 1.538865
H -1.693702 0.352589 2.509035
O -0.196134 -1.453817 -0.854531
H -0.092548 -2.274432 -0.368786
H -0.054575 -1.652971 -1.782102
6
Structure 509 | Energy: -10.141865 Hartree
O -1.641565 1.414067 1.080692
H -1.835490 1.297001 0.148611
H -2.407930 1.830209 1.480193
O 0.573267 -1.819720 -0.114114
H 0.246153 -1.857491 0.786806
H -0.142492 -1.492929 -0.662734
6
Structure 510 | Energy: -10.141821 Hartree
O 1.039535 0.104911 1.317315
H 0.708909 0.641044 2.040733
H 0.781156 0.538199 0.501477
O -2.353586 0.192217 0.689449
H -2.198869 1.103930 0.434637
H -1.540818 -0.290251 0.525981
6
Structure 511 | Energy: -10.141820 Hartree
O -1.781119 1.232462 -0.641887
H -1.650001 0.700828 0.145678
H -0.931845 1.614986 -0.871020
O -0.778693 -1.386640 0.719538
H -0.333297 -0.930165 1.436016
H -0.359153 -1.110321 -0.097605
6
Structure 512 | Energy: -10.141799 Hartree
O 1.801644 -0.911568 -0.493899
H 1.027160 -0.359072 -0.371384
H 2.356892 -0.481506 -1.147227
O -0.878776 1.149523 -1.970466
H -0.101370 1.596259 -1.629652
H -1.636320 1.700645 -1.764362
6
Structure 513 | Energy: -10.141796 Hartree
O -0.994996 1.727821 0.034695
H -0.606231 1.779260 -0.840692
H -0.282817 1.548328 0.651682
O -0.986079 -0.631985 -1.681143
H -1.535092 -1.304059 -1.272501
H -0.429268 -1.073269 -2.325594
6
Structure 514 | Energy: -10.141794 Hartree
O 0.439271 0.384762 2.323551
H 1.030317 1.072572 2.011033
H 0.838943 0.000934 3.106512
O -0.410999 -1.213371 -0.230394
H -0.558375 -1.731447 0.563310
H -1.266387 -0.893348 -0.523624
6
Structure 515 | Energy: -10.141791 Hartree
O -2.336573 0.144983 1.001269
H -1.493109 0.572866 1.161182
H -2.362594 -0.093395 0.072512
O 0.649279 -0.368506 -2.116600
H -0.282291 -0.526694 -2.281646
H 1.087575 -1.221711 -2.121852
6
Structure 516 | Energy: -10.141787 Hartree
O 1.555469 -1.169793 -0.303192
H 2.215999 -1.205662 -0.997814
H 1.969603 -1.492613 0.499535
O 0.575203 1.511174 0.889963
H -0.149180 2.132658 0.985435
H 0.255900 0.655532 1.183237
6
Structure 517 | Energy: -10.141786 Hartree
O -1.636842 -1.734709 0.245171
H -2.377690 -2.337870 0.158989
H -1.982780 -0.844848 0.152621
O 1.297180 0.692440 -0.952820
H 2.058012 0.418853 -1.468933
H 1.536032 0.607425 -0.027720
6
Structure 518 | Energy: -10.141780 Hartree
O -0.032306 -2.349851 0.388636
H 0.729361 -2.400772 0.969460
H 0.115132 -2.969960 -0.328175
O 0.396933 0.937261 -0.752353
H 0.400023 1.451348 0.057458
H 0.884994 0.130062 -0.578249
6
Structure 519 | Energy: -10.141777 Hartree
O -0.095067 0.529159 2.429310
H -0.224881 0.694054 1.493337
H -0.963084 0.410532 2.819904
O -1.823326 -0.026562 -1.023634
H -1.464740 -0.633685 -1.673945
H -1.120848 0.581391 -0.784875
6
Structure 520 | Energy: -10.141770 Hartree
O 1.705813 0.229478 1.438657
H 2.002758 -0.548506 1.914735
H 1.945825 0.107892 0.517950
O -1.787011 -0.049389 -0.411549
H -2.612801 0.411421 -0.250886
H -1.670856 -0.680953 0.300997
6
Structure 521 | Energy: -10.141765 Hartree
O -0.983500 1.058420 -0.251532
H -1.823665 0.601405 -0.324651
H -0.940049 1.433661 0.630169
O 1.286738 -1.353374 1.643393
H 1.926987 -1.328283 0.929572
H 1.764629 -1.192567 2.459389
6
Structure 522 | Energy: -10.141751 Hartree
O 0.875886 -1.623846 1.688729
H 1.270658 -1.531663 2.558064
H 1.206064 -0.902949 1.148932
O 0.522481 1.213461 -1.462725
H 0.583088 2.119778 -1.154497
H 0.005422 0.727819 -0.817055
6
Structure 523 | Energy: -10.141745 Hartree
O -0.465616 1.502980 0.661863
H -0.376536 0.878489 1.384470
H -0.198191 1.049572 -0.140007
O 1.190657 -0.388501 -1.816249
H 0.383094 -0.764074 -2.172443
H 1.043631 0.553543 -1.711257
6
Structure 524 | Energy: -10.141744 Hartree
O 0.232033 -0.870104 -1.322138
H -0.200843 -0.084985 -0.981119
H 0.857388 -0.582228 -1.990082
O 1.330933 1.071636 1.540455
H 1.319245 1.363331 2.454165
H 2.131159 1.418972 1.141604
6
Structure 525 | Energy: -10.141740 Hartree
O 1.154222 1.395775 -1.526157
H 1.395156 1.074016 -2.397081
H 0.258115 1.732728 -1.585697
O -0.282828 -0.504513 0.256327
H -1.147962 -0.749441 -0.077802
H -0.046900 0.330997 -0.151533
6
Structure 526 | Energy: -10.141731 Hartree
O -1.750203 0.280410 -0.845421
H -2.644497 0.410058 -1.167160
H -1.159640 0.711266 -1.466460
O -0.786283 -1.879650 0.768463
H -1.235307 -2.125392 1.579681
H -0.536242 -0.957234 0.850414
6
Structure 527 | Energy: -10.141724 Hartree
O -1.878092 -1.203946 -0.469341
H -1.858513 -0.352550 -0.027948
H -1.129234 -1.230740 -1.068162
O 0.690809 0.097832 2.228018
H 0.292392 -0.416372 2.932961
H 0.259281 -0.158533 1.410615
6
Structure 528 | Energy: -10.141712 Hartree
O 0.032455 0.009638 0.895462
H -0.337589 0.807990 0.513641
H 0.963585 -0.009859 0.665879
O -1.997585 -0.088178 -1.376806
H -1.476712 -0.845512 -1.102536
H -1.390672 0.644270 -1.500356
6
Structure 529 | Energy: -10.141698 Hartree
O 2.019979 -0.734857 -0.848644
H 1.649370 -1.079616 -0.033857
H 1.592518 -1.196393 -1.572766
O -0.317300 1.393340 1.261040
H -0.187058 0.624926 1.820204
H 0.486344 1.915273 1.303822
6
Structure 530 | Energy: -10.141696 Hartree
O 0.524952 0.439526 -2.384182
H 0.502739 -0.158182 -1.634291
H 0.652388 -0.095407 -3.170120
O 1.084214 -0.354623 1.564449
H 0.423279 -0.610791 2.210692
H 1.806962 -0.981481 1.633522
6
Structure 531 | Energy: -10.141691 Hartree
O -1.305249 -1.168541 -1.866593
H -0.701088 -1.560116 -2.500425
H -0.912468 -0.344781 -1.571240
O -0.639046 0.263925 1.564833
H -0.187593 0.855601 0.959692
H -1.440490 -0.031482 1.128358
6
Structure 532 | Energy: -10.141679 Hartree
O 1.148994 -0.409871 -1.106560
H 0.811440 -0.677103 -0.249396
H 2.066342 -0.686853 -1.149527
O 0.367903 1.604933 1.937892
H 0.775480 0.982853 2.543684
H 0.746926 1.447065 1.070997
6
Structure 533 | Energy: -10.141678 Hartree
O -0.095541 1.131213 -0.289148
H -0.721048 1.506584 0.333688
H 0.130255 1.821423 -0.915820
O -1.425264 -0.149803 2.035380
H -1.835014 0.300951 2.776334
H -0.478497 -0.146759 2.189364
6
Structure 534 | Energy: -10.141675 Hartree
O -0.947909 1.115600 1.763858
H -0.213366 0.659062 2.178713
H -0.937750 2.019730 2.084071
O 1.656560 0.626715 0.139111
H 0.941765 1.258436 0.038690
H 2.022594 0.749160 1.017242
6
Structure 535 | Energy: -10.141669 Hartree
O -0.405302 -1.611326 -1.603538
H -0.269640 -2.085957 -2.425978
H -1.317889 -1.316083 -1.593166
O -0.395948 1.594572 0.109186
H -0.310833 1.306920 1.020284
H -0.954012 0.956194 -0.339285
6
Structure 536 | Energy: -10.141662 Hartree
O -0.387907 -0.836730 2.345608
H -0.938623 -0.721907 1.568682
H -0.927024 -1.261538 3.015669
O 0.143186 1.104208 -1.261362
H -0.505342 0.539591 -0.836265
H 0.847540 1.254710 -0.627862
6
Structure 537 | Energy: -10.141661 Hartree
O 1.425169 1.338039 -1.457158
H 1.569299 2.280435 -1.351320
H 2.068719 0.888581 -0.905867
O 0.237992 -1.700809 0.269762
H -0.060422 -0.915437 0.732609
H -0.506979 -2.303236 0.222984
6
Structure 538 | Energy: -10.141658 Hartree
O 1.269353 0.272348 -0.182387
H 1.277301 -0.685396 -0.129952
H 0.356399 0.553940 -0.096880
O 0.044879 -1.818667 1.252310
H -0.371779 -2.087258 0.431127
H -0.450942 -1.070657 1.591028
6
Structure 539 | Energy: -10.141650 Hartree
O 1.523406 1.605076 0.076884
H 0.980671 2.271129 0.503381
H 1.001473 0.801755 0.028390
O -1.258557 0.200213 1.449419
H -1.114318 0.313485 2.390934
H -0.470752 -0.211425 1.088856
6
Structure 540 | Energy: -10.141647 Hartree
O -0.041295 1.522892 0.956231
H 0.777227 1.022788 0.953961
H -0.518065 1.291008 0.156850
O 2.155881 -0.495934 -0.416969
H 1.582239 -0.154103 -1.105572
H 2.553846 0.258556 0.021730
6
Structure 541 | Energy: -10.141645 Hartree
O -0.905364 -0.652284 0.805914
H -0.467055 -0.449481 -0.022846
H -0.249195 -0.573101 1.501084
O 2.263249 -0.720205 0.938687
H 3.113457 -0.577885 0.517997
H 1.588934 -0.579660 0.271128
6
Structure 542 | Energy: -10.141611 Hartree
O -1.248893 0.339502 -1.661270
H -1.097722 -0.533151 -2.029660
H -1.830881 0.805637 -2.264676
O 1.567855 0.011854 -0.547707
H 1.166228 0.218275 -1.393977
H 2.283340 0.636364 -0.412968
6
Structure 543 | Energy: -10.141603 Hartree
O -0.447322 -2.059321 0.750025
H -0.864932 -1.355457 0.249762
H 0.446188 -2.154801 0.414444
O 0.152605 1.004476 -0.980196
H -0.007609 0.176579 -1.437367
H 1.056701 1.263116 -1.169414
6
Structure 544 | Energy: -10.141589 Hartree
O 1.374933 0.156719 -2.096595
H 0.611850 0.117173 -1.516746
H 1.493245 1.074760 -2.348175
O -1.487845 -0.562778 1.158726
H -0.588282 -0.467999 0.839523
H -1.448521 -0.583793 2.116901
6
Structure 545 | Energy: -10.141575 Hartree
O 0.926185 -0.861027 -1.921308
H 1.508420 -1.453724 -2.400682
H 0.812005 -0.076618 -2.461452
O 1.129141 1.536439 0.668814
H 1.426727 1.953054 -0.142334
H 0.249813 1.190292 0.504338
6
Structure 546 | Energy: -10.141563 Hartree
O -0.127760 1.148085 -1.606884
H 0.184685 0.373599 -2.078726
H -1.080898 1.178389 -1.710323
O 1.601268 -1.810414 0.782597
H 1.517020 -1.857483 -0.171748
H 2.201326 -1.088446 0.979523
6
Structure 547 | Energy: -10.141553 Hartree
O 1.435855 1.607621 -0.254930
H 2.306339 1.677585 0.141869
H 1.506119 1.935650 -1.153568
O -0.802146 -1.169567 0.114420
H -0.812050 -0.406534 0.695600
H -1.528985 -1.737129 0.378364
6
Structure 548 | Energy: -10.141547 Hartree
O 0.291975 1.175122 -0.771677
H 0.602224 2.058215 -0.981388
H -0.258285 1.245729 0.010832
O -1.372670 -1.173062 1.507477
H -1.696607 -2.047017 1.280862
H -1.980246 -0.536924 1.125026
6
Structure 549 | Energy: -10.141524 Hartree
O 1.410694 -0.696070 -0.622524
H 0.993404 -1.556416 -0.546632
H 2.358806 -0.840670 -0.638794
O -0.872311 1.946213 1.370905
H -0.039219 2.421226 1.350720
H -1.366265 2.205764 0.590694
6
Structure 550 | Energy: -10.141513 Hartree
O -0.128634 -0.912807 0.513421
H -0.539291 -1.551976 -0.072165
H 0.093195 -1.372896 1.325332
O -1.765509 1.291765 -0.954160
H -0.823421 1.314494 -1.133160
H -2.106614 2.173686 -1.115253
6
Structure 551 | Energy: -10.141504 Hartree
O 0.809740 1.367555 1.504022
H 0.146301 0.718002 1.744889
H 1.470561 0.916021 0.975323
O -1.998305 -1.197836 -0.014527
H -1.131858 -1.609364 -0.015169
H -2.647411 -1.902470 0.032815
6
Structure 552 | Energy: -10.141504 Hartree
O -1.037279 -0.270495 0.976425
H -0.654084 0.524984 0.601645
H -1.029577 -0.940229 0.289775
O 2.212176 -0.485118 -0.044020
H 2.146529 -1.416114 0.177396
H 2.017306 -0.401186 -0.979471
6
Structure 553 | Energy: -10.141497 Hartree
O 1.170891 0.480440 0.120587
H 1.154619 -0.063781 -0.669125
H 1.635892 -0.015134 0.797543
O -0.604831 -1.648161 -1.096358
H -0.324736 -1.610130 -2.012975
H -0.834893 -2.559968 -0.907234
6
Structure 554 | Energy: -10.141486 Hartree
O 1.671095 -0.624002 0.620643
H 0.947922 -1.246038 0.721533
H 2.139969 -0.861244 -0.181831
O -1.862512 0.911606 0.424575
H -2.553025 1.478724 0.773370
H -1.590769 1.280359 -0.418197
6
Structure 555 | Energy: -10.141476 Hartree
O -0.713080 1.278546 1.687222
H -0.280253 1.291946 2.543123
H -0.375845 0.517713 1.210256
O 1.797427 -1.452423 -0.699799
H 1.763222 -1.968242 0.108191
H 2.603262 -0.932901 -0.671243
6
Structure 556 | Energy: -10.141475 Hartree
O 0.349946 -1.389301 1.736054
H 1.257985 -1.520738 2.015832
H -0.207094 -1.891146 2.334343
O -0.445628 1.284352 -1.417545
H -0.170320 0.460112 -1.823652
H -1.375235 1.196291 -1.198083
6
Structure 557 | Energy: -10.141467 Hartree
O -0.621834 -0.312719 -1.275679
H -1.361556 -0.898982 -1.446541
H 0.173833 -0.848304 -1.288042
O -0.960006 0.089712 1.991167
H -0.954427 -0.570683 1.295513
H -0.051996 0.209853 2.276073
6
Structure 558 | Energy: -10.141466 Hartree
O 2.314027 0.875862 -0.090593
H 1.686999 0.957655 -0.811863
H 2.873400 1.654826 -0.110783
O -0.850885 0.160706 -1.522506
H -0.799578 0.881877 -2.152876
H -1.162975 -0.611211 -1.998776
6
Structure 559 | Energy: -10.141461 Hartree
O -0.752226 1.445700 -1.143609
H -0.000933 1.030140 -1.571342
H -1.519948 0.899952 -1.324864
O -0.846116 -1.707469 0.751011
H -0.684584 -0.979327 0.147849
H -1.794145 -1.757791 0.888108
6
Structure 560 | Energy: -10.141419 Hartree
O -2.457017 0.436047 0.267956
H -1.715233 0.328510 0.866519
H -2.214592 1.113965 -0.365880
O 1.074005 0.009426 -1.612010
H 1.156849 0.394220 -0.737277
H 0.371315 -0.642169 -1.570314
6
Structure 561 | Energy: -10.141413 Hartree
O 0.376947 0.613060 -1.437662
H -0.077706 -0.145425 -1.809250
H 0.273210 0.567821 -0.485148
O -1.536238 -0.088957 1.869431
H -0.812493 0.063307 2.480246
H -1.445588 0.547283 1.157343
6
Structure 562 | Energy: -10.141412 Hartree
O 0.198928 -0.225115 -1.664564
H 0.108996 0.463910 -1.003320
H 0.855870 0.072228 -2.297102
O -0.753449 0.458412 1.927656
H -0.323192 1.271229 2.200226
H -0.082092 -0.098266 1.528310
6
Structure 563 | Energy: -10.141400 Hartree
O -0.125082 -0.612746 2.245369
H -0.684934 0.075430 2.610150
H 0.777575 -0.407610 2.496806
O -0.720961 0.979706 -1.203761
H -0.155439 1.530717 -1.748425
H -0.659565 0.085222 -1.544667
6
Structure 564 | Energy: -10.141399 Hartree
O 1.201756 0.541760 1.403221
H 1.348495 1.313584 1.953531
H 2.055572 0.271253 1.059834
O 0.078405 -1.799877 -1.363860
H -0.270369 -0.908760 -1.297872
H 0.103963 -2.026646 -2.295531
6
Structure 565 | Energy: -10.141383 Hartree
O 0.845374 -1.191466 -1.769192
H 0.309148 -1.155458 -0.974679
H 0.270652 -1.462567 -2.487726
O 0.463745 2.402500 0.463528
H 0.418288 2.365005 1.420928
H 0.569042 1.502568 0.148689
6
Structure 566 | Energy: -10.141382 Hartree
O -0.776152 0.962552 1.186365
H -0.936145 1.906526 1.128041
H -0.280076 0.709735 0.405287
O 1.098774 -1.693630 -0.710762
H 0.594383 -2.006059 -1.464463
H 1.940091 -1.375589 -1.044113
6
Structure 567 | Energy: -10.141376 Hartree
O 0.834327 -1.583822 -0.501730
H 1.391066 -0.909459 -0.107570
H 1.270063 -2.427380 -0.365220
O -0.871206 0.578773 2.016401
H -1.592081 1.150468 2.287677
H -0.979707 -0.254304 2.479325
6
Structure 568 | Energy: -10.141369 Hartree
O -0.116765 0.602602 -0.043621
H 0.169845 -0.112096 0.528347
H 0.619889 1.211010 -0.128888
O 1.790198 -0.718546 -0.805146
H 2.480208 -1.380232 -0.883538
H 0.986325 -1.102977 -1.160237
6
Structure 569 | Energy: -10.141352 Hartree
O -1.250467 0.466889 -2.083454
H -0.378619 0.863351 -2.030679
H -1.890504 1.178146 -2.015939
O 1.707967 -1.001553 0.489320
H 1.447691 -0.756188 -0.400702
H 1.256425 -0.406879 1.091450
6
Structure 570 | Energy: -10.141349 Hartree
O 1.713570 -0.413529 -0.428891
H 2.150410 -1.232861 -0.669623
H 2.098997 0.282094 -0.965217
O -1.214491 0.082916 2.019324
H -2.106363 -0.228702 2.185296
H -0.674118 -0.687745 1.834483
6
Structure 571 | Energy: -10.141330 Hartree
O -0.891588 0.071682 -2.168567
H -0.564426 -0.403608 -2.934824
H -1.478901 -0.521383 -1.695885
O 0.169266 -0.853805 1.678921
H 1.046720 -1.125391 1.402509
H -0.395640 -0.887422 0.904428
6
Structure 572 | Energy: -10.141327 Hartree
O 1.136976 0.042296 0.937241
H 0.956168 -0.894731 0.840416
H 0.964139 0.454140 0.088358
O -1.345447 1.536662 0.617965
H -0.826965 2.099811 0.039927
H -1.657145 2.083077 1.342094
6
Structure 573 | Energy: -10.141324 Hartree
O -0.996342 1.405725 0.840726
H -1.279025 1.705140 -0.025603
H -1.079135 0.450157 0.851990
O 1.202330 -0.775381 -1.827509
H 0.910476 -1.314634 -2.565151
H 1.146081 -1.318466 -1.038851
6
Structure 574 | Energy: -10.141321 Hartree
O -1.279978 0.965505 -1.530386
H -0.675774 1.257839 -2.215634
H -2.163967 1.217138 -1.804861
O 1.048681 -1.494710 0.678122
H 1.395560 -2.205438 0.135326
H 1.204260 -0.674563 0.205637
6
Structure 575 | Energy: -10.141320 Hartree
O -0.204016 -0.462041 -0.004031
H 0.507501 -0.698735 -0.602199
H -0.701355 0.244944 -0.419866
O 1.703426 1.597172 0.402854
H 1.982809 1.985104 1.234443
H 0.845663 1.969780 0.189560
6
Structure 576 | Energy: -10.141320 Hartree
O 1.275916 -1.203705 -1.717748
H 2.210775 -1.413796 -1.673174
H 0.966077 -1.094328 -0.816568
O -1.185738 1.448104 0.252323
H -1.506411 0.549094 0.157257
H -1.714787 1.867862 0.933498
6
Structure 577 | Energy: -10.141319 Hartree
O -0.988701 1.700526 -1.354252
H -0.239720 1.238932 -1.736410
H -0.963137 2.602248 -1.680340
O 0.666670 -1.190756 1.719835
H 0.352478 -2.097046 1.722727
H 0.358066 -0.780540 2.530128
6
Structure 578 | Energy: -10.141309 Hartree
O -0.834222 -1.424193 -1.867915
H -1.521527 -0.779415 -2.046684
H -0.131278 -0.968040 -1.401132
O -1.085409 1.038328 0.044345
H -1.456650 1.918133 0.134952
H -0.464839 1.065761 -0.686564
6
Structure 579 | Energy: -10.141307 Hartree
O -1.452847 1.552941 -0.020932
H -0.558342 1.618623 0.319115
H -1.758627 2.446183 -0.190363
O 0.020842 -0.712731 1.387611
H 0.539471 -1.167575 2.054116
H 0.104615 -1.212024 0.572886
6
Structure 580 | Energy: -10.141304 Hartree
O 0.091042 -1.285319 1.942413
H 0.006250 -1.471912 2.879472
H 1.013559 -1.408912 1.710512
O -0.128244 0.703522 -0.683268
H 0.470527 0.832128 0.054988
H 0.133666 -0.107463 -1.123490
6
Structure 581 | Energy: -10.141295 Hartree
O -0.811682 1.427228 -0.882498
H -0.687533 2.316580 -1.219731
H -0.773086 0.830946 -1.632864
O -1.665116 -1.447300 0.040416
H -1.663265 -2.365755 0.317047
H -0.758716 -1.136210 0.082254
6
Structure 582 | Energy: -10.141278 Hartree
O 0.165161 1.360773 1.113709
H -0.573607 1.883377 0.795601
H 0.692839 1.929011 1.678290
O 0.972008 -1.470863 -1.568510
H 0.189600 -0.967253 -1.335482
H 1.213982 -1.222183 -2.462766
6
Structure 583 | Energy: -10.141276 Hartree
O 0.322647 -0.911868 -1.685994
H -0.070623 -1.334065 -0.919720
H 0.900098 -1.556141 -2.100182
O 0.912395 1.829913 0.844391
H 0.082688 2.294010 0.716764
H 1.616679 2.437449 0.609932
6
Structure 584 | Energy: -10.141274 Hartree
O -1.640301 0.280376 0.237413
H -1.854978 -0.652744 0.180085
H -2.115940 0.725070 -0.466935
O 2.003845 0.015722 1.388548
H 2.458867 0.785387 1.735907
H 1.412465 -0.298588 2.075256
6
Structure 585 | Energy: -10.141271 Hartree
O -1.042715 -2.320568 -0.015216
H -0.953295 -2.444555 -0.962168
H -1.373189 -1.431038 0.124838
O 1.621668 0.883500 0.951096
H 0.834234 1.418259 0.832491
H 1.421911 0.006137 0.618803
6
Structure 586 | Energy: -10.141270 Hartree
O 0.925456 2.043630 -0.444817
H 1.226414 1.493418 -1.170611
H 1.705234 2.415451 -0.027941
O -1.108302 -1.053052 0.624205
H -1.185294 -1.697924 1.330109
H -1.817803 -0.418156 0.740836
6
Structure 587 | Energy: -10.141260 Hartree
O 0.811130 -0.833935 2.098230
H 1.604681 -0.986949 1.581558
H 0.596213 -1.658034 2.539548
O -0.367405 0.805129 -1.757234
H -1.064433 0.149478 -1.691188
H -0.789773 1.656931 -1.884230
6
Structure 588 | Energy: -10.141250 Hartree
O 1.431817 0.219232 0.522366
H 1.642771 0.421119 -0.391322
H 2.016748 0.744726 1.071732
O -1.653387 0.253645 1.244827
H -1.277348 -0.470169 0.740074
H -2.420272 0.568270 0.762141
6
Structure 589 | Energy: -10.141247 Hartree
O 0.388576 -0.454867 0.792598
H 0.119509 -0.892678 -0.017347
H 0.811778 0.368985 0.543080
O -0.355727 -0.087572 -2.155552
H -0.177798 -0.775008 -2.800424
H 0.473106 0.110056 -1.715020
6
Structure 590 | Energy: -10.141242 Hartree
O -1.346526 -1.382934 1.520289
H -1.723378 -1.968342 0.860467
H -1.873081 -1.476103 2.316625
O 0.026940 0.701192 -1.225732
H -0.823113 0.453553 -1.594748
H 0.504199 -0.110355 -1.042146
6
Structure 591 | Energy: -10.141230 Hartree
O 0.589736 -0.480218 -1.668959
H 0.489055 -1.304312 -1.188524
H 0.693704 0.216966 -1.018408
O -0.580020 2.044012 0.623760
H -0.637129 1.126193 0.350934
H -1.113078 2.138675 1.415578
6
Structure 592 | Energy: -10.141229 Hartree
O -2.024773 -0.604450 -0.128233
H -1.127664 -0.593767 -0.467595
H -1.967703 -0.544429 0.827399
O 0.992484 0.775891 -2.118155
H 1.433971 0.475528 -1.321312
H 0.322844 1.408435 -1.850651
6
Structure 593 | Energy: -10.141224 Hartree
O 0.257174 -1.912123 -0.752944
H 0.545970 -2.406813 -1.522337
H 0.369885 -0.981238 -0.955030
O -0.703943 1.363936 0.582472
H -1.332724 0.640762 0.624206
H -0.348736 1.380452 -0.308395
6
Structure 594 | Energy: -10.141224 Hartree
O 0.253355 -2.022543 -1.107822
H 0.223149 -1.794712 -2.039094
H 0.110305 -2.968750 -1.042094
O -1.035445 0.287718 0.706353
H -1.229387 1.184310 0.986706
H -0.386180 0.344335 0.002551
6
Structure 595 | Energy: -10.141223 Hartree
O 0.733238 0.659198 0.402333
H 1.459819 0.870382 -0.187216
H 0.661103 -0.296803 0.433138
O -1.870153 -0.774129 -0.613867
H -1.470398 -0.993682 -1.457715
H -2.668985 -0.276415 -0.798902
6
Structure 596 | Energy: -10.141216 Hartree
O -1.579144 0.928325 -1.541891
H -1.832385 1.848785 -1.448571
H -2.282848 0.487379 -2.021950
O 0.079319 -0.505909 0.681987
H 0.761292 -1.139667 0.451010
H 0.384557 0.357019 0.395154
6
Structure 597 | Energy: -10.141212 Hartree
O 0.121905 -1.342844 1.694400
H 0.490703 -0.794908 2.389986
H -0.426694 -2.006829 2.116603
O -0.733670 0.145629 -0.660147
H -0.857155 -0.783455 -0.456080
H -1.232950 0.329979 -1.458158
6
Structure 598 | Energy: -10.141212 Hartree
O 1.590760 1.021225 -1.114512
H 1.401010 0.210553 -0.638180
H 2.535989 1.040885 -1.276520
O -2.190192 -0.611292 0.646660
H -2.763732 -0.055021 1.177416
H -2.554461 -1.498354 0.669370
6
Structure 599 | Energy: -10.141208 Hartree
O -2.011595 0.528104 0.482213
H -1.129272 0.676356 0.828065
H -2.399954 -0.186097 0.991315
O 0.553202 -1.158618 -2.100873
H 1.511508 -1.168252 -2.060314
H 0.309227 -0.930707 -3.000106
6
Structure 600 | Energy: -10.141207 Hartree
O -1.209568 -0.968577 1.685687
H -2.087327 -1.126388 2.038845
H -0.584897 -1.126159 2.396352
O -1.017320 0.435903 -0.776745
H -1.524083 0.552834 0.029236
H -0.398752 1.166940 -0.831937
6
Structure 601 | Energy: -10.141197 Hartree
O 0.269681 -0.104178 -0.897403
H 0.236571 0.812543 -1.177779
H 0.338531 -0.641101 -1.689277
O 0.770450 1.926426 1.189927
H 1.032446 2.734623 1.635193
H 1.554037 1.378869 1.110798
6
Structure 602 | Energy: -10.141190 Hartree
O -0.646881 0.611972 -1.110740
H -0.508809 1.547282 -0.948823
H -0.692408 0.179383 -0.255821
O 2.368660 -0.081764 0.678616
H 2.077552 0.053021 1.582594
H 1.677107 0.253316 0.104540
6
Structure 603 | Energy: -10.141187 Hartree
O 0.529133 -1.983093 0.655338
H 1.440663 -1.773466 0.442606
H 0.282124 -1.443798 1.409153
O -0.168646 0.261905 -2.493514
H -0.205792 0.193378 -1.537474
H -0.371591 1.171331 -2.721212
6
Structure 604 | Energy: -10.141182 Hartree
O -2.136507 0.604545 -0.177230
H -2.791414 -0.071050 0.009195
H -1.381028 0.166116 -0.573617
O 1.211413 -1.431842 0.655142
H 0.881075 -0.601875 0.305688
H 1.723035 -1.849412 -0.040535
6
Structure 605 | Energy: -10.141182 Hartree
O 1.555628 1.265327 -1.524144
H 1.071415 2.015243 -1.173074
H 1.423871 0.533346 -0.918393
O -0.890131 -0.075508 1.336897
H -1.243587 0.768452 1.624797
H 0.050145 -0.069225 1.526450
6
Structure 606 | Energy: -10.141159 Hartree
O 0.597469 -0.781652 1.057752
H 1.185105 -1.529046 1.184922
H 0.883748 -0.327240 0.262992
O -0.748108 1.344685 -1.393458
H -0.770706 0.474768 -1.796969
H -0.890544 1.985861 -2.092524
6
Structure 607 | Energy: -10.141159 Hartree
O -1.820167 0.953778 -0.144001
H -2.049464 1.726985 -0.663289
H -2.020951 0.182943 -0.678406
O 1.039341 -1.181926 0.589062
H 1.437365 -0.332497 0.789395
H 1.565833 -1.852919 1.027996
6
Structure 608 | Energy: -10.141146 Hartree
O 1.102380 0.271646 -1.109728
H 0.447134 -0.004587 -0.465962
H 0.713047 0.156263 -1.978750
O -1.398431 -1.191944 1.693055
H -1.122205 -1.537591 0.841988
H -0.602854 -0.990739 2.189706
6
Structure 609 | Energy: -10.141143 Hartree
O -0.010668 -2.484395 0.147928
H 0.193466 -1.974895 0.934582
H -0.908722 -2.807483 0.243868
O 1.159309 0.625290 -1.125906
H 0.392406 0.193758 -1.507648
H 0.855099 1.440881 -0.722974
6
Structure 610 | Energy: -10.141137 Hartree
O -1.042296 1.424052 -0.671077
H -0.696815 0.653170 -1.125466
H -1.868656 1.164301 -0.259070
O 1.833124 -1.366853 0.150050
H 1.239500 -1.790520 -0.473009
H 2.000111 -0.479918 -0.174834
6
Structure 611 | Energy: -10.141134 Hartree
O -0.134230 0.959738 -1.260785
H 0.201054 1.835178 -1.463949
H -1.088660 0.993244 -1.350404
O 1.152318 -0.537554 1.860364
H 1.712727 -0.124739 1.200355
H 1.225387 -0.015515 2.661754
6
Structure 612 | Energy: -10.141122 Hartree
O 0.017444 0.387693 -1.079508
H -0.727737 0.957818 -0.880138
H 0.684863 0.547813 -0.409431
O -1.868466 0.496615 0.980124
H -2.635888 0.379063 1.543448
H -1.352257 1.215650 1.349723
6
Structure 613 | Energy: -10.141122 Hartree
O 0.472593 0.912298 -0.959377
H 0.827219 0.194155 -0.431554
H 0.015098 1.505848 -0.360639
O -2.335875 -0.302044 0.070259
H -2.697211 0.581270 -0.026071
H -2.750619 -0.696207 0.840136
6
Structure 614 | Energy: -10.141109 Hartree
O 1.113723 -0.961541 1.899588
H 0.247517 -1.296074 1.659045
H 1.120371 -0.022763 1.702758
O 0.493672 0.301534 -1.228446
H -0.168546 0.942892 -0.963466
H 1.273783 0.461230 -0.693645
6
Structure 615 | Energy: -10.141107 Hartree
O -0.556957 0.828575 1.332332
H -0.416488 1.051515 2.254640
H -1.488079 0.622879 1.228447
O -0.746016 -2.283108 -0.181550
H 0.088028 -2.604936 0.166135
H -0.905611 -2.742996 -1.008062
6
Structure 616 | Energy: -10.141107 Hartree
O 1.508656 -0.097516 1.271933
H 1.992195 0.343956 1.972917
H 0.607586 -0.215319 1.578993
O -2.068440 0.057519 -1.152840
H -1.621540 -0.675294 -0.724643
H -2.983331 -0.201931 -1.278330
6
Structure 617 | Energy: -10.141100 Hartree
O -0.657994 -1.384035 0.077239
H -1.285705 -1.878247 -0.453628
H -0.668256 -1.765157 0.957427
O 1.435092 1.843620 -0.330156
H 1.318402 1.206769 0.377581
H 1.639952 2.687253 0.077768
6
Structure 618 | Energy: -10.141091 Hartree
O -0.894855 0.389592 1.318423
H -0.907756 1.332244 1.141430
H -0.616974 0.275394 2.229374
O -0.806417 -0.693573 -1.681171
H -1.366728 -1.196747 -1.087070
H -0.599487 -1.261704 -2.425815
6
Structure 619 | Energy: -10.141088 Hartree
O 0.012561 1.150626 -0.620153
H 0.895902 1.506733 -0.506212
H 0.001805 0.282020 -0.213338
O 1.176413 -2.107932 -0.382223
H 0.280795 -1.768274 -0.331345
H 1.369014 -2.528164 0.458252
6
Structure 620 | Energy: -10.141087 Hartree
O 1.148922 -0.682561 -0.496708
H 0.739354 0.018153 0.014507
H 1.889410 -1.012613 0.015966
O 0.303513 0.183915 2.008311
H 0.749486 -0.645621 2.190148
H 0.982568 0.846895 1.868928
6
Structure 621 | Energy: -10.141084 Hartree
O 0.482067 -1.840978 -0.507785
H 0.851873 -2.689476 -0.759543
H 0.449253 -1.299452 -1.298836
O 0.130118 1.295449 1.952393
H -0.739421 1.676971 1.816634
H 0.042532 0.623096 2.630890
6
Structure 622 | Energy: -10.141083 Hartree
O -2.165978 0.595888 0.704937
H -1.928521 1.479268 0.416249
H -2.074262 0.015123 -0.052949
O 1.046579 -0.928997 -1.188664
H 0.472795 -1.585531 -1.588442
H 1.444066 -0.426632 -1.902612
6
Structure 623 | Energy: -10.141079 Hartree
O -0.495015 0.314684 -0.092482
H 0.375851 0.415069 -0.481841
H -0.995719 1.103617 -0.309209
O 0.611844 -2.081986 1.225940
H -0.223798 -2.422475 0.900580
H 0.648906 -2.270692 2.165676
6
Structure 624 | Energy: -10.141078 Hartree
O -0.508954 0.953760 -1.153102
H -0.948804 0.101625 -1.175109
H -0.232694 1.154059 -2.049568
O 1.024215 -1.674205 0.540426
H 1.888192 -1.606273 0.129309
H 1.070791 -2.384172 1.183750
6
Structure 625 | Energy: -10.141067 Hartree
O 0.886749 -1.984060 -0.308097
H 1.307248 -2.228613 0.518619
H -0.055169 -2.131180 -0.202098
O -0.264463 0.647822 1.805964
H -0.085636 -0.217014 1.431575
H -1.174670 0.865644 1.595810
6
Structure 626 | Energy: -10.141064 Hartree
O -0.671092 -0.394994 -2.239409
H -1.142489 0.355054 -2.607239
H -0.240944 -0.094186 -1.436553
O 1.039031 0.041080 2.111850
H 0.856957 -0.767423 1.628880
H 0.282476 0.618856 1.994008
6
Structure 627 | Energy: -10.141041 Hartree
O 0.226991 0.525906 -1.860404
H 0.499853 0.528723 -0.940825
H 0.743271 -0.147411 -2.307829
O -1.069505 -1.608603 1.314785
H -0.818892 -1.174292 0.497072
H -0.778730 -1.046545 2.035638
6
Structure 628 | Energy: -10.141037 Hartree
O -0.785967 -0.218525 1.675286
H -1.311796 0.523879 1.979302
H -0.864367 -0.910975 2.334421
O 1.672652 0.898465 -1.448957
H 2.539992 0.540424 -1.647992
H 1.709956 1.255318 -0.559377
6
Structure 629 | Energy: -10.141037 Hartree
O 0.345321 1.864720 1.480135
H -0.347804 1.499563 0.926669
H 0.273486 2.820033 1.432104
O 0.974062 -0.878798 -0.246016
H 1.135084 -1.104960 -1.164172
H 1.387056 -1.558237 0.290533
6
Structure 630 | Energy: -10.141034 Hartree
O 0.906901 -0.395560 0.723785
H 0.873658 -1.341970 0.571177
H 1.439792 -0.013494 0.023683
O 0.133754 0.077196 -2.244622
H -0.506601 -0.553108 -2.580404
H 0.981197 -0.142710 -2.636502
6
Structure 631 | Energy: -10.141029 Hartree
O 1.121345 -0.791508 0.029526
H 0.544156 -1.488554 0.347434
H 2.015126 -1.139705 0.031746
O -0.234836 1.668280 -1.089024
H 0.405523 1.671796 -0.374871
H -0.175211 2.518957 -1.528206
6
Structure 632 | Energy: -10.141027 Hartree
O 0.233252 -0.615682 -2.092291
H -0.284273 -1.391651 -1.868402
H -0.190257 0.137872 -1.676493
O 0.196387 1.678611 1.918298
H 0.454916 1.431969 1.028119
H -0.292085 2.501660 1.854477
6
Structure 633 | Energy: -10.141023 Hartree
O 0.814004 0.033897 1.440590
H 0.565370 -0.397440 0.620702
H 0.617880 0.967570 1.341186
O -1.303559 -0.302669 -1.874565
H -1.076037 0.222663 -1.104924
H -1.573122 0.306524 -2.564715
6
Structure 634 | Energy: -10.141022 Hartree
O -0.124657 -1.503950 2.103266
H -0.981804 -1.075522 2.060440
H 0.514181 -0.900191 1.719271
O 0.499434 1.664123 -1.496309
H 0.745199 1.912602 -0.603031
H -0.209025 2.250264 -1.769461
6
Structure 635 | Energy: -10.141022 Hartree
O 0.319566 1.695494 -0.347788
H -0.105802 1.389499 -1.151228
H 0.590076 2.603482 -0.497693
O -2.442553 -0.566974 0.106537
H -2.636507 -0.229255 0.983131
H -2.712825 0.104565 -0.522810
6
Structure 636 | Energy: -10.141016 Hartree
O 0.008344 -2.127179 -0.571981
H 0.536858 -2.644112 0.039197
H -0.585192 -1.586449 -0.047179
O -1.061839 1.287590 1.882039
H -0.588248 0.509355 1.581789
H -0.595255 2.053185 1.541082
6
Structure 637 | Energy: -10.141009 Hartree
O -2.092511 0.505186 -0.225385
H -1.781012 -0.399136 -0.297882
H -3.050258 0.473188 -0.183113
O 0.970772 -1.709744 0.108107
H 0.042704 -1.486750 0.203249
H 1.460984 -1.149523 0.713030
6
Structure 638 | Energy: -10.141008 Hartree
O 1.126671 0.645986 -0.099829
H 0.314110 0.152369 0.027347
H 1.127196 0.963938 -1.004813
O -0.417910 -2.274623 -0.424123
H 0.330459 -2.087375 0.145938
H -0.999833 -1.512932 -0.388342
6
Structure 639 | Energy: -10.140994 Hartree
O 1.594484 1.440402 1.349998
H 1.075964 1.818309 0.636970
H 1.046535 1.452863 2.137200
O 1.063819 -1.259392 -0.055619
H 0.892531 -1.947800 -0.701252
H 1.538572 -1.664746 0.672657
6
Structure 640 | Energy: -10.140990 Hartree
O -1.436453 1.070467 -0.819997
H -1.599687 1.863785 -1.333893
H -0.604130 0.702148 -1.122766
O 1.171513 -0.098748 0.884161
H 0.353045 -0.567559 0.709765
H 1.426401 0.340219 0.070264
6
Structure 641 | Energy: -10.140985 Hartree
O 1.063571 -0.915092 -0.445478
H 1.268305 -1.852182 -0.439806
H 1.822916 -0.460675 -0.815602
O -0.737158 0.644268 1.786437
H -0.964555 -0.206198 2.167338
H -1.355424 0.809995 1.072035
6
Structure 642 | Energy: -10.140982 Hartree
O 0.443399 1.181350 -0.867563
H 0.771815 1.218582 0.032905
H 0.063125 2.039103 -1.066918
O -0.919117 -0.835996 1.807229
H -1.578084 -0.467786 2.399066
H -0.674109 -1.695870 2.154615
6
Structure 643 | Energy: -10.140974 Hartree
O -0.402370 1.416070 -1.702568
H 0.395171 1.362657 -2.232815
H -0.554692 0.545341 -1.330118
O 0.676621 -1.489716 1.046633
H 0.374331 -0.646945 0.702473
H -0.060728 -2.100616 0.990017
6
Structure 644 | Energy: -10.140951 Hartree
O 1.831857 1.346955 -0.600082
H 2.421036 0.776341 -1.097429
H 0.962628 0.941682 -0.616996
O -0.246969 -0.293574 0.825858
H -0.376635 -0.936106 1.526163
H -0.095668 -0.783561 0.015235
6
Structure 645 | Energy: -10.140942 Hartree
O -0.445186 1.718857 0.914696
H 0.485984 1.673592 0.688954
H -0.599246 1.080777 1.614132
O -0.911084 -0.385570 -2.230022
H -0.542599 -0.515634 -3.106030
H -1.852818 -0.557859 -2.289538
6
Structure 646 | Energy: -10.140926 Hartree
O -0.296212 -0.737122 1.545032
H -0.467552 -1.354737 2.258670
H 0.560333 -0.960517 1.175549
O 0.891161 1.156820 -1.945512
H 1.102682 2.080569 -2.093954
H 0.504685 0.820069 -2.756267
6
Structure 647 | Energy: -10.140904 Hartree
O 1.402690 1.100315 1.198936
H 0.952076 1.796724 0.717223
H 2.170564 0.848480 0.682177
O 0.786460 -1.574870 -0.170323
H 0.395333 -1.779584 -1.021909
H 0.540902 -2.279930 0.431906
6
Structure 648 | Energy: -10.140896 Hartree
O 2.294056 -0.793973 -0.601330
H 2.680120 -1.048969 0.238919
H 2.625973 0.080830 -0.812618
O 0.585920 1.581007 0.325391
H 1.064524 1.532933 1.155279
H -0.320997 1.813909 0.533588
6
Structure 649 | Energy: -10.140893 Hartree
O 0.150462 -0.716048 1.561862
H 0.461210 -1.593727 1.792517
H 0.880432 -0.257798 1.140863
O -0.428090 2.268369 -0.645507
H -1.021707 1.742564 -1.185170
H 0.014259 2.887065 -1.229999
6
Structure 650 | Energy: -10.140889 Hartree
O -0.370225 -1.276997 1.802312
H -0.550012 -1.849782 1.054194
H -0.599821 -0.383972 1.537958
O 0.628326 0.042091 -1.764811
H 0.611166 -0.676728 -2.399705
H -0.282586 0.273397 -1.572913
6
Structure 651 | Energy: -10.140866 Hartree
O 1.452322 -0.673734 -1.274534
H 1.634544 -0.268707 -0.424337
H 1.892619 -1.525878 -1.283422
O 0.613749 1.320263 0.476612
H 0.817102 2.231474 0.256545
H 0.840817 1.193554 1.399906
6
Structure 652 | Energy: -10.140837 Hartree
O -1.071130 -1.494846 1.627101
H -1.150574 -0.564975 1.848717
H -0.684872 -1.935810 2.386342
O -0.838529 0.654638 -0.759039
H -0.582936 1.558131 -0.955150
H -0.912938 0.192394 -1.596226
6
Structure 653 | Energy: -10.140828 Hartree
O -1.983078 -0.282606 -0.797367
H -2.402636 -1.144580 -0.829901
H -1.547498 -0.210667 0.054211
O -0.631984 1.653812 0.558016
H 0.163065 1.629424 1.094104
H -0.982025 2.545392 0.609451
6
Structure 654 | Energy: -10.140822 Hartree
O 1.606316 -0.328660 1.765682
H 1.547179 -1.155425 1.282931
H 1.703736 0.372120 1.117987
O -1.885733 -0.515129 0.315828
H -1.326295 0.114102 -0.143722
H -2.794111 -0.305347 0.090154
6
Structure 655 | Energy: -10.140801 Hartree
O -2.261899 0.453144 1.056975
H -2.816616 1.049338 1.563856
H -1.425465 0.899159 0.910210
O -0.096396 -1.640510 -0.717758
H 0.070661 -1.183421 0.108830
H -0.248074 -0.970518 -1.387230
6
Structure 656 | Energy: -10.140791 Hartree
O 1.969487 -0.327745 -0.597632
H 1.908659 -1.283020 -0.535703
H 2.874551 -0.115480 -0.834051
O -0.523803 0.262112 1.721561
H -0.246952 1.063304 2.170485
H -1.193503 0.511877 1.081869
6
Structure 657 | Energy: -10.140791 Hartree
O -2.196899 -1.104269 -0.066188
H -1.486725 -0.822266 0.513651
H -1.848555 -1.110097 -0.959896
O 0.728608 -0.078340 -1.868684
H -0.040498 0.333228 -2.267653
H 0.595055 -0.069196 -0.918859
6
Structure 658 | Energy: -10.140775 Hartree
O 1.223925 1.233531 -1.837705
H 2.036735 1.358622 -2.331444
H 1.215704 0.325209 -1.529526
O -0.629712 -0.706611 1.213583
H -1.454216 -0.889514 1.668365
H -0.608510 -1.259957 0.430355
6
Structure 659 | Energy: -10.140771 Hartree
O -1.404207 -0.118045 -0.321188
H -0.622331 -0.612072 -0.066842
H -2.056955 -0.243558 0.370373
O 1.744864 0.966956 0.010408
H 0.838495 0.812074 0.283526
H 2.308861 0.726458 0.748078
6
Structure 660 | Energy: -10.140756 Hartree
O 1.032064 -0.303832 2.044083
H 0.884006 -1.030579 2.652361
H 0.440548 -0.431358 1.299813
O 1.129943 1.488451 -0.604828
H 1.409827 0.695066 -0.144076
H 0.597090 1.209877 -1.352192
6
Structure 661 | Energy: -10.140754 Hartree
O -0.199986 -1.151107 2.230410
H -0.831452 -1.035788 2.943178
H -0.247692 -0.367595 1.679117
O -1.627539 0.438147 -0.120197
H -1.024570 -0.246758 -0.415867
H -1.141068 1.004104 0.482403
6
Structure 662 | Energy: -10.140751 Hartree
O -1.932595 0.425669 -1.553365
H -1.380949 -0.256789 -1.166035
H -1.383144 0.923777 -2.161710
O 1.602549 -0.312077 0.969711
H 2.372542 -0.794432 0.662250
H 1.330455 0.271592 0.258808
6
Structure 663 | Energy: -10.140748 Hartree
O 1.752923 0.519430 -0.792234
H 1.880896 0.434828 -1.739098
H 0.873481 0.191712 -0.594057
O -1.764857 0.455014 -1.269830
H -2.623732 0.206244 -0.922649
H -1.160777 -0.264350 -1.075687
6
Structure 664 | Energy: -10.140741 Hartree
O 0.950859 1.745895 0.246938
H 1.080736 0.912518 -0.209899
H 0.024977 1.793651 0.493014
O -2.228764 -1.069011 -0.706546
H -1.800650 -1.172293 -1.558684
H -2.237803 -0.131256 -0.504997
6
Structure 665 | Energy: -10.140735 Hartree
O 0.926881 -1.141216 1.697380
H 0.661815 -1.588424 0.891259
H 0.145696 -0.715614 2.056133
O -0.493171 1.349379 -0.611473
H 0.106363 1.174569 -1.339544
H -0.508748 0.563701 -0.061422
6
Structure 666 | Energy: -10.140734 Hartree
O -0.029394 -0.061427 0.660158
H -0.370067 -0.728007 1.259908
H 0.556371 0.504156 1.167195
O 0.402031 1.980761 -0.865972
H 1.201043 2.439957 -1.132065
H 0.412539 1.121795 -1.292768
6
Structure 667 | Energy: -10.140729 Hartree
O -1.096442 -1.253057 -1.488556
H -0.814801 -1.763789 -0.727033
H -0.810174 -1.728371 -2.270999
O 0.568648 0.353196 1.391807
H 0.659186 -0.552064 1.087843
H -0.350681 0.480954 1.633881
6
Structure 668 | Energy: -10.140725 Hartree
O 0.834957 -1.263138 -0.385695
H 0.102610 -1.557473 -0.930783
H 0.552508 -1.328047 0.528690
O 0.854324 1.605933 1.371259
H 0.713727 0.657255 1.353078
H 1.657198 1.764568 1.871574
6
Structure 669 | Energy: -10.140722 Hartree
O -0.358159 1.059343 -1.094845
H -0.403504 1.909942 -1.535880
H -1.240575 0.683614 -1.110978
O -0.013658 -2.077047 1.479332
H -0.838146 -1.680234 1.191500
H 0.207174 -1.689037 2.328314
6
Structure 670 | Energy: -10.140717 Hartree
O -0.626690 -1.734843 -1.520617
H -0.732679 -0.915078 -1.033956
H 0.087707 -2.221614 -1.104947
O 1.867798 0.074682 0.733340
H 2.022470 -0.645972 0.119482
H 1.268297 -0.250457 1.407856
6
Structure 671 | Energy: -10.140714 Hartree
O 1.867665 -1.190432 -0.949819
H 1.184425 -0.519481 -1.005437
H 1.940716 -1.594010 -1.816929
O 0.994401 0.845535 1.586979
H 0.108610 1.181288 1.737747
H 1.457080 0.877628 2.426614
6
Structure 672 | Energy: -10.140712 Hartree
O -1.285734 1.555855 1.452768
H -0.606729 1.213775 0.867943
H -1.087976 2.481757 1.606679
O 1.078401 -0.158515 -1.574981
H 0.808545 0.728460 -1.328934
H 0.324038 -0.734136 -1.434677
6
Structure 673 | Energy: -10.140703 Hartree
O -1.066210 -1.394979 1.086567
H -1.592968 -0.866938 1.689712
H -0.517495 -1.973117 1.620195
O 0.762830 1.058630 -0.727784
H -0.125829 1.125914 -0.373038
H 1.241771 1.839856 -0.444255
6
Structure 674 | Energy: -10.140703 Hartree
O 1.815109 1.299385 1.192402
H 1.556909 1.271697 0.269010
H 2.228347 0.458311 1.397142
O -1.260670 -0.995132 -1.087898
H -0.510957 -0.571849 -1.510803
H -1.681665 -1.551148 -1.746455
6
Structure 675 | Energy: -10.140702 Hartree
O 0.372444 0.516170 1.099328
H -0.439757 0.085039 0.826306
H 0.467872 1.306889 0.564774
O -0.744041 -0.133781 -2.082652
H -0.873622 -0.878071 -1.491612
H -0.218465 0.515356 -1.610975
6
Structure 676 | Energy: -10.140698 Hartree
O -1.439792 -0.276378 -1.246766
H -2.104929 0.367015 -1.499202
H -0.794858 0.180215 -0.703006
O 0.066652 2.083570 1.345113
H -0.277198 2.957977 1.538160
H 0.138643 2.010835 0.391375
6
Structure 677 | Energy: -10.140698 Hartree
O 1.212885 1.773161 1.082211
H 0.308882 1.495274 1.242347
H 1.763472 0.989053 1.128258
O 1.101735 -1.600082 -0.123985
H 1.650689 -1.058466 0.446444
H 1.689011 -2.079174 -0.711919
6
Structure 678 | Energy: -10.140686 Hartree
O 1.141904 1.055945 0.683693
H 0.789464 0.191428 0.463505
H 1.509566 1.426219 -0.121175
O -1.684783 -1.553560 -0.773693
H -1.227439 -1.255917 0.015187
H -1.697738 -0.817922 -1.389126
6
Structure 679 | Energy: -10.140683 Hartree
O -1.639660 -1.328489 -1.425982
H -0.903150 -0.941081 -0.948956
H -2.269334 -1.639311 -0.772536
O -1.757906 1.101782 0.105744
H -0.988227 1.571623 -0.221260
H -1.572472 0.849036 1.012288
6
Structure 680 | Energy: -10.140667 Hartree
O -1.140869 -0.877174 -0.079580
H -0.871920 -0.119302 -0.602439
H -1.761081 -1.382019 -0.609259
O 2.109817 1.028802 0.074696
H 2.851141 1.271650 -0.483472
H 1.824654 1.823521 0.529879
6
Structure 681 | Energy: -10.140660 Hartree
O 2.292409 0.122987 1.052399
H 2.786925 0.857449 1.421324
H 1.361672 0.309154 1.190820
O -1.733436 -0.614326 -0.371987
H -2.620209 -0.886756 -0.615917
H -1.759506 -0.356164 0.551464
6
Structure 682 | Energy: -10.140659 Hartree
O -0.320480 -0.257210 -1.836769
H 0.169736 0.423130 -1.371032
H -0.201958 -1.075718 -1.350881
O 0.385495 2.190716 0.879356
H 1.266216 1.870519 0.674680
H -0.123897 2.159711 0.067170
6
Structure 683 | Energy: -10.140654 Hartree
O 0.267781 2.136018 -0.836499
H -0.025577 1.987121 0.064533
H 1.206840 1.942523 -0.865128
O -1.032396 -0.410923 0.017771
H -0.404729 -0.339585 -0.704055
H -0.565543 -0.181985 0.823825
6
Structure 684 | Energy: -10.140628 Hartree
O -1.547773 -0.516096 0.478866
H -1.814171 -0.428391 1.396158
H -1.106686 0.299124 0.231987
O 1.417686 -0.070527 2.031625
H 1.151627 0.842594 2.156168
H 2.155411 -0.234539 2.622344
6
Structure 685 | Energy: -10.140624 Hartree
O -1.277270 -0.021025 -2.186128
H -1.371232 -0.212076 -1.250844
H -2.061442 0.459865 -2.457995
O 0.786721 0.497065 0.072909
H 0.327442 0.332254 0.898734
H 1.360313 -0.254712 -0.088061
6
Structure 686 | Energy: -10.140610 Hartree
O 1.217021 1.527909 -1.089877
H 1.767232 1.244902 -1.822858
H 0.851557 2.383617 -1.322882
O 0.583318 -1.043412 1.134227
H 0.178103 -1.823167 1.518767
H 0.080085 -0.819785 0.348839
6
Structure 687 | Energy: -10.140594 Hartree
O 2.094284 1.212691 0.050921
H 2.848749 0.622336 0.099397
H 2.353160 2.038952 0.463676
O -0.635229 -0.403650 -1.206510
H 0.165534 -0.405471 -1.734583
H -1.333449 -0.034107 -1.750583
6
Structure 688 | Energy: -10.140589 Hartree
O -1.452440 0.495102 -1.711750
H -1.051023 0.566938 -0.843539
H -1.491402 1.379643 -2.080747
O -0.674113 -0.905967 1.427110
H -1.492592 -0.868994 0.928298
H -0.164346 -0.127400 1.194602
6
Structure 689 | Energy: -10.140583 Hartree
O 0.402488 -1.600003 -1.149299
H 0.648419 -2.476179 -0.846115
H -0.532686 -1.488550 -0.967313
O -0.211781 1.651052 0.623311
H -1.087370 1.658472 0.231680
H 0.205186 2.486234 0.402635
6
Structure 690 | Energy: -10.140581 Hartree
O 0.030699 0.990504 -0.889460
H 0.653512 1.037372 -0.161454
H 0.321988 0.282481 -1.467340
O -1.175415 -0.847412 1.912982
H -0.668421 -0.728616 2.718545
H -1.840143 -1.515479 2.091622
6
Structure 691 | Energy: -10.140567 Hartree
O 1.551656 0.553324 1.066844
H 0.962152 0.878547 1.750072
H 1.033934 0.462815 0.264434
O -0.684588 -2.257148 -0.821510
H -1.527472 -1.971995 -0.463289
H -0.009767 -1.686567 -0.448493
6
Structure 692 | Energy: -10.140566 Hartree
O 0.661953 1.284715 -0.302737
H 1.347087 1.389418 0.360374
H -0.127565 1.712471 0.034571
O -1.959223 -0.575061 0.791093
H -2.232210 -0.029198 0.051094
H -2.524237 -0.350869 1.533108
6
Structure 693 | Energy: -10.140559 Hartree
O -0.685396 1.003531 1.024814
H -0.066708 1.679237 0.740678
H -1.546007 1.240701 0.673829
O 0.566633 -1.480043 -1.225326
H 0.905093 -2.207880 -1.750479
H -0.385912 -1.582639 -1.178208
6
Structure 694 | Energy: -10.140553 Hartree
O -1.648557 -1.533906 -0.057040
H -2.584221 -1.480520 0.147334
H -1.570015 -1.614207 -1.009654
O 0.456173 0.327992 0.284273
H 1.288641 0.599425 0.675946
H 0.585564 -0.551018 -0.077234
6
Structure 695 | Energy: -10.140552 Hartree
O 1.736935 -0.722303 -0.034089
H 2.341606 -0.313787 0.588465
H 0.856820 -0.401873 0.172823
O -1.947510 0.868311 -1.196044
H -1.362659 1.023599 -0.451785
H -1.738759 -0.000484 -1.544908
6
Structure 696 | Energy: -10.140551 Hartree
O -0.540789 1.273389 1.372585
H -0.317962 0.813370 2.184260
H 0.062554 2.014654 1.291381
O 0.573361 -1.300538 -1.635350
H 0.957013 -0.563977 -1.155374
H 1.280127 -1.925320 -1.809177
6
Structure 697 | Energy: -10.140540 Hartree
O -1.393708 -0.760675 0.968282
H -1.200370 -1.674562 0.750298
H -2.237353 -0.545051 0.565963
O 0.409307 1.274041 -2.022240
H 0.680648 0.355956 -2.082081
H -0.546265 1.293690 -2.103388
6
Structure 698 | Energy: -10.140536 Hartree
O -1.203911 0.604441 0.036799
H -1.167881 1.447650 -0.419038
H -0.723550 -0.029230 -0.499674
O 1.404423 -1.375085 0.110068
H 1.142089 -1.133933 -0.780502
H 0.609057 -1.631784 0.580798
6
Structure 699 | Energy: -10.140533 Hartree
O 0.385816 -1.270355 -1.104687
H 0.103013 -0.356120 -1.170120
H 1.344658 -1.273675 -1.131162
O 1.722277 0.426164 1.719750
H 2.449319 0.996007 1.978161
H 1.132292 0.948704 1.172979
6
Structure 700 | Energy: -10.140532 Hartree
O -0.981995 -1.384077 -0.161791
H -1.023647 -0.425825 -0.151594
H -0.316231 -1.632619 -0.806055
O 1.360287 -1.745429 0.512026
H 0.953988 -1.663420 1.377059
H 2.276026 -1.474297 0.601453
6
Structure 701 | Energy: -10.140515 Hartree
O -0.235574 -0.855168 -2.358078
H 0.197250 -0.062992 -2.682434
H 0.095554 -1.017468 -1.472582
O 0.154581 0.038000 1.494862
H -0.403638 -0.375749 0.833582
H 0.699008 0.685243 1.042354
6
Structure 702 | Energy: -10.140509 Hartree
O -1.802300 1.139309 -0.018312
H -1.343412 1.738192 0.574012
H -2.061250 1.646315 -0.790311
O 0.954071 -0.047786 -0.900902
H 0.698183 0.673269 -1.479425
H 0.861033 0.265012 0.001090
6
Structure 703 | Energy: -10.140493 Hartree
O -1.588830 0.230097 -1.663048
H -0.901170 -0.157789 -1.118297
H -2.286995 -0.422359 -1.746470
O -1.085369 -1.593983 1.487905
H -0.800501 -1.842453 0.606316
H -0.555486 -0.840654 1.755874
6
Structure 704 | Energy: -10.140485 Hartree
O -2.097915 -0.735528 -0.232832
H -1.658104 -1.449005 -0.699311
H -1.466348 -0.372224 0.391046
O 0.885045 1.626131 1.653686
H 0.258960 0.949774 1.919479
H 1.722540 1.418376 2.072647
6
Structure 705 | Energy: -10.140476 Hartree
O 0.310116 -2.146504 -0.920779
H -0.110886 -2.077602 -1.779904
H -0.360782 -1.963234 -0.260174
O -0.032818 1.527307 0.939508
H -0.059022 2.260265 0.321306
H -0.432630 0.772760 0.502590
6
Structure 706 | Energy: -10.140470 Hartree
O -0.845765 -0.640909 -0.930787
H 0.028868 -0.452590 -1.276677
H -0.769927 -1.418930 -0.374889
O -1.007560 2.108192 0.768973
H -1.097052 3.063046 0.750729
H -1.785490 1.758312 1.207719
6
Structure 707 | Energy: -10.140469 Hartree
O 0.412499 -1.391404 1.698380
H 1.325452 -1.450223 1.410033
H -0.103233 -1.964017 1.127218
O 0.181899 0.494886 -0.734706
H -0.429211 -0.169226 -0.409765
H 0.251854 0.376322 -1.683988
6
Structure 708 | Energy: -10.140468 Hartree
O 0.968072 1.592190 1.680654
H 0.172784 2.056939 1.948258
H 0.691595 0.782354 1.247275
O -0.539700 -0.509532 -1.932031
H 0.267837 -0.074775 -2.213025
H -0.561609 -0.476132 -0.973651
6
Structure 709 | Energy: -10.140467 Hartree
O -0.451898 -1.721926 -1.266387
H -0.562268 -2.663064 -1.415263
H -1.229693 -1.285378 -1.619307
O -1.483062 0.914372 0.767618
H -0.966760 1.287871 1.484568
H -2.254342 0.499652 1.159053
6
Structure 710 | Energy: -10.140462 Hartree
O 0.881708 -2.241093 0.235504
H 1.389587 -1.429127 0.182063
H 1.405066 -2.871156 0.734712
O -1.161368 0.791699 -1.714109
H -0.651172 0.601843 -0.924336
H -0.690292 1.471455 -2.200017
6
Structure 711 | Energy: -10.140460 Hartree
O 0.717967 0.831699 -1.870274
H 1.560461 0.536287 -2.221017
H 0.210970 0.047552 -1.650825
O -0.723270 -1.883099 1.283931
H -1.130003 -1.481521 0.513613
H -0.685169 -2.828253 1.124803
6
Structure 712 | Energy: -10.140452 Hartree
O 0.140971 -1.806421 0.085572
H -0.080717 -2.125236 -0.791524
H -0.489897 -1.118138 0.305487
O 1.224976 1.963086 -0.889661
H 1.601014 2.843544 -0.830696
H 0.315075 2.022292 -0.591899
6
Structure 713 | Energy: -10.140448 Hartree
O -1.209200 1.477704 -0.749405
H -1.114549 2.084135 -0.012269
H -0.555614 0.785288 -0.633315
O 1.534755 -0.333858 1.418800
H 1.490500 -0.190444 2.366197
H 0.656557 -0.176789 1.066402
6
Structure 714 | Energy: -10.140443 Hartree
O -0.419169 0.370102 -0.113248
H -0.882893 0.456902 0.721923
H 0.014148 1.208245 -0.286000
O 0.946245 -0.760292 2.079050
H 1.666239 -1.392728 2.037554
H 0.418286 -0.981028 2.848870
6
Structure 715 | Energy: -10.140423 Hartree
O -0.131469 -1.634165 -0.463233
H 0.395560 -2.026951 0.235369
H -1.025798 -1.966952 -0.365672
O 1.345886 1.023045 1.555308
H 1.302402 0.935626 2.509538
H 1.513476 0.149055 1.197338
6
Structure 716 | Energy: -10.140410 Hartree
O 0.342206 1.283261 -1.305053
H 0.754443 0.417675 -1.335178
H 0.079790 1.441426 -0.396090
O 0.077276 -1.891771 0.735953
H 0.087063 -2.773783 0.359063
H 0.333629 -1.282854 0.040546
6
Structure 717 | Energy: -10.140384 Hartree
O 0.542717 2.013210 0.778399
H 1.050493 1.334297 1.227093
H -0.378444 1.878191 1.009317
O 0.389559 -2.243293 -0.889588
H 1.104437 -2.321114 -0.254780
H -0.242893 -1.618192 -0.529949
6
Structure 718 | Energy: -10.140340 Hartree
O 0.980546 0.555256 0.390274
H 0.376214 -0.188342 0.434225
H 0.967454 0.983049 1.248710
O -1.864463 -0.096526 -1.415341
H -1.927181 0.298902 -0.543682
H -1.145563 -0.730990 -1.388379
6
Structure 719 | Energy: -10.140324 Hartree
O -1.136307 0.925303 -1.093340
H -0.891604 0.188717 -1.656942
H -0.398160 1.088710 -0.502978
O 0.849752 -1.494594 1.887026
H 1.420157 -0.737289 2.032679
H 0.307205 -1.298351 1.120723
6
Structure 720 | Energy: -10.140322 Hartree
O -0.550604 1.558288 -1.604668
H -0.105049 2.307245 -1.203881
H -0.584477 0.862039 -0.945745
O -0.174207 -1.711318 1.108754
H 0.006024 -1.019716 0.468995
H -0.869812 -2.261721 0.743681
6
Structure 721 | Energy: -10.140307 Hartree
O 0.246455 -1.144698 1.772496
H 1.025035 -1.662889 1.985517
H 0.248208 -1.006466 0.823297
O 0.918529 1.129133 -0.543870
H 1.386025 0.538457 -1.137702
H 0.015401 0.812173 -0.480751
6
Structure 722 | Energy: -10.140304 Hartree
O -1.617375 1.394260 -0.314094
H -0.671141 1.238434 -0.335225
H -1.935074 1.097638 0.540993
O 1.347292 -0.865728 0.247979
H 1.351080 -0.098892 -0.328247
H 0.430554 -1.070620 0.442139
6
Structure 723 | Energy: -10.140290 Hartree
O -0.343879 -0.251313 1.637882
H -0.104993 0.011179 0.746749
H -0.466424 -1.202638 1.630561
O -2.113358 0.558760 -0.030180
H -2.658127 0.432980 0.749239
H -2.296613 -0.170647 -0.625555
6
Structure 724 | Energy: -10.140289 Hartree
O 2.210643 -0.294636 0.054052
H 2.070168 0.458662 0.631022
H 2.251877 -1.074853 0.610516
O -1.127469 -0.337600 0.739387
H -0.813688 -1.236653 0.623922
H -1.056331 -0.129621 1.673074
6
Structure 725 | Energy: -10.140284 Hartree
O -1.270135 -1.596083 0.590770
H -0.583091 -1.061205 0.188325
H -1.886899 -1.835757 -0.103671
O 1.071111 0.085982 -1.712138
H 1.789376 0.462201 -1.199653
H 0.278845 0.141627 -1.174266
6
Structure 726 | Energy: -10.140283 Hartree
O 0.833095 1.593182 -0.645265
H 0.188072 1.965194 -1.249945
H 1.232879 2.324845 -0.170993
O -1.335046 -0.383857 1.595306
H -2.137020 -0.725120 1.995886
H -0.615067 -0.955108 1.869877
6
Structure 727 | Energy: -10.140283 Hartree
O 2.282631 -0.505828 -0.420682
H 2.019250 -1.247538 0.127572
H 1.505129 -0.219762 -0.904156
O -0.149061 1.005649 2.014493
H -0.190899 0.757820 2.940191
H -0.043592 0.197558 1.508575
6
Structure 728 | Energy: -10.140282 Hartree
O 1.686246 -0.074365 -0.609335
H 2.459240 0.432059 -0.866436
H 1.826927 -0.976456 -0.903499
O -0.332430 -1.154470 -2.175204
H -0.464256 -1.096546 -3.123547
H -1.200886 -1.179458 -1.768696
6
Structure 729 | Energy: -10.140276 Hartree
O 2.039099 -1.043090 0.709590
H 1.912972 -1.042799 -0.241292
H 2.852772 -1.518669 0.888057
O -1.183854 0.383936 -1.807728
H -0.751939 -0.027376 -2.558966
H -1.802574 1.029781 -2.154366
6
Structure 730 | Energy: -10.140266 Hartree
O 1.590583 0.845383 -0.585111
H 1.127915 1.318821 0.109065
H 1.425709 -0.089801 -0.449692
O -1.056359 0.093812 -2.097156
H -0.661300 -0.329485 -2.861901
H -1.169466 -0.581562 -1.425468
6
Structure 731 | Energy: -10.140265 Hartree
O -0.355233 -0.951907 0.225143
H -0.377273 -1.598678 -0.482873
H 0.549392 -0.907193 0.540966
O 1.719314 1.461009 -1.080424
H 1.444025 0.930425 -1.830614
H 2.672689 1.381501 -1.010838
6
Structure 732 | Energy: -10.140262 Hartree
O 0.668401 0.578403 1.858279
H 0.470815 -0.351182 1.728215
H 0.615899 1.002801 0.999664
O -1.773821 -1.058060 -0.834971
H -1.125813 -1.757423 -0.729786
H -1.294132 -0.257103 -1.055094
6
Structure 733 | Energy: -10.140221 Hartree
O 2.126226 -0.263258 0.525782
H 2.096723 0.273973 1.319885
H 1.322217 -0.086696 0.033352
O -1.993458 1.429017 -0.253670
H -1.754229 1.408966 -1.182354
H -1.404439 0.826312 0.204469
6
Structure 734 | Energy: -10.140215 Hartree
O 1.382563 -1.108023 1.084729
H 0.474213 -0.939940 1.343059
H 1.583993 -0.518944 0.355001
O -2.187860 0.203199 -0.197040
H -1.906913 0.841748 0.461300
H -1.670929 -0.592974 -0.059277
6
Structure 735 | Energy: -10.140209 Hartree
O 1.394171 -0.103281 -0.861077
H 1.715796 -0.054844 -1.763461
H 1.386400 0.790871 -0.513912
O -2.136335 -0.555042 -0.709095
H -1.533715 0.188275 -0.642648
H -3.012256 -0.231037 -0.490298
6
Structure 736 | Energy: -10.140194 Hartree
O -1.982910 -0.089287 0.078365
H -1.259026 -0.080651 -0.550924
H -1.863704 -0.859225 0.637897
O 0.767020 -0.754183 1.916108
H 0.440980 -1.474260 1.372717
H 1.302568 -0.192715 1.352167
6
Structure 737 | Energy: -10.140190 Hartree
O -1.475695 -1.287136 -1.212515
H -0.901455 -1.251292 -0.445019
H -2.365751 -1.095575 -0.910528
O 0.948129 0.867507 1.447545
H 1.377197 0.716613 2.292068
H 0.725075 0.008054 1.084674
6
Structure 738 | Energy: -10.140186 Hartree
O -2.008629 0.136515 -0.914038
H -1.646967 -0.739306 -0.764958
H -1.544527 0.738797 -0.329268
O 1.462887 -0.395153 1.282006
H 0.539272 -0.319162 1.529488
H 1.498901 -0.422581 0.323862
6
Structure 739 | Energy: -10.140178 Hartree
O 1.232558 -0.670637 0.566731
H 1.534243 -1.135794 -0.216020
H 0.459952 -1.135827 0.893487
O -1.157944 0.915641 -1.773020
H -1.102515 1.447218 -2.569538
H -1.822756 0.241563 -1.927070
6
Structure 740 | Energy: -10.140173 Hartree
O -1.664282 -1.264899 -0.521960
H -2.498411 -0.832270 -0.714695
H -1.299709 -0.843859 0.259002
O 1.035360 1.309908 1.840602
H 0.139633 1.648749 1.786306
H 0.973796 0.378282 2.060535
6
Structure 741 | Energy: -10.140160 Hartree
O 0.241519 -0.748952 1.420746
H 0.154475 -0.549977 2.355047
H 0.279324 -1.703663 1.335965
O -0.530582 1.576412 -1.315466
H 0.209120 2.144565 -1.091568
H -1.309121 1.943689 -0.892295
6
Structure 742 | Energy: -10.140159 Hartree
O 2.097997 -0.592419 -0.289276
H 1.749717 0.168574 0.179419
H 2.868250 -0.896201 0.194994
O -0.968582 -0.186468 -0.942319
H -1.425444 -0.926596 -1.346761
H -1.051742 -0.286324 0.008050
6
Structure 743 | Energy: -10.140151 Hartree
O -1.622189 -1.387309 0.332467
H -1.571486 -0.654107 -0.283917
H -2.014315 -1.052001 1.141106
O 1.202998 -0.327431 1.038754
H 1.549635 0.516265 1.335583
H 0.250243 -0.296480 1.145470
6
Structure 744 | Energy: -10.140137 Hartree
O -1.725747 0.967230 -1.210315
H -1.024014 0.822876 -1.848138
H -2.506211 0.517491 -1.540015
O 0.896772 -1.695267 0.358363
H 0.536791 -2.383997 -0.203910
H 1.303754 -1.043572 -0.215873
6
Structure 745 | Energy: -10.140126 Hartree
O 0.434599 -1.120982 -1.045265
H -0.011867 -0.272246 -1.065311
H -0.011054 -1.691303 -1.674724
O -1.663055 1.183185 0.590860
H -1.244507 1.110829 -0.269180
H -0.967469 1.139211 1.249886
6
Structure 746 | Energy: -10.140115 Hartree
O 0.178648 -1.931023 0.021641
H 1.042496 -2.327529 0.150619
H -0.126579 -1.629746 0.879639
O -1.697514 1.523850 -0.050037
H -1.254760 2.323733 0.240208
H -2.636368 1.716703 -0.088106
6
Structure 747 | Energy: -10.140096 Hartree
O -1.089200 -2.208623 -0.417741
H -0.160810 -1.980400 -0.495792
H -1.204428 -3.071503 -0.820545
O 2.110337 0.111347 0.301949
H 1.920074 0.028010 -0.634503
H 1.808099 -0.694207 0.726005
6
Structure 748 | Energy: -10.140096 Hartree
O -0.850630 0.672693 -2.108883
H -1.788924 0.484239 -2.173500
H -0.749333 1.404270 -1.496817
O -0.933500 -1.473037 0.434927
H -0.892233 -2.339756 0.843806
H -0.755561 -0.826592 1.120882
6
Structure 749 | Energy: -10.140084 Hartree
O 0.438195 -0.244206 -1.744182
H 0.429927 0.079646 -0.841332
H 1.267305 0.034054 -2.138185
O -0.536913 0.791925 2.343375
H 0.124766 0.161280 2.052592
H -0.231130 1.663736 2.085442
6
Structure 750 | Energy: -10.140080 Hartree
O -0.069050 0.954744 1.214056
H -0.946449 0.763080 0.877125
H 0.480759 1.182084 0.461648
O -1.721077 -1.315987 -1.058636
H -2.035501 -1.980572 -0.442558
H -1.793005 -0.465755 -0.620436
6
Structure 751 | Energy: -10.140068 Hartree
O 1.811324 0.905780 -0.484164
H 1.557942 1.456090 0.259504
H 1.063301 0.876742 -1.083921
O -0.857725 -1.745693 1.385121
H -0.965832 -0.918248 0.912115
H -1.216249 -1.618466 2.265667
6
Structure 752 | Energy: -10.140067 Hartree
O -1.756766 -1.425834 -1.094514
H -1.159615 -0.979864 -1.698341
H -1.323227 -1.459678 -0.239535
O 0.448795 0.791548 1.756774
H -0.010816 1.564278 1.422508
H 0.071693 0.025538 1.319612
6
Structure 753 | Energy: -10.140064 Hartree
O 1.996283 -0.241982 1.129450
H 1.789128 0.233619 0.322618
H 1.164152 -0.522212 1.515611
O -1.671072 1.683737 -0.356526
H -1.328135 1.241519 0.422528
H -0.917462 1.949984 -0.886878
6
Structure 754 | Energy: -10.140057 Hartree
O -1.712455 0.161621 0.734667
H -2.521544 -0.098528 0.289938
H -1.681515 1.120325 0.730230
O 0.150121 -2.208691 -0.782404
H 1.096200 -2.362112 -0.820917
H -0.035060 -1.438765 -1.323707
6
Structure 755 | Energy: -10.140056 Hartree
O -1.416791 -0.383795 1.175864
H -2.183892 -0.069591 0.693248
H -1.217642 -1.264011 0.850823
O 2.409128 0.293521 -0.554895
H 2.976746 -0.422202 -0.262255
H 2.708014 0.554140 -1.428298
6
Structure 756 | Energy: -10.140055 Hartree
O 1.407275 -0.638591 -0.172617
H 1.790251 -0.388593 0.670542
H 1.371904 0.152310 -0.714203
O -0.968859 -0.164533 -2.190520
H -1.578339 -0.792881 -2.582693
H -1.342118 0.709998 -2.316857
6
Structure 757 | Energy: -10.140045 Hartree
O 0.245814 -0.266697 -2.433273
H 0.952213 -0.760681 -2.012481
H -0.457706 -0.888454 -2.629660
O -0.767294 0.274372 1.227747
H -0.500277 -0.501687 0.731238
H -1.657331 0.114532 1.547704
6
Structure 758 | Energy: -10.140040 Hartree
O 0.358291 -0.172153 1.311699
H 0.781384 -0.319330 0.463514
H -0.317929 -0.844972 1.412366
O -0.825620 1.358785 -1.660009
H -1.100386 0.462192 -1.458239
H -0.983354 1.500498 -2.595491
6
Structure 759 | Energy: -10.140034 Hartree
O -2.080293 -0.752895 -0.819167
H -2.472122 -1.609030 -1.002439
H -2.755095 -0.215636 -0.399541
O 0.771634 0.753590 0.770859
H 1.363855 0.274907 0.187572
H 1.137424 1.632538 0.888060
6
Structure 760 | Energy: -10.140031 Hartree
O -0.978240 0.935653 1.897815
H -0.044311 0.872782 1.688269
H -1.437921 1.152375 1.084295
O -0.157752 -0.128129 -1.424027
H -0.702600 0.557840 -1.814763
H 0.419818 0.296462 -0.786670
6
Structure 761 | Energy: -10.140012 Hartree
O -1.256971 -1.016575 1.093930
H -2.166612 -1.297268 0.976239
H -0.722696 -1.517626 0.474584
O 2.128891 0.703034 -0.809950
H 3.066370 0.825757 -0.971692
H 1.960565 -0.241263 -0.817483
6
Structure 762 | Energy: -10.140008 Hartree
O 2.210694 0.227883 -0.869165
H 1.498243 0.252995 -0.227394
H 3.012345 -0.001117 -0.394818
O 0.013342 -1.095378 0.361483
H 0.234151 -0.557855 1.124635
H 0.614826 -1.842561 0.356693
6
Structure 763 | Energy: -10.139986 Hartree
O -0.326925 -1.283033 -1.729297
H -1.037084 -1.546699 -2.317719
H 0.442785 -1.806615 -1.960593
O 0.227616 0.534826 0.087524
H 0.583948 1.396076 0.314159
H 0.061603 0.535750 -0.857213
6
Structure 764 | Energy: -10.139983 Hartree
O -1.639823 0.233865 1.096627
H -1.123132 -0.322554 1.682727
H -1.418724 -0.017882 0.197834
O 1.834656 0.011617 -1.674823
H 2.004142 -0.495291 -0.878326
H 0.889995 0.173683 -1.712754
6
Structure 765 | Energy: -10.139982 Hartree
O 0.748928 1.511145 0.958902
H 1.165168 1.142852 1.740688
H 0.986326 2.439763 0.921454
O -0.374356 -2.389359 -0.432719
H -0.046003 -2.999053 0.231017
H -1.326795 -2.342509 -0.329020
6
Structure 766 | Energy: -10.139976 Hartree
O -2.214845 1.040960 0.674674
H -2.560499 1.053866 1.569349
H -1.455799 0.454503 0.671847
O 1.435240 -1.122396 -0.607380
H 0.865346 -1.108184 0.164052
H 2.331410 -0.969711 -0.301350
6
Structure 767 | Energy: -10.139972 Hartree
O 0.193248 1.345637 -1.283863
H 0.004681 2.286049 -1.296270
H -0.028360 1.000033 -2.150776
O 2.040818 -0.934268 0.282307
H 1.820302 -0.978775 1.214765
H 2.769171 -0.316689 0.191825
6
Structure 768 | Energy: -10.139931 Hartree
O 0.480402 0.983199 -1.177174
H -0.232479 0.553288 -1.653686
H 1.304372 0.668805 -1.554428
O -1.353996 -1.817084 0.528598
H -2.036627 -1.909346 -0.138928
H -0.958401 -2.682193 0.651802
6
Structure 769 | Energy: -10.139925 Hartree
O 0.028442 -0.458030 -2.461766
H -0.929497 -0.416696 -2.488784
H 0.299137 -1.162962 -3.053277
O 0.309609 0.962725 1.198626
H 0.615953 0.071445 1.377125
H 0.544007 1.500925 1.957234
6
Structure 770 | Energy: -10.139924 Hartree
O 0.608682 -1.325829 1.041647
H 0.447561 -0.566920 1.605723
H 0.608762 -2.102862 1.604062
O 0.173691 2.076640 -0.412719
H 0.703807 1.637934 0.255563
H -0.169159 2.881780 -0.019921
6
Structure 771 | Energy: -10.139921 Hartree
O 1.202242 -0.347355 -0.898070
H 1.014403 -0.339299 0.042535
H 1.563860 -1.210603 -1.108132
O -1.707084 1.468418 0.534464
H -2.182128 1.026064 1.240682
H -0.956773 1.914133 0.932534
6
Structure 772 | Energy: -10.139906 Hartree
O 0.870986 -0.602821 1.922076
H 0.074267 -0.896895 2.367997
H 1.615201 -0.866841 2.466619
O -0.206832 1.050118 -2.055042
H 0.388021 0.809199 -2.767920
H -1.005890 0.530787 -2.164086
6
Structure 773 | Energy: -10.139905 Hartree
O 1.735540 0.081617 -0.490980
H 2.143144 -0.778826 -0.607519
H 2.360337 0.629332 -0.011680
O -2.103175 -0.133477 1.323422
H -2.950402 0.242633 1.570068
H -2.272741 -1.010233 0.973228
6
Structure 774 | Energy: -10.139890 Hartree
O 1.713528 0.278479 0.244264
H 1.739068 -0.547991 0.730454
H 1.344611 0.088062 -0.620452
O -1.523123 0.322394 1.322927
H -1.461554 -0.486343 1.835023
H -2.449580 0.456134 1.113456
6
Structure 775 | Energy: -10.139888 Hartree
O -0.455072 2.416210 -0.029164
H -0.104143 2.930129 0.700783
H -0.150488 2.829152 -0.839595
O 1.196765 -1.331561 0.042760
H 1.081251 -1.581185 0.961690
H 1.546906 -2.096778 -0.417602
6
Structure 776 | Energy: -10.139887 Hartree
O 0.087536 -0.760276 1.306481
H 0.525587 0.012090 0.943650
H -0.600877 -1.013058 0.688193
O 1.385688 0.676366 -1.412753
H 0.445782 0.502442 -1.332652
H 1.609579 1.336504 -0.753831
6
Structure 777 | Energy: -10.139879 Hartree
O -2.126062 -1.129870 0.457004
H -2.942172 -1.330667 0.919315
H -1.858435 -0.248021 0.723102
O 1.692630 0.678567 -0.677595
H 1.121512 1.392753 -0.388027
H 2.499046 0.732470 -0.160995
6
Structure 778 | Energy: -10.139875 Hartree
O 1.480987 0.838087 -0.706894
H 1.805371 1.722931 -0.528253
H 0.585117 0.790064 -0.367480
O 0.038790 -2.177204 0.148959
H -0.857031 -2.055332 0.469489
H 0.599103 -2.311334 0.915866
6
Structure 779 | Energy: -10.139869 Hartree
O 1.681258 -0.689375 -1.089105
H 1.992236 -1.434025 -0.570574
H 1.443725 -1.025895 -1.955374
O -0.848502 -1.510730 -0.560264
H -0.075526 -1.605475 -0.000248
H -1.568103 -1.979307 -0.132832
6
Structure 780 | Energy: -10.139866 Hartree
O 1.270506 -1.592488 1.520575
H 1.338787 -0.948590 0.812889
H 0.795771 -2.349243 1.171234
O -0.145579 0.970780 -0.946485
H -0.166663 0.340285 -0.223907
H 0.414441 0.599607 -1.631098
6
Structure 781 | Energy: -10.139863 Hartree
O -1.048583 -1.237341 0.404317
H -0.474542 -1.888397 0.812594
H -1.598288 -0.868282 1.098370
O 1.299436 1.514393 -0.830548
H 1.840709 1.894963 -1.525010
H 0.718684 2.207683 -0.510918
6
Structure 782 | Energy: -10.139840 Hartree
O -0.547772 0.831916 -0.956991
H -0.047425 0.048566 -1.193846
H -1.049254 1.093655 -1.731652
O -0.688916 -0.010304 2.149289
H -0.572326 -0.881349 1.764874
H -1.627350 0.186953 2.126498
6
Structure 783 | Energy: -10.139839 Hartree
O 1.091764 0.995144 1.141778
H 0.191149 0.687239 1.260835
H 1.359264 0.753863 0.252779
O -2.491239 -0.153357 -0.550417
H -1.546156 -0.316913 -0.537986
H -2.689593 0.422711 0.190455
6
Structure 784 | Energy: -10.139813 Hartree
O -0.588743 2.227896 0.638664
H 0.117998 1.883952 0.088840
H -0.250481 2.282970 1.534564
O -1.419668 -0.176869 -0.615437
H -1.740927 -1.076253 -0.704816
H -1.487745 0.236168 -1.478487
6
Structure 785 | Energy: -10.139797 Hartree
O 2.120428 -0.825725 0.550135
H 2.720851 -1.562020 0.682227
H 1.335924 -1.172455 0.120690
O -1.429634 0.158033 -1.156700
H -0.529099 -0.135187 -1.004560
H -1.932808 -0.606714 -1.443173
6
Structure 786 | Energy: -10.139791 Hartree
O 2.321269 0.785980 0.105201
H 2.374929 1.022315 1.033292
H 3.104821 0.273413 -0.103154
O 0.504948 -1.047310 -1.305504
H -0.345940 -0.845985 -1.699897
H 1.172213 -0.898698 -1.978378
6
Structure 787 | Energy: -10.139783 Hartree
O -0.558681 1.895570 -1.463348
H -1.435563 2.269117 -1.571171
H -0.265109 1.605388 -2.329200
O -0.346587 -1.079322 0.207589
H 0.595796 -0.916534 0.281758
H -0.472827 -2.030039 0.224602
6
Structure 788 | Energy: -10.139745 Hartree
O 1.108955 1.388949 -0.772281
H 0.510210 1.804240 -0.148483
H 1.748403 0.888209 -0.261933
O 0.952049 -2.237387 0.190638
H 0.735250 -2.717087 0.992494
H 1.760305 -1.749778 0.361073
6
Structure 789 | Energy: -10.139740 Hartree
O -1.209504 1.450232 1.383326
H -1.801618 2.200645 1.303535
H -1.106785 1.267727 2.319398
O 0.434824 -1.570476 -0.781930
H -0.099143 -1.596226 -1.578362
H 1.352037 -1.512617 -1.056631
6
Structure 790 | Energy: -10.139731 Hartree
O -1.824913 -0.936578 0.662557
H -2.261483 -1.384842 1.389574
H -2.274195 -0.098815 0.534541
O 0.271065 0.370384 -1.895680
H -0.589356 0.763602 -1.737114
H 0.924544 0.944132 -1.490875
6
Structure 791 | Energy: -10.139729 Hartree
O 0.178177 -1.328121 1.884093
H 0.226984 -1.902968 2.650418
H 0.747179 -0.575479 2.056888
O -1.193133 1.504936 -0.962799
H -1.039464 2.039289 -1.744425
H -1.701076 2.039029 -0.348938
6
Structure 792 | Energy: -10.139696 Hartree
O -0.536923 0.143014 -1.139479
H -1.292661 -0.447500 -1.154927
H -0.872793 1.036693 -1.232314
O 1.061495 0.022466 2.071041
H 1.975484 -0.235503 1.936270
H 0.775365 -0.367769 2.899253
6
Structure 793 | Energy: -10.139691 Hartree
O 1.965922 -0.384939 0.906208
H 1.177956 -0.153132 0.410766
H 1.793120 -1.223539 1.338619
O -1.199908 0.679048 -0.824871
H -0.542026 0.938919 -0.176993
H -0.903508 -0.145224 -1.215781
6
Structure 794 | Energy: -10.139690 Hartree
O 1.152761 0.151999 -2.114245
H 1.941432 0.250612 -1.577254
H 1.435119 -0.143227 -2.982119
O -0.833194 -1.058219 0.712909
H -0.824198 -0.257396 1.240819
H -1.673957 -1.492471 0.869853
6
Structure 795 | Energy: -10.139690 Hartree
O 1.379055 -1.237844 0.600864
H 1.543151 -2.040524 1.099726
H 2.228702 -0.915605 0.293696
O -1.584292 1.245695 -0.853064
H -2.022502 2.025211 -0.506056
H -0.826615 1.546987 -1.358272
6
Structure 796 | Energy: -10.139673 Hartree
O -0.426924 -0.532921 1.342905
H -0.851432 -1.321504 0.999370
H -0.350531 0.088168 0.615922
O 1.710340 -1.658342 0.154936
H 2.214651 -0.898594 0.452494
H 1.673778 -1.617638 -0.802714
6
Structure 797 | Energy: -10.139670 Hartree
O 0.438572 0.599581 -1.657507
H 1.333732 0.266968 -1.747751
H -0.145866 -0.160648 -1.633547
O -2.407356 0.033339 0.059474
H -3.227885 0.143151 0.543996
H -2.524971 -0.711628 -0.533214
6
Structure 798 | Energy: -10.139664 Hartree
O 2.423099 -0.014404 0.590013
H 3.148487 0.501967 0.946748
H 1.755744 -0.078506 1.276030
O -0.454549 -1.515653 -0.317240
H -0.104992 -0.955900 0.378873
H -0.355317 -2.424670 -0.027535
6
Structure 799 | Energy: -10.139658 Hartree
O -0.089875 -0.219861 -1.770995
H -0.260848 0.580919 -1.271388
H -0.929702 -0.518107 -2.125721
O -1.522323 0.839228 1.321173
H -1.905137 0.633534 0.466053
H -1.281595 1.767659 1.308712
6
Structure 800 | Energy: -10.139625 Hartree
O -0.707362 -0.586729 0.557210
H -0.441815 -0.540793 1.477786
H -1.315261 0.138502 0.400400
O 0.681176 2.314952 -0.374506
H 0.168464 3.123474 -0.433720
H 0.702507 2.059168 0.549728
6
Structure 801 | Energy: -10.139615 Hartree
O 0.730644 0.880345 1.717683
H 0.358780 -0.000414 1.639797
H 0.400931 1.394321 0.977947
O 2.320827 -0.074569 -0.101310
H 2.196061 -0.318962 -1.020436
H 3.104372 0.477030 -0.057894
6
Structure 802 | Energy: -10.139601 Hartree
O -1.312454 2.090378 -0.369532
H -0.724675 1.647258 -0.984549
H -1.465442 1.488122 0.361203
O 0.413085 -0.545208 1.620301
H 0.233586 -0.031616 0.830307
H -0.433337 -0.814310 1.982575
6
Structure 803 | Energy: -10.139593 Hartree
O -0.650599 -0.661220 1.963754
H -0.772798 -1.558952 2.278764
H 0.293461 -0.518541 1.871649
O 0.472667 0.302328 -0.974077
H 0.180173 0.108103 -1.866720
H 1.430988 0.340023 -0.991053
6
Structure 804 | Energy: -10.139573 Hartree
O -1.203460 0.722662 1.258722
H -1.726736 1.487666 1.505778
H -0.281298 0.959766 1.374865
O -0.002924 -1.343883 -1.619111
H 0.741495 -0.957330 -1.153809
H -0.106259 -0.860352 -2.441064
6
Structure 805 | Energy: -10.139572 Hartree
O 0.697804 -1.482836 -1.368429
H 1.595559 -1.611746 -1.680686
H 0.678002 -0.647284 -0.897736
O 1.451465 1.931608 0.360942
H 0.730940 2.210941 -0.207304
H 1.768050 1.090544 0.025571
6
Structure 806 | Energy: -10.139553 Hartree
O -0.825755 -0.105832 -1.905298
H -1.394071 0.580379 -2.260569
H -0.477297 0.217117 -1.072009
O -0.794089 1.087466 1.921734
H -1.627051 1.418584 2.263233
H -0.861367 1.082170 0.964899
6
Structure 807 | Energy: -10.139546 Hartree
O 0.655924 1.399160 -0.445674
H 1.395657 1.617545 -1.015927
H 0.198471 2.218634 -0.247457
O -0.026118 -1.516787 1.684543
H -0.954081 -1.748138 1.610734
H 0.474630 -2.207893 1.246694
6
Structure 808 | Energy: -10.139543 Hartree
O 0.530470 1.494005 -0.702481
H 0.708289 2.374761 -1.038242
H -0.079414 1.075074 -1.312915
O -0.205566 -1.747478 1.619359
H 0.329400 -2.347319 2.142894
H -0.521282 -2.238891 0.858488
6
Structure 809 | Energy: -10.139539 Hartree
O -0.734631 -0.650465 1.012145
H -0.105758 -1.161805 0.499177
H -1.078189 0.036391 0.437439
O 0.978623 2.106040 -0.628001
H 0.061261 2.024039 -0.360025
H 1.151507 1.410688 -1.265719
6
Structure 810 | Energy: -10.139537 Hartree
O 1.437506 0.876673 0.314420
H 2.310065 1.168292 0.042970
H 1.309166 -0.004821 -0.041370
O -2.519741 -0.050839 0.023579
H -3.287089 -0.625970 0.045684
H -1.917550 -0.405782 -0.633284
6
Structure 811 | Energy: -10.139536 Hartree
O -0.707714 1.739629 1.476195
H -1.175102 2.377921 2.018613
H 0.040960 1.426429 1.987551
O 1.403707 -0.419667 -0.239765
H 0.931420 -1.214790 -0.494343
H 1.877204 -0.617692 0.570590
6
Structure 812 | Energy: -10.139534 Hartree
O 1.605174 0.354533 0.203395
H 2.302996 0.623376 -0.397316
H 1.820434 0.712098 1.067050
O -2.004362 -0.294952 -1.058823
H -1.636315 -0.901092 -1.704751
H -2.643211 0.254749 -1.516849
6
Structure 813 | Energy: -10.139530 Hartree
O 1.617217 1.391567 0.775334
H 1.957717 1.356495 1.671390
H 0.730562 1.026069 0.793884
O 0.179994 -0.545948 -1.174985
H -0.201275 -1.423508 -1.242873
H -0.547766 0.076343 -1.118344
6
Structure 814 | Energy: -10.139503 Hartree
O 1.712223 0.154395 1.781933
H 2.670703 0.152267 1.819318
H 1.425529 1.062647 1.895845
O -1.280511 -0.324152 -0.352596
H -1.904334 -0.732146 0.251120
H -1.643586 0.527488 -0.603544
6
Structure 815 | Energy: -10.139503 Hartree
O -1.389457 -1.514866 0.421952
H -0.932955 -1.298753 1.237419
H -1.003743 -0.975383 -0.271066
O -0.260548 1.959564 -0.105178
H -0.146879 1.388357 0.656983
H -0.409362 1.393233 -0.864922
6
Structure 816 | Energy: -10.139495 Hartree
O -0.122310 -0.948963 -1.146265
H -0.053996 -0.482982 -1.981897
H -0.983807 -1.370253 -1.125562
O 0.162718 2.061818 1.324817
H -0.065248 2.599455 0.563854
H 0.696394 2.605817 1.907349
6
Structure 817 | Energy: -10.139473 Hartree
O 0.908383 -0.232468 -1.091185
H 1.146096 -0.043600 -2.001079
H 0.018893 0.099788 -0.955154
O 0.347023 -0.581517 2.309520
H 0.961849 -0.594423 3.045665
H -0.393340 -1.142880 2.547895
6
Structure 818 | Energy: -10.139472 Hartree
O -1.146889 -0.414833 -0.657470
H -1.557608 0.451863 -0.642145
H -0.626973 -0.468601 -1.461763
O 2.165482 0.565479 0.432122
H 3.025177 0.806087 0.783007
H 2.155158 0.818969 -0.492931
6
Structure 819 | Energy: -10.139462 Hartree
O 0.474514 -0.205191 -1.749465
H 1.047318 -0.796805 -2.241375
H 0.933482 0.026386 -0.939643
O -0.398007 -2.051534 -0.226503
H -0.027628 -1.689170 0.580714
H -1.268671 -1.664798 -0.338164
6
Structure 820 | Energy: -10.139454 Hartree
O -0.777009 -0.651212 -1.083965
H -0.429377 -1.426440 -1.529230
H -1.098031 -0.053993 -1.762467
O -0.456320 1.660679 1.238116
H -0.477799 2.500850 1.700434
H -1.181669 1.663208 0.610462
6
Structure 821 | Energy: -10.139444 Hartree
O -0.979422 -0.861138 0.429738
H -1.004794 -1.139828 1.347220
H -0.464223 -1.512145 -0.050732
O 0.006666 0.700257 -2.192388
H 0.528684 0.037324 -2.648574
H 0.561027 1.074773 -1.504996
6
Structure 822 | Energy: -10.139443 Hartree
O -0.140679 -1.957683 1.525745
H -0.791997 -1.776905 0.845164
H -0.507768 -2.634710 2.097559
O -1.441087 0.543353 -0.282883
H -0.722897 0.247454 -0.845674
H -1.984408 -0.223037 -0.089138
6
Structure 823 | Energy: -10.139442 Hartree
O 1.262578 -2.048644 0.401501
H 1.667452 -2.683408 0.995839
H 0.636980 -2.529296 -0.144111
O -1.528846 0.300505 -1.079188
H -1.915624 -0.335489 -1.684168
H -2.116929 1.057687 -1.048831
6
Structure 824 | Energy: -10.139425 Hartree
O 2.182161 0.684100 -0.629468
H 1.409051 1.236717 -0.499071
H 2.947258 1.199325 -0.366295
O 0.030362 -0.461942 1.683073
H 0.444587 -0.172217 2.498281
H 0.136756 0.244993 1.043532
6
Structure 825 | Energy: -10.139419 Hartree
O -0.669352 0.175938 -0.829306
H 0.283436 0.220429 -0.930801
H -1.054008 0.307390 -1.698128
O -0.167982 -2.200585 1.090828
H 0.435709 -2.904881 0.846672
H -1.056404 -2.510758 0.904850
6
Structure 826 | Energy: -10.139401 Hartree
O -0.397823 0.925647 0.469911
H -0.784076 1.701507 0.058894
H 0.500559 1.152927 0.717589
O 1.880495 -0.730397 -1.311346
H 1.896263 -0.344668 -0.433250
H 2.136142 -0.042104 -1.928586
6
Structure 827 | Energy: -10.139388 Hartree
O -0.062865 0.767623 0.552464
H -0.028107 1.583991 1.054880
H 0.754683 0.295172 0.721272
O -0.628153 -1.682753 -1.396817
H -1.310314 -1.347824 -1.982109
H -0.749494 -2.632126 -1.333136
6
Structure 828 | Energy: -10.139378 Hartree
O -0.252751 -0.984882 0.627383
H -0.937534 -0.466071 1.053989
H 0.081858 -1.604195 1.278981
O 0.953362 1.455681 -1.605831
H 0.900596 1.775123 -0.702914
H 1.756072 1.815735 -1.988071
6
Structure 829 | Energy: -10.139364 Hartree
O -2.223714 -0.696547 0.614564
H -2.652310 -0.636176 1.470570
H -2.419677 -1.565790 0.259451
O 0.602812 1.474270 -0.801959
H 1.042561 1.839109 -0.031504
H 1.187726 0.812444 -1.176058
6
Structure 830 | Energy: -10.139363 Hartree
O 1.106608 1.119537 0.810178
H 2.063329 1.116638 0.741165
H 0.818646 2.030803 0.727939
O 0.265332 -1.912282 -0.982210
H -0.624298 -2.139990 -0.705088
H 0.292532 -1.985462 -1.938239
6
Structure 831 | Energy: -10.139356 Hartree
O -0.276078 -0.255627 1.528056
H -0.126102 -1.016009 0.962890
H -0.560889 -0.587900 2.381618
O -1.578520 1.240009 -1.053747
H -2.294087 1.240625 -0.414959
H -1.916447 0.842080 -1.858450
6
Structure 832 | Energy: -10.139343 Hartree
O 0.733035 0.336002 0.595100
H 0.920066 1.151034 0.125177
H -0.210798 0.179042 0.527028
O 0.229640 -0.781338 -2.229745
H 0.148471 -0.547614 -3.156498
H 0.264196 0.037979 -1.732137
6
Structure 833 | Energy: -10.139332 Hartree
O -1.665776 1.260388 0.139264
H -2.077847 2.028439 -0.261211
H -1.664465 1.401083 1.088102
O 1.111268 -1.182865 -0.487731
H 0.753617 -1.676183 -1.228549
H 1.606686 -1.801356 0.052748
6
Structure 834 | Energy: -10.139331 Hartree
O 1.162567 0.763149 1.035879
H 0.582111 1.511604 1.187447
H 2.063452 1.090650 1.071110
O -1.186940 -1.152848 -1.614553
H -0.863207 -0.585293 -2.316810
H -1.796733 -1.777334 -2.012370
6
Structure 835 | Energy: -10.139325 Hartree
O 0.580581 -1.194289 0.402403
H 1.482052 -1.496734 0.276055
H 0.624259 -0.272389 0.663714
O -1.299303 1.337593 -1.166140
H -0.811060 1.629421 -0.393779
H -2.073527 1.898824 -1.241550
6
Structure 836 | Energy: -10.139320 Hartree
O -0.506783 0.409280 1.954877
H -0.630645 1.053724 1.255280
H -1.252873 -0.192680 1.921927
O -1.335934 -0.462496 -0.710460
H -1.885212 0.100839 -0.161794
H -1.219724 -1.290580 -0.240502
6
Structure 837 | Energy: -10.139293 Hartree
O -0.544772 -1.158496 0.034321
H -0.820723 -0.293207 -0.274243
H 0.047136 -1.520753 -0.627877
O -1.580373 1.595780 0.533362
H -0.913234 2.252186 0.323255
H -2.014716 1.359073 -0.288468
6
Structure 838 | Energy: -10.139287 Hartree
O -0.719822 1.149232 -0.490199
H -0.973064 1.241399 -1.410775
H -0.783455 2.018504 -0.089691
O 1.636581 -0.411924 1.439485
H 1.974810 -1.309148 1.465502
H 2.230941 0.099802 0.887252
6
Structure 839 | Energy: -10.139283 Hartree
O 2.202819 0.702626 0.679362
H 2.619771 1.010079 1.486647
H 2.865215 0.215685 0.185186
O -1.236145 -0.759324 -0.407336
H -1.370509 -0.262980 -1.217074
H -2.061670 -1.204771 -0.206905
6
Structure 840 | Energy: -10.139277 Hartree
O -0.676274 -0.792715 1.722869
H -0.360621 -0.293245 2.478501
H -1.250212 -1.483912 2.058921
O -0.771181 0.867452 -1.293315
H 0.139025 1.092778 -1.495406
H -1.169717 1.636954 -0.882068
6
Structure 841 | Energy: -10.139249 Hartree
O 0.910788 -1.744302 0.880414
H 1.819772 -1.501664 1.067390
H 0.389532 -1.507551 1.650045
O 0.485001 0.926643 -1.478888
H 1.057562 1.659802 -1.712851
H -0.279572 1.294801 -1.031702
6
Structure 842 | Energy: -10.139242 Hartree
O 0.604293 0.775233 -1.283927
H 1.518823 0.509540 -1.398504
H 0.609114 1.680198 -0.965957
O -1.690356 -1.351972 0.922748
H -1.342942 -1.457450 1.810591
H -2.504282 -0.849449 0.994049
6
Structure 843 | Energy: -10.139241 Hartree
O -0.005949 1.745295 0.865248
H 0.751109 1.306577 1.258284
H -0.635613 1.910856 1.569665
O 1.772174 -0.435844 -1.190138
H 2.416210 -0.819138 -0.591482
H 1.518935 -1.121189 -1.811637
6
Structure 844 | Energy: -10.139231 Hartree
O -1.365005 -0.711262 -0.870373
H -2.073284 -0.113828 -1.118363
H -1.074634 -0.458400 0.008169
O 2.105879 -0.337165 -1.263490
H 3.055360 -0.375238 -1.132630
H 1.862359 0.589497 -1.309124
6
Structure 845 | Energy: -10.139216 Hartree
O 1.959006 0.268720 0.345013
H 2.563745 -0.454303 0.167207
H 2.409699 0.877897 0.933120
O -1.086681 -0.973785 -0.824189
H -1.294293 -0.462052 -1.608481
H -1.877093 -0.994613 -0.281138
6
Structure 846 | Energy: -10.139187 Hartree
O -0.109614 -0.694643 2.086043
H 0.579210 -0.062935 2.301804
H 0.323079 -1.519366 1.856480
O -1.110796 0.689296 -0.696241
H -2.051367 0.806326 -0.843609
H -0.692022 0.641741 -1.557899
6
Structure 847 | Energy: -10.139176 Hartree
O -1.340060 -1.535541 -0.381870
H -1.037257 -1.637500 0.522564
H -1.646002 -0.631608 -0.478794
O 1.205852 -0.002882 -0.996583
H 0.691699 0.424795 -0.308960
H 1.835800 -0.581222 -0.562098
6
Structure 848 | Energy: -10.139149 Hartree
O -1.007490 -1.256636 -1.327524
H -0.191559 -0.894110 -0.976928
H -1.377865 -0.600509 -1.921166
O -1.473954 0.330536 1.252526
H -0.699862 0.869855 1.079311
H -2.020334 0.810442 1.878023
6
Structure 849 | Energy: -10.139133 Hartree
O 0.643285 -1.973337 -1.461808
H 0.590040 -1.380578 -0.709553
H -0.248673 -2.269289 -1.653936
O -1.042085 1.191718 0.259354
H -0.623264 0.335987 0.147999
H -1.933327 1.119095 -0.087781
6
Structure 850 | Energy: -10.139128 Hartree
O -0.194768 1.861490 -0.601916
H -0.059446 2.438914 -1.355809
H -1.010420 1.380566 -0.755263
O 1.418094 -0.294971 2.081390
H 1.203234 -0.722064 2.912963
H 1.339880 -0.958233 1.392874
6
Structure 851 | Energy: -10.139124 Hartree
O -1.592043 -1.798262 0.450694
H -1.933072 -1.654273 1.335597
H -1.159578 -2.654452 0.448774
O 0.568699 1.153172 -0.021421
H 1.173108 0.955604 -0.739573
H 1.043679 1.700231 0.607236
6
Structure 852 | Energy: -10.139123 Hartree
O 0.845784 0.865716 -2.074671
H 0.705673 0.716048 -3.011717
H 0.631695 1.783997 -1.898560
O 0.996960 -0.112023 1.393837
H 1.231786 0.774932 1.673579
H 0.072186 -0.243238 1.612154
6
Structure 853 | Energy: -10.139121 Hartree
O -1.017938 -0.034400 0.568497
H -1.919121 0.141247 0.846171
H -0.739332 0.704540 0.024036
O 1.360749 1.448585 1.273204
H 1.369319 2.189152 1.882772
H 2.060406 1.598406 0.634360
6
Structure 854 | Energy: -10.139114 Hartree
O -0.964869 -1.181035 0.308099
H -1.260014 -1.493804 -0.549311
H -0.761906 -0.248105 0.215693
O 1.617250 -0.126309 1.366148
H 2.448717 -0.533374 1.617242
H 1.811366 0.773814 1.097474
6
Structure 855 | Energy: -10.139077 Hartree
O -1.767133 1.204385 -0.848725
H -1.577580 1.584248 -1.708876
H -2.686511 1.393492 -0.651052
O 0.985676 -0.840034 0.891799
H 1.407601 -1.495442 1.450824
H 1.306877 -0.979250 -0.001250
6
Structure 856 | Energy: -10.139076 Hartree
O 1.358978 0.489688 0.045803
H 0.836952 0.243906 -0.720464
H 0.983075 1.298889 0.397912
O -1.867992 0.865695 1.394068
H -1.192319 1.387366 0.956561
H -2.469471 0.553211 0.715345
6
Structure 857 | Energy: -10.139076 Hartree
O -0.153682 -1.735384 1.402618
H -0.985727 -2.169094 1.203413
H 0.184257 -2.126591 2.210607
O 0.664513 0.564166 -1.338052
H 0.464306 1.241670 -1.986892
H 0.662791 -0.278094 -1.797055
6
Structure 858 | Energy: -10.139075 Hartree
O -0.138842 -1.071125 1.520978
H 0.307390 -1.907708 1.666210
H -0.348288 -0.707420 2.383498
O -1.676648 0.710243 -1.150193
H -1.292151 1.244311 -1.848061
H -1.957685 1.309539 -0.455967
6
Structure 859 | Energy: -10.139068 Hartree
O 1.043250 0.964552 -0.277301
H 0.647154 0.095860 -0.369857
H 1.782656 1.006011 -0.886933
O -1.735224 -0.337693 1.653062
H -1.185039 -0.356802 0.867557
H -2.098597 -1.218092 1.766839
6
Structure 860 | Energy: -10.139045 Hartree
O 2.256984 -0.007688 0.301548
H 3.097646 -0.383279 0.032651
H 2.197918 -0.096905 1.254776
O -1.208702 0.379223 -0.996562
H -1.360508 1.308481 -1.179653
H -1.886434 0.096923 -0.379249
6
Structure 861 | Energy: -10.138999 Hartree
O 0.167140 -1.511810 -0.195550
H -0.593161 -1.803885 0.311125
H 0.759157 -2.262078 -0.277435
O 1.747462 0.846496 1.485943
H 1.001260 1.299934 1.883013
H 2.498882 1.440824 1.533163
6
Structure 862 | Energy: -10.138996 Hartree
O -0.490276 0.119297 -1.602816
H 0.143325 0.295495 -0.904539
H -1.244085 0.693483 -1.453909
O -1.034671 -1.977731 0.287220
H -0.545624 -1.699691 1.064146
H -1.018215 -2.936635 0.269323
6
Structure 863 | Energy: -10.138994 Hartree
O 1.428282 1.080557 1.486768
H 2.128273 1.165981 2.137000
H 1.003421 1.937339 1.412553
O 0.846462 -0.930025 -0.662257
H 1.125371 -1.807348 -0.392809
H -0.085115 -0.849865 -0.448188
6
Structure 864 | Energy: -10.138975 Hartree
O -0.832282 -0.058876 -1.433584
H -0.763303 -0.435686 -2.312983
H -1.730977 0.260377 -1.331039
O -1.297278 0.259039 1.801354
H -2.234375 0.315171 1.604418
H -1.143064 -0.596240 2.207317
6
Structure 865 | Energy: -10.138973 Hartree
O 1.958510 -1.311305 -0.430426
H 2.537827 -0.842096 -1.034016
H 1.652936 -2.098979 -0.884613
O 0.139469 1.454783 0.242215
H 0.602534 1.693346 -0.563233
H -0.780454 1.313879 0.009886
6
Structure 866 | Energy: -10.138963 Hartree
O 0.306714 0.428901 2.290483
H -0.172260 1.211086 2.009668
H 0.905436 0.191945 1.579516
O 0.569943 -0.264091 -1.305379
H 1.029973 -0.412791 -0.476918
H 0.469146 0.684267 -1.408075
6
Structure 867 | Energy: -10.138939 Hartree
O 0.575359 1.935697 1.341427
H -0.376215 1.940120 1.220708
H 0.766029 2.469777 2.115051
O 0.979526 -0.760507 -0.171856
H 0.776530 -1.588807 -0.610945
H 0.718658 -0.854405 0.746413
6
Structure 868 | Energy: -10.138928 Hartree
O -0.139594 1.629394 -0.614788
H -0.044167 0.676501 -0.560254
H -0.410096 1.836928 -1.511365
O -1.786347 0.343453 1.674697
H -0.940811 0.112027 1.285339
H -2.468512 0.049656 1.067719
6
Structure 869 | Energy: -10.138918 Hartree
O -1.735022 -0.651875 -0.177407
H -2.209901 0.062292 0.252175
H -2.375460 -1.153578 -0.685566
O 1.666625 0.657818 1.344684
H 2.594572 0.818903 1.526489
H 1.163565 1.311119 1.834803
6
Structure 870 | Energy: -10.138912 Hartree
O 2.016699 -0.057362 0.270841
H 2.229772 -0.009327 1.204853
H 2.407234 -0.865120 -0.068424
O -1.127535 -0.499194 1.357678
H -0.515091 -1.201111 1.586398
H -1.986322 -0.746880 1.705852
6
Structure 871 | Energy: -10.138901 Hartree
O 0.456551 1.640837 -1.106061
H 1.052696 2.282949 -1.496432
H -0.261206 1.504953 -1.727713
O 0.001006 -0.554679 0.742880
H 0.317549 0.030220 1.434097
H 0.363058 -1.425201 0.919512
6
Structure 872 | Energy: -10.138858 Hartree
O -2.449670 -0.006008 -0.411828
H -3.274569 -0.414657 -0.681333
H -2.524388 0.932535 -0.595255
O 0.849742 0.763601 -1.120083
H 1.802380 0.777862 -1.008886
H 0.526845 1.643705 -0.917001
6
Structure 873 | Energy: -10.138846 Hartree
O -0.271181 2.317302 -0.366000
H -0.190791 2.470212 0.577527
H 0.041680 3.108145 -0.809595
O -0.021807 -0.666221 0.449160
H 0.841790 -0.252457 0.504729
H 0.104023 -1.606459 0.591313
6
Structure 874 | Energy: -10.138835 Hartree
O -0.642454 1.797985 -1.566478
H -1.527514 2.167064 -1.543333
H -0.047439 2.503075 -1.828961
O -0.506212 -0.348931 1.116481
H -1.336528 -0.774264 1.339539
H 0.181776 -1.013396 1.188921
6
Structure 875 | Energy: -10.138791 Hartree
O 1.968987 -1.380010 0.070298
H 2.557296 -2.081848 -0.215014
H 2.349573 -0.551556 -0.227875
O -0.380211 0.124709 -0.436259
H -0.830428 0.965776 -0.536253
H -1.046775 -0.562755 -0.492609
6
Structure 876 | Energy: -10.138779 Hartree
O 0.417660 0.080991 2.181766
H 0.065587 0.970405 2.252990
H 1.340592 0.159938 1.932658
O 0.796398 -1.522573 -0.705077
H 1.711621 -1.792817 -0.608000
H 0.783166 -0.774984 -1.305928
6
Structure 877 | Energy: -10.138779 Hartree
O 0.445072 0.889688 -0.093246
H -0.022359 0.525626 -0.847602
H 1.348976 1.051732 -0.370358
O -0.000342 -1.634567 1.363083
H -0.091830 -2.469485 1.826363
H 0.911419 -1.569469 1.072321
6
Structure 878 | Energy: -10.138778 Hartree
O -1.279032 1.892686 -0.118118
H -1.809005 1.966676 0.677960
H -0.609122 2.578040 -0.078098
O 0.920619 -0.424266 0.834684
H 1.758471 -0.878544 0.942955
H 0.640644 -0.133469 1.704821
6
Structure 879 | Energy: -10.138772 Hartree
O -2.079277 -0.336047 -1.267505
H -2.072349 0.204070 -2.060167
H -2.571769 -1.133508 -1.471462
O 0.503140 1.498544 0.172661
H 0.017682 2.317250 0.053759
H 1.233831 1.685095 0.765433
6
Structure 880 | Energy: -10.138740 Hartree
O -0.016850 0.606506 -2.212614
H 0.710221 1.209920 -2.377977
H -0.761558 0.908809 -2.736174
O -0.932291 -1.314476 1.015775
H -1.516389 -1.072567 1.737160
H -0.327742 -1.979668 1.350633
6
Structure 881 | Energy: -10.138735 Hartree
O 1.496013 0.467898 0.382934
H 1.853157 0.894083 -0.398667
H 2.225255 0.333295 0.991357
O 0.936576 -2.136656 0.017218
H 1.039157 -2.044832 -0.932062
H 0.047637 -2.459712 0.176937
6
Structure 882 | Energy: -10.138727 Hartree
O 1.013616 -0.751558 0.790406
H 0.241946 -1.186861 0.422813
H 1.774163 -1.297473 0.581515
O 1.559801 0.133017 -1.627254
H 1.214095 0.990362 -1.883249
H 1.481841 -0.443865 -2.389631
6
Structure 883 | Energy: -10.138700 Hartree
O 0.728769 -0.484650 0.536635
H 0.464165 -1.336029 0.890508
H 0.944475 -0.616273 -0.388695
O 0.501921 1.951557 -0.940333
H 1.065897 1.775605 -1.696019
H 0.849595 2.730523 -0.501673
6
Structure 884 | Energy: -10.138654 Hartree
O 0.187991 -0.181012 -1.508183
H 0.862537 -0.078580 -2.182409
H -0.584241 0.305820 -1.802704
O 0.798249 0.292854 1.819062
H 0.662575 -0.367078 2.501828
H 0.249877 1.047953 2.040871
6
Structure 885 | Energy: -10.138630 Hartree
O -0.666788 -2.061668 -0.134896
H -1.459850 -1.526661 -0.064846
H -0.933544 -2.978426 -0.042780
O 1.734180 0.607462 0.670803
H 0.937146 1.139449 0.713390
H 2.458189 1.155227 0.980401
6
Structure 886 | Energy: -10.138619 Hartree
O 0.730890 0.803591 -0.119604
H 0.622953 1.745294 -0.266679
H 0.845821 0.674795 0.823950
O -1.807056 -1.096589 0.196714
H -1.866517 -0.265380 0.671735
H -2.673742 -1.506159 0.231310
6
Structure 887 | Energy: -10.138603 Hartree
O 0.301844 0.941098 0.970906
H -0.110257 1.724088 1.341292
H 1.117362 1.221130 0.550665
O 1.254073 -2.172401 -0.103867
H 2.202469 -2.109862 -0.233173
H 0.857878 -2.305936 -0.967167
6
Structure 888 | Energy: -10.138581 Hartree
O 1.208477 -0.535236 -1.269335
H 1.490820 -0.699627 -2.171191
H 0.264295 -0.367799 -1.293334
O 0.504604 1.122513 1.581625
H 0.705569 1.192072 2.516965
H -0.450138 1.082008 1.498464
6
Structure 889 | Energy: -10.138573 Hartree
O 0.499046 -0.331750 -0.905371
H 0.324081 -1.274266 -0.939088
H 0.345269 0.017364 -1.785463
O -0.818889 1.870054 1.066385
H -1.392447 2.630927 1.176791
H -0.335706 1.757068 1.887272
6
Structure 890 | Energy: -10.138568 Hartree
O -2.028557 -0.213444 1.378187
H -1.579103 -0.373431 2.210341
H -2.916697 -0.565798 1.462715
O 0.144960 0.235786 -0.379382
H 0.796743 -0.467457 -0.352628
H -0.470493 0.025990 -1.084572
6
Structure 891 | Energy: -10.138545 Hartree
O 1.357045 1.036317 -0.714509
H 0.756360 1.319445 -1.406680
H 1.208530 0.098935 -0.575413
O 0.419603 1.396102 2.068622
H -0.365730 1.729156 1.629973
H 0.439085 0.446589 1.933963
6
Structure 892 | Energy: -10.138520 Hartree
O -0.741326 0.589996 1.330463
H 0.130868 0.898139 1.076667
H -1.224174 1.348201 1.665236
O -0.464909 -1.765177 -0.914897
H -0.777061 -2.633085 -0.651488
H -0.077447 -1.855491 -1.787712
6
Structure 893 | Energy: -10.138468 Hartree
O -1.089769 1.336286 1.244185
H -1.381629 2.045851 1.819877
H -0.691925 1.742651 0.471736
O 1.365199 0.359643 0.642548
H 1.691936 1.200187 0.969373
H 1.932998 -0.324921 1.001805
6
Structure 894 | Energy: -10.138460 Hartree
O -0.883192 1.198683 -0.507766
H -1.200389 1.744876 0.214138
H -1.124708 0.292614 -0.305780
O 1.566718 1.067895 -1.473801
H 1.670110 0.116931 -1.544966
H 1.303619 1.258267 -0.571235
6
Structure 895 | Energy: -10.138455 Hartree
O 1.902482 0.500292 -0.925981
H 2.488436 -0.185628 -0.600009
H 2.362952 0.954142 -1.634555
O -0.532211 -1.190291 0.236994
H -0.700764 -1.655226 1.058890
H -1.380550 -1.045607 -0.186652
6
Structure 896 | Energy: -10.138446 Hartree
O -0.847440 0.274111 -0.567443
H -1.494110 -0.250446 -0.091265
H -0.945005 1.181604 -0.272440
O 1.263343 -0.392239 1.650040
H 2.010604 -0.666800 2.185113
H 0.604558 -0.030868 2.246280
6
Structure 897 | Energy: -10.138428 Hartree
O 0.794475 -1.875224 1.184560
H 1.139557 -1.131334 1.682186
H 1.389006 -2.023624 0.446588
O 0.523544 0.050272 -0.497743
H 1.360609 0.160334 -0.953042
H -0.060464 0.746557 -0.804680
6
Structure 898 | Energy: -10.138353 Hartree
O -2.037868 0.543151 0.636242
H -1.984627 0.358460 1.575998
H -2.170854 -0.294995 0.189122
O 0.159003 -1.693125 -0.913605
H 0.340731 -2.575356 -0.583863
H -0.766821 -1.510644 -0.741445
6
Structure 899 | Energy: -10.138336 Hartree
O 0.231376 -0.115341 -0.251181
H 0.767329 -0.739377 0.242195
H 0.134138 -0.464415 -1.139316
O -0.787359 0.134778 2.185389
H -1.013755 -0.786331 2.042597
H -1.599219 0.640892 2.115966
6
Structure 900 | Energy: -10.138302 Hartree
O -1.217379 -1.885908 0.315949
H -2.145451 -1.947676 0.081527
H -0.909587 -2.776698 0.494410
O -0.772718 0.769141 -0.533190
H -0.496647 1.687728 -0.524818
H -0.204651 0.307445 -1.153048
6
Structure 901 | Energy: -10.138292 Hartree
O -0.470103 -1.117588 -0.575231
H 0.344108 -1.508722 -0.897969
H -1.100009 -1.135522 -1.298410
O -2.188664 0.686903 0.358834
H -1.878353 1.470275 -0.099559
H -2.172089 0.881990 1.297852
6
Structure 902 | Energy: -10.138284 Hartree
O 0.336117 0.538082 -2.044604
H -0.566437 0.798898 -2.238144
H 0.492655 -0.296273 -2.491189
O -0.357395 -1.152186 0.000249
H -0.060480 -1.919008 -0.493627
H -0.480458 -1.430404 0.909940
6
Structure 903 | Energy: -10.138259 Hartree
O 1.167043 -1.110816 -0.500155
H 1.512006 -0.747126 -1.317966
H 1.698056 -0.755201 0.215144
O -1.437761 -0.750168 -1.591491
H -1.255696 0.186065 -1.489473
H -2.272101 -0.926789 -1.152434
6
Structure 904 | Energy: -10.138219 Hartree
O -0.555008 -0.705169 -0.407955
H -1.228954 -0.902871 -1.061252
H -0.925605 -0.908769 0.453031
O 1.906322 1.125966 1.011710
H 1.581696 0.688753 1.801362
H 2.099039 2.035098 1.249251
6
Structure 905 | Energy: -10.138214 Hartree
O 1.051106 -1.402895 0.545195
H 1.848771 -0.928991 0.788568
H 1.164808 -2.313165 0.825502
O -1.121413 0.345782 -1.586334
H -1.982740 -0.073270 -1.637307
H -1.243001 1.272257 -1.803013
6
Structure 906 | Energy: -10.138188 Hartree
O 1.260636 -0.411553 -0.216388
H 1.925889 -0.618184 -0.875803
H 1.046952 -1.229159 0.237431
O -0.662633 1.681321 1.597545
H -1.490921 1.352395 1.242813
H -0.843726 2.016205 2.477969
6
Structure 907 | Energy: -10.138175 Hartree
O -0.276063 -1.583270 -0.399679
H -0.293903 -1.679688 0.554507
H 0.641541 -1.474452 -0.657075
O 1.038828 -0.120703 -2.250299
H 1.004185 0.747976 -2.655618
H 1.964458 -0.356446 -2.162418
6
Structure 908 | Energy: -10.138088 Hartree
O -0.143724 -0.357287 -1.413276
H 0.108318 0.495649 -1.772527
H 0.080826 -1.019603 -2.069786
O -1.336297 0.656769 1.493154
H -1.186545 1.200185 2.269273
H -2.271941 0.446755 1.469664
6
Structure 909 | Energy: -10.138051 Hartree
O -1.030692 -1.510120 -0.493334
H -0.945683 -2.430252 -0.236007
H -1.759238 -1.455129 -1.114855
O -2.160491 0.955943 0.665872
H -2.820115 1.533751 0.277129
H -1.717147 1.454285 1.355212
6
Structure 910 | Energy: -10.138027 Hartree
O -1.221791 0.718278 0.623116
H -1.674907 1.285106 1.250394
H -1.889693 0.340978 0.047233
O 1.978307 -0.326777 -0.346551
H 1.874369 -0.361624 -1.299478
H 2.910438 -0.451535 -0.157728
6
Structure 911 | Energy: -10.137975 Hartree
O -0.477606 0.750415 0.392414
H -1.022312 0.272766 1.021089
H -0.051352 1.464292 0.870721
O 0.988781 -1.512842 -1.596077
H 1.902002 -1.653631 -1.853551
H 0.701145 -2.299171 -1.128059
6
Structure 912 | Energy: -10.137932 Hartree
O 0.453766 0.683217 0.359372
H 0.138379 -0.190389 0.119729
H 0.325599 0.782018 1.304836
O -0.253089 1.121098 -1.949526
H 0.279025 1.918125 -1.908397
H 0.215519 0.495050 -2.505005
6
Structure 913 | Energy: -10.137923 Hartree
O -0.067829 0.987183 0.433817
H 0.684541 0.532522 0.050008
H 0.255952 1.811822 0.801548
O -0.918072 -1.198171 -1.076502
H -1.754664 -1.293289 -1.536017
H -0.266715 -0.925721 -1.725805
6
Structure 914 | Energy: -10.137919 Hartree
O 0.114840 -0.487923 -0.858066
H 0.023082 0.439542 -1.084944
H -0.624171 -0.716016 -0.290679
O 1.586873 0.172218 1.141014
H 1.575466 0.953190 0.584201
H 2.505497 -0.026914 1.332236
6
Structure 915 | Energy: -10.137892 Hartree
O 0.684805 2.221332 0.061663
H 1.584186 2.553295 0.030022
H 0.190775 2.795152 0.650523
O 0.476213 -0.179972 -2.094382
H -0.317501 -0.095287 -2.626297
H 0.715117 -1.108924 -2.086521
6
Structure 916 | Energy: -10.137863 Hartree
O 0.436287 -1.463116 0.268540
H 0.384247 -2.405791 0.438072
H 1.322258 -1.280356 -0.050436
O 0.447321 1.080711 -1.638385
H 0.144360 1.496233 -2.448104
H 1.276831 0.642062 -1.837351
6
Structure 917 | Energy: -10.137852 Hartree
O -0.583779 0.242877 -0.388904
H -1.382373 0.707793 -0.646173
H 0.149721 0.848591 -0.512113
O -0.758980 -1.110657 2.041219
H -1.598513 -1.480398 1.760926
H -0.341383 -1.756489 2.614457
6
Structure 918 | Energy: -10.137851 Hartree
O 1.866914 -0.182002 1.102666
H 2.357254 -0.927196 0.750049
H 2.472065 0.560920 1.146834
O -0.431481 0.351023 -0.118718
H -0.119254 1.236111 0.079322
H -1.318669 0.276281 0.238212
6
Structure 919 | Energy: -10.137831 Hartree
O -1.470715 1.058836 0.822485
H -2.118766 0.592522 1.354149
H -1.664370 1.995460 0.895459
O -0.813125 -1.212943 -0.495283
H 0.027405 -1.497659 -0.131233
H -0.746339 -1.279351 -1.449860
6
Structure 920 | Energy: -10.137819 Hartree
O -0.923552 1.547397 0.381918
H -1.678514 1.766875 -0.167581
H -0.198761 2.112738 0.107769
O -1.898418 -1.314780 -0.304482
H -2.717718 -1.073857 -0.741279
H -1.356026 -1.771903 -0.950189
6
Structure 921 | Energy: -10.137756 Hartree
O -0.471260 -1.454649 0.226125
H 0.134918 -2.042928 -0.228367
H -1.206047 -1.987852 0.535759
O -0.207161 0.407031 -2.121648
H 0.344159 0.093269 -2.841153
H -1.113191 0.405655 -2.436600
6
Structure 922 | Energy: -10.137746 Hartree
O 1.938915 0.652205 0.331429
H 2.601299 1.003619 -0.266769
H 2.361168 -0.034782 0.850893
O -0.773145 -0.152948 -0.574362
H -1.271006 0.663770 -0.502286
H -1.274994 -0.742512 -1.140621
6
Structure 923 | Energy: -10.137730 Hartree
O -1.208023 -0.441764 -0.636487
H -1.366297 -0.383581 -1.580759
H -2.005728 -0.142518 -0.195795
O -0.364947 0.156622 2.181126
H -0.500225 1.104811 2.233331
H -1.177823 -0.262624 2.470181
6
Structure 924 | Energy: -10.137699 Hartree
O 1.125455 0.153345 -0.557964
H 1.850195 -0.369935 -0.210091
H 0.997918 0.893799 0.038319
O -1.415329 0.750529 -1.870902
H -1.844244 1.446450 -2.372711
H -1.161084 1.125391 -1.025369
6
Structure 925 | Energy: -10.137580 Hartree
O -0.048130 -0.585486 1.677419
H -0.799294 -1.174997 1.586226
H 0.284165 -0.685054 2.571710
O 2.316082 0.452194 -0.152774
H 2.878826 1.136205 -0.520926
H 2.514986 -0.361415 -0.620284
6
Structure 926 | Energy: -10.137564 Hartree
O -0.296760 -0.414282 0.138402
H 0.464235 -0.494868 0.716742
H -0.157275 0.361552 -0.408148
O -2.141828 0.088320 -1.256787
H -2.247055 -0.861457 -1.173486
H -2.708233 0.374879 -1.975924
6
Structure 927 | Energy: -10.137475 Hartree
O -0.033827 -0.823581 -1.031756
H -0.161044 -1.476857 -1.722505
H 0.683486 -0.251142 -1.310801
O -1.402923 1.009947 1.191987
H -1.017823 1.373881 1.991573
H -1.802034 1.738220 0.711969
6
Structure 928 | Energy: -10.137471 Hartree
O -0.639496 0.072478 -0.492881
H -0.075760 0.097209 0.282797
H -0.909654 -0.839260 -0.618732
O 2.032776 0.442767 -1.178459
H 2.707454 0.467149 -0.497062
H 1.637487 -0.430912 -1.155677
6
Structure 929 | Energy: -10.137458 Hartree
O -1.107162 -1.151086 0.971715
H -1.446687 -1.936454 1.405311
H -0.150172 -1.216290 0.974591
O -1.319447 0.184954 -1.822134
H -1.418505 -0.542323 -2.439664
H -0.642809 0.766501 -2.174346
6
Structure 930 | Energy: -10.137415 Hartree
O 0.350192 1.225952 -0.439439
H -0.597167 1.130538 -0.555601
H 0.683414 1.702088 -1.202556
O 1.623285 -1.142985 0.143608
H 2.035190 -0.881964 -0.682401
H 2.289090 -1.600277 0.660982
6
Structure 931 | Energy: -10.137367 Hartree
O 1.236498 -1.199044 1.441617
H 2.191634 -1.204010 1.529803
H 0.892301 -0.607008 2.113266
O -0.332318 0.020699 -0.421360
H 0.538396 0.334147 -0.673741
H -0.974226 0.551857 -0.896662
6
Structure 932 | Energy: -10.137297 Hartree
O 1.533875 -1.111725 -1.330979
H 0.775318 -0.541780 -1.471837
H 2.193528 -0.596140 -0.862877
O 0.468778 0.007740 0.579697
H 0.854323 -0.693590 1.108449
H 1.070623 0.753807 0.615120
6
Structure 933 | Energy: -10.137297 Hartree
O 1.566943 -0.907012 0.684943
H 2.307517 -0.454435 1.093367
H 0.810900 -0.318994 0.737138
O -1.031249 -1.709123 1.568576
H -1.779048 -1.854169 0.985614
H -1.079140 -0.800176 1.871247
6
Structure 934 | Energy: -10.137270 Hartree
O -0.303433 -0.017604 -1.838495
H 0.255229 0.443968 -2.466933
H -1.103574 -0.271416 -2.302655
O 0.400360 2.028663 0.032769
H 1.054565 2.708991 -0.138274
H 0.091484 2.151398 0.932558
6
Structure 935 | Energy: -10.137231 Hartree
O 0.318359 0.642996 0.470235
H -0.633283 0.640775 0.590485
H 0.499682 1.102238 -0.352145
O 1.751264 -1.298415 -0.713036
H 1.907449 -1.425747 -1.650842
H 2.436117 -1.778395 -0.243268
6
Structure 936 | Energy: -10.137206 Hartree
O -0.406748 -0.815396 -1.879895
H 0.333579 -1.373040 -1.632842
H -1.004644 -1.352513 -2.403456
O -0.907176 0.614346 0.081020
H -0.876051 1.204394 -0.674600
H -0.990730 1.160821 0.864902
6
Structure 937 | Energy: -10.137184 Hartree
O 1.707701 -0.195801 1.307317
H 2.321271 0.461970 0.974216
H 2.202160 -0.776850 1.888680
O -0.273649 -1.477579 0.099845
H -0.895490 -0.856171 0.483581
H -0.621029 -2.358417 0.253269
6
Structure 938 | Energy: -10.137139 Hartree
O -1.596344 -1.258013 0.273971
H -2.371328 -1.519945 0.774847
H -1.581779 -1.788649 -0.524968
O 0.731562 -0.590909 1.573857
H 0.834222 -1.510273 1.320250
H 0.829953 -0.546472 2.526975
6
Structure 939 | Energy: -10.137137 Hartree
O 0.298612 -0.138599 1.697222
H -0.229393 0.588782 1.362238
H 1.217498 0.132788 1.651519
O -0.270737 -1.962041 0.122452
H -0.409274 -2.515040 -0.648967
H -0.200473 -2.545002 0.880942
6
Structure 940 | Energy: -10.137128 Hartree
O 0.568169 -0.453809 -0.428414
H 1.015890 -0.245878 -1.250848
H -0.354554 -0.609909 -0.638906
O -0.093461 0.881224 1.875364
H -0.699200 0.532463 1.218452
H -0.126428 1.837818 1.812673
6
Structure 941 | Energy: -10.137109 Hartree
O 0.163222 -0.169458 -0.305658
H -0.765347 0.064249 -0.248848
H 0.526596 0.292704 -1.063588
O 0.039298 -0.113881 2.444919
H 0.048395 -0.490972 3.326853
H 0.211859 0.825299 2.535761
6
Structure 942 | Energy: -10.137095 Hartree
O -1.327326 -0.146493 -0.976758
H -2.152406 0.075412 -1.412748
H -1.084810 -1.030104 -1.260498
O -0.655578 1.738937 1.077256
H -0.202329 2.580523 1.157163
H -0.269899 1.145953 1.725105
6
Structure 943 | Energy: -10.137072 Hartree
O -1.387477 1.370769 -0.373367
H -1.610189 1.998341 0.317023
H -1.259015 0.518679 0.047978
O 1.194708 1.472057 -1.307848
H 1.964832 0.901349 -1.343757
H 0.968322 1.585782 -0.382698
6
Structure 944 | Energy: -10.137068 Hartree
O 0.744238 0.641438 1.288628
H 1.288704 -0.143677 1.203551
H -0.171260 0.356089 1.265597
O -0.818643 2.008209 0.072789
H -0.886112 2.171435 -0.870022
H -0.782812 2.862686 0.507156
6
Structure 945 | Energy: -10.137056 Hartree
O -0.308249 -0.062776 -1.357737
H 0.362681 -0.125989 -2.040337
H -0.313779 -0.898315 -0.886637
O -2.076077 0.084399 0.962944
H -2.904217 0.360488 1.360495
H -2.012314 -0.866591 1.070836
6
Structure 946 | Energy: -10.137045 Hartree
O 0.595086 -0.912992 -2.311074
H 1.187876 -1.159531 -1.598400
H 0.204871 -0.068655 -2.076728
O -1.032898 -1.596615 -0.368013
H -1.291893 -0.677229 -0.455976
H -1.083947 -1.818201 0.563857
6
Structure 947 | Energy: -10.137012 Hartree
O 0.820301 -1.797323 -0.008735
H 0.723500 -1.979611 0.928008
H 0.807459 -2.640926 -0.465090
O -0.536847 0.832433 -0.469763
H -1.427530 0.979975 -0.793801
H -0.499794 1.175240 0.425335
6
Structure 948 | Energy: -10.136925 Hartree
O 0.124800 0.783857 -0.741583
H -0.311253 1.627788 -0.874713
H 0.062827 0.298806 -1.566795
O 1.966801 -0.447745 0.198245
H 2.920621 -0.428261 0.297925
H 1.623679 0.357461 0.590672
6
Structure 949 | Energy: -10.136924 Hartree
O 0.369902 -0.167684 -0.212930
H 0.706693 -0.918809 0.279481
H 0.506309 0.611703 0.329325
O -1.733105 1.195350 -0.191051
H -2.302084 1.917312 0.083033
H -2.152561 0.380206 0.091236
6
Structure 950 | Energy: -10.136761 Hartree
O -1.810802 0.675282 0.750070
H -2.201922 0.421516 1.588350
H -2.367094 0.315282 0.056508
O 1.141026 0.921357 1.095793
H 2.061671 1.054737 0.861892
H 1.120865 0.302681 1.828542
6
Structure 951 | Energy: -10.136658 Hartree
O -1.163997 -1.313545 1.683211
H -1.867663 -1.943751 1.849886
H -1.567204 -0.532636 1.298899
O 0.726153 -0.480319 0.230253
H 1.158550 -1.226977 -0.188819
H 1.363321 0.236008 0.261581
6
Structure 952 | Energy: -10.136430 Hartree
O -1.452369 -0.232723 -0.627917
H -1.750405 -0.965713 -0.085712
H -0.715682 -0.549768 -1.154097
O -0.856581 2.383125 0.106947
H 0.088688 2.538851 0.058962
H -1.107180 2.439379 1.031135
6
Structure 953 | Energy: -10.136333 Hartree
O -2.115680 0.576924 -0.630389
H -2.240775 1.498382 -0.865660
H -2.790157 0.354270 0.014279
O -0.462888 -0.248047 1.167514
H 0.274676 -0.851713 1.275563
H -1.261139 -0.732840 1.386279
6
Structure 954 | Energy: -10.136291 Hartree
O -0.513007 -0.770045 0.130831
H -0.344761 -1.122597 1.006894
H -1.429990 -0.957224 -0.079401
O 1.314234 0.879870 -0.973166
H 2.028583 1.467227 -0.718596
H 1.699621 0.173645 -1.495479
6
Structure 955 | Energy: -10.136205 Hartree
O -0.273397 2.173607 -0.565882
H 0.471293 2.746756 -0.758297
H -0.697884 1.969252 -1.401430
O -0.269868 -0.079709 0.513004
H -0.342954 -0.976576 0.180776
H -1.157491 0.281733 0.552669
6
Structure 956 | Energy: -10.136204 Hartree
O 0.074700 -0.671690 -0.040804
H -0.487389 -0.664978 -0.818041
H -0.454722 -0.358777 0.695327
O 0.621202 1.651953 0.632365
H 0.802393 1.505561 -0.298133
H -0.219459 2.110349 0.689372
6
Structure 957 | Energy: -10.136034 Hartree
O 2.090719 -0.084603 0.422861
H 1.679404 0.699505 0.053970
H 2.328381 0.119144 1.329555
O -0.194415 -0.438766 1.881227
H 0.242322 -0.522398 2.731141
H 0.236819 0.276445 1.409424
6
Structure 958 | Energy: -10.135951 Hartree
O -0.069777 -0.608667 -0.121842
H -0.698077 -1.168596 -0.582064
H 0.378819 -0.080375 -0.784985
O 1.941655 1.322605 0.146232
H 2.773135 1.733863 0.390354
H 1.945460 1.218393 -0.807295
6
Structure 959 | Energy: -10.135925 Hartree
O -0.190209 0.839349 0.172000
H -0.769392 1.581227 0.357070
H 0.484537 1.150223 -0.434767
O -0.328247 -0.779740 -2.097580
H -0.007920 0.104694 -2.285345
H 0.051953 -1.365181 -2.755451
6
Structure 960 | Energy: -10.135880 Hartree
O -0.549375 0.484236 -0.304484
H -1.116876 0.067424 -0.955864
H 0.354447 0.384632 -0.609895
O -2.036490 -0.872621 0.994878
H -2.368920 -1.754420 1.173791
H -1.888346 -0.447612 1.841937
6
Structure 961 | Energy: -10.135803 Hartree
O -1.533473 -1.290941 0.679105
H -1.914957 -2.070440 0.270526
H -1.331891 -1.517097 1.589219
O -1.374837 1.204063 -0.421852
H -1.647225 1.752098 0.316762
H -0.722057 1.701076 -0.918786
6
Structure 962 | Energy: -10.135640 Hartree
O 1.341011 -0.817825 0.540686
H 0.389578 -0.939710 0.538349
H 1.723224 -1.574547 0.989433
O 1.155049 -1.369342 -1.705363
H 2.036619 -1.545375 -1.370797
H 1.140598 -0.457182 -2.001749
6
Structure 963 | Energy: -10.135569 Hartree
O 1.735014 -0.106399 0.938774
H 2.002890 0.696515 0.487490
H 2.530173 -0.516896 1.284179
O -0.592726 0.099267 -0.398955
H -1.529324 0.226375 -0.235511
H -0.433619 0.312936 -1.320431
6
Structure 964 | Energy: -10.135482 Hartree
O -0.108382 -1.275637 1.583969
H 0.012635 -0.693954 2.337020
H 0.015254 -2.174111 1.896297
O -1.293578 0.428850 -0.051332
H -1.876361 -0.036072 -0.654903
H -1.527001 1.358401 -0.090537
6
Structure 965 | Energy: -10.135402 Hartree
O -0.085877 -0.371346 -0.014281
H 0.087367 -0.611113 0.898180
H -1.005454 -0.577936 -0.192576
O 1.587968 1.412569 0.635572
H 2.186902 1.732452 1.313098
H 0.723387 1.783545 0.822558
6
Structure 966 | Energy: -10.135357 Hartree
O -1.378550 0.696987 -1.392755
H -0.752987 0.958549 -2.071239
H -2.250913 0.956860 -1.695311
O -1.310688 -0.459032 0.744987
H -2.256082 -0.543621 0.606560
H -1.157206 0.401959 1.138973
6
Structure 967 | Energy: -10.135264 Hartree
O -0.430019 -1.190488 -1.008093
H -0.088991 -1.633739 -1.787397
H -1.165084 -0.643220 -1.291409
O -1.975683 0.070134 0.676084
H -1.982535 1.028481 0.716242
H -2.804751 -0.203457 0.278739
6
Structure 968 | Energy: -10.135158 Hartree
O 0.757430 0.485878 0.332828
H 0.587986 0.317010 1.261730
H 1.490806 -0.074409 0.071430
O -0.133465 -1.018385 -1.702891
H 0.555975 -1.501808 -1.243476
H -0.874704 -1.617055 -1.813558
6
Structure 969 | Energy: -10.135045 Hartree
O 0.812556 -1.141581 0.392843
H 0.130595 -0.785540 -0.180088
H 1.656589 -0.968815 -0.028882
O 0.373577 1.057362 1.574441
H 0.009112 1.654392 0.918082
H 1.070885 1.530476 2.032712
6
Structure 970 | Energy: -10.135018 Hartree
O -0.899455 0.938365 0.307054
H -1.846118 0.939262 0.461697
H -0.760123 1.206002 -0.603466
O 1.531554 0.964767 1.343844
H 1.828843 1.076805 0.438773
H 2.163325 1.414815 1.908122
6
Structure 971 | Energy: -10.134961 Hartree
O 0.618355 -0.633080 -0.101606
H 0.071243 -0.908196 -0.839892
H 0.605632 -1.344295 0.541902
O -1.076846 1.025547 0.969731
H -1.951657 1.297879 0.685781
H -1.153447 0.130986 1.307340
6
Structure 972 | Energy: -10.134882 Hartree
O 1.097602 0.024248 -0.133357
H 1.145293 -0.763010 0.412570
H 1.986124 0.380008 -0.197037
O -1.191564 0.052310 0.881555
H -0.455453 0.476088 1.327246
H -1.454679 -0.697964 1.418163
6
Structure 973 | Energy: -10.134850 Hartree
O -1.017658 0.963334 1.724166
H -1.304701 1.545410 1.017852
H -0.100081 1.172614 1.909492
O -1.516814 -0.028241 -0.392813
H -2.142986 0.249478 -1.064280
H -1.203163 -0.900310 -0.640211
6
Structure 974 | Energy: -10.134819 Hartree
O 0.195694 2.288964 0.464756
H -0.432390 3.013915 0.458278
H 0.042727 1.773498 -0.329591
O -0.218716 0.430131 1.933947
H 0.728154 0.409535 2.085936
H -0.441036 -0.349108 1.420675
6
Structure 975 | Energy: -10.134289 Hartree
O -0.470689 -0.126509 -0.030845
H 0.405710 0.028157 -0.388740
H -1.073545 0.459601 -0.492507
O -0.403846 1.590117 1.873199
H -0.680208 2.114738 1.119220
H 0.198605 2.129554 2.389096
6
Structure 976 | Energy: -10.134252 Hartree
O 1.652851 -1.678123 -0.784454
H 2.371122 -1.293694 -1.290802
H 1.283235 -2.389689 -1.310903
O 1.312583 0.561337 0.070469
H 1.099861 1.159952 -0.648208
H 0.570385 0.571830 0.678021
6
Structure 977 | Energy: -10.133336 Hartree
O -0.876868 1.687997 -0.100567
H -0.730310 1.657794 -1.048035
H -1.431213 2.450414 0.076953
O -2.263362 -0.264279 0.619036
H -2.972997 -0.209943 1.262117
H -2.667457 -0.413984 -0.237926
6
Structure 978 | Energy: -10.132980 Hartree
O -0.741689 0.520106 0.135340
H 0.208908 0.456175 0.246537
H -1.136984 0.412929 1.002719
O -0.140151 1.442647 -1.915612
H 0.569254 1.821064 -2.438711
H -0.572879 2.166218 -1.458142
6
Structure 979 | Energy: -10.132871 Hartree
O 1.034234 1.653540 -0.309559
H 1.206353 2.482278 -0.760841
H 1.841668 1.137027 -0.346374
O 0.048594 -0.453428 0.393725
H 0.095347 -0.732883 -0.522685
H 0.798556 -0.842446 0.847939
6
Structure 980 | Energy: -10.132170 Hartree
O 1.724572 -1.537796 0.863962
H 0.944753 -1.212656 1.318113
H 1.925303 -2.402383 1.227675
O 2.005564 0.585273 -0.207566
H 1.513738 1.058518 -0.881534
H 2.442344 1.241598 0.338829
6
Structure 981 | Energy: -10.131644 Hartree
O 1.114010 0.502570 0.383377
H 1.251609 1.380351 0.744838
H 0.376165 0.112982 0.856553
O 1.099085 -1.389769 -1.049638
H 0.938414 -2.253373 -0.664334
H 0.248966 -1.036032 -1.318442
6
Structure 982 | Energy: -10.131525 Hartree
O -1.731905 0.338865 -1.501561
H -0.943723 0.841733 -1.287137
H -2.463001 0.741296 -1.028657
O -1.685226 -0.784549 0.489644
H -1.425716 -1.701391 0.599838
H -2.641524 -0.750077 0.555924
6
Structure 983 | Energy: -10.131490 Hartree
O -0.255666 -0.463049 0.208772
H 0.467060 -0.120123 -0.320524
H -0.653006 -1.182818 -0.285337
O 0.690724 -0.949558 2.234292
H -0.200676 -0.608273 2.329258
H 0.655983 -1.659412 1.590096
6
Structure 984 | Energy: -10.131470 Hartree
O 0.256299 -0.218586 0.157336
H -0.495041 0.135181 -0.322688
H 0.984051 0.394765 0.037884
O -1.160674 -0.711980 1.972529
H -1.148279 0.188075 1.641116
H -1.277027 -1.291322 1.216941
6
Structure 985 | Energy: -10.131272 Hartree
O -1.660894 -1.213131 -0.328620
H -1.997938 -2.104927 -0.434391
H -2.168832 -0.798688 0.371613
O 0.425224 -1.540515 -1.142114
H 0.270686 -0.853674 -1.793616
H 1.374812 -1.618237 -1.031078
6
Structure 986 | Energy: -10.130530 Hartree
O -1.183974 0.790554 -0.906540
H -0.537765 1.086634 -0.262461
H -1.053575 1.312807 -1.700479
O -1.688031 -0.145320 1.059589
H -1.313672 -1.025847 1.127535
H -2.499699 -0.141521 1.570734
6
Structure 987 | Energy: -10.129642 Hartree
O -1.284498 -1.010267 -1.175435
H -1.737858 -1.690683 -0.673853
H -1.891714 -0.703843 -1.851810
O 0.893011 -1.528499 -0.897072
H 1.810278 -1.435440 -1.161740
H 0.839965 -1.293169 0.031311
6
Structure 988 | Energy: -10.129426 Hartree
O -0.675318 0.254827 -0.344311
H -0.137728 -0.312250 0.212022
H -0.112455 0.574378 -1.052240
O -0.266442 2.153638 0.826034
H -0.981056 2.583901 1.299624
H 0.359442 1.838771 1.481179
6
Structure 989 | Energy: -10.129184 Hartree
O -0.712030 -0.185158 -0.822689
H -1.099544 0.690805 -0.771627
H -1.203282 -0.674909 -1.485189
O 0.728562 -1.873690 -0.679671
H 1.035528 -2.746771 -0.427506
H 1.417688 -1.473526 -1.213583
6
Structure 990 | Energy: -10.129057 Hartree
O -0.724637 0.100425 -1.456191
H 0.229191 0.122973 -1.357246
H -0.973992 0.864204 -1.980171
O -2.444172 -0.359984 -0.031091
H -2.921745 0.276695 0.504307
H -1.983659 -0.948351 0.570440
6
Structure 991 | Energy: -10.129027 Hartree
O -1.542820 -0.889823 -0.081630
H -1.802458 -1.809864 -0.160361
H -2.287112 -0.415820 0.294457
O 0.132378 -1.358476 -1.482353
H 0.422223 -0.710940 -2.127933
H 0.866824 -1.956444 -1.330334
6
Structure 992 | Energy: -10.128439 Hartree
O -1.794379 -0.040502 -0.927297
H -2.452511 -0.517013 -1.437087
H -1.343089 0.553300 -1.530478
O 0.232562 -1.185496 -0.894546
H 0.362480 -0.278478 -0.610773
H 0.144608 -1.174483 -1.849653
6
Structure 993 | Energy: -10.127022 Hartree
O -0.558187 -1.030330 0.315384
H -0.809257 -0.382663 -0.346112
H -1.207881 -1.735299 0.283637
O 1.283265 -1.351039 1.540276
H 1.624689 -0.649948 2.098836
H 1.981203 -2.001755 1.442611
6
Structure 994 | Energy: -10.125483 Hartree
O 0.030221 -0.010896 0.122465
H -0.379688 0.853870 0.187576
H 0.979141 0.126065 0.092758
O -1.046397 -1.265999 1.650301
H -1.474547 -0.415000 1.538156
H -0.288454 -1.129489 2.222120
6
Structure 995 | Energy: -10.125429 Hartree
O 2.469359 0.182340 0.343289
H 2.663000 -0.739207 0.525882
H 1.654955 0.397764 0.802015
O 1.031681 -0.826318 -1.130903
H 1.571471 -1.618208 -1.090624
H 0.263590 -0.977616 -0.576616
6
Structure 996 | Energy: -10.124010 Hartree
O 1.433374 0.730251 0.587732
H 2.195317 0.282819 0.214458
H 1.486267 1.650548 0.322501
O 0.016602 1.044941 2.172327
H -0.625809 0.523428 2.657527
H -0.430417 1.401550 1.402202
6
Structure 997 | Energy: -10.123496 Hartree
O -0.521666 0.885610 2.082287
H -0.767233 0.235737 1.420888
H -0.818790 0.552899 2.931470
O 1.027554 0.750880 0.589721
H 0.939138 0.311964 -0.258585
H 1.932185 1.063060 0.655105
6
Structure 998 | Energy: -10.120628 Hartree
O 0.610058 -0.587431 -0.394833
H 0.440261 -0.894438 0.497917
H 0.445751 0.357536 -0.406318
O -1.542979 -0.737642 -0.337246
H -1.692696 -0.054148 -0.993377
H -2.140996 -0.566356 0.392909
6
Structure 999 | Energy: -10.118704 Hartree
O -0.577275 -0.021436 -0.151853
H -1.267450 -0.089710 0.510781
H -0.307616 0.898407 -0.187397
O 0.570698 -1.364525 0.969716
H 1.256353 -1.878965 1.400201
H -0.268651 -1.779796 1.177393
6
Structure 1000 | Energy: -10.112920 Hartree
O -0.721219 -0.883910 -0.326248
H -1.015188 -1.519336 0.329422
H 0.229109 -0.982555 -0.411320
O -1.845698 0.573518 0.600910
H -2.157763 0.058436 1.347498
H -1.823427 1.491407 0.878530
