6
Structure 1 | Energy: -10.148343 Hartree
O -1.300285 -1.744856 0.563850
H -1.777344 -1.723370 1.395739
H -1.131826 -0.835467 0.309440
O -0.335317 1.000071 -0.020986
H 0.476674 1.136864 0.470995
H -0.110448 1.025846 -0.953112
6
Structure 2 | Energy: -10.147777 Hartree
O -1.494621 -0.975941 -1.011459
H -2.351715 -0.579829 -0.842428
H -1.486238 -1.831063 -0.576963
O -0.194853 0.650065 0.974623
H -0.420786 0.374625 0.084020
H 0.547303 1.253823 0.905562
6
Structure 3 | Energy: -10.147650 Hartree
O 0.827293 -0.931132 -0.772366
H 1.031657 -0.744838 -1.690852
H 0.893337 -0.102898 -0.293037
O 0.868969 1.905084 0.456601
H 1.292154 2.302725 1.220069
H 0.032920 2.357272 0.327617
6
Structure 4 | Energy: -10.147433 Hartree
O -1.506175 -0.991419 -0.139943
H -1.861551 -1.391674 -0.935927
H -1.952557 -1.397330 0.605759
O 0.162922 1.476342 0.254573
H -0.559188 0.878668 0.051028
H 0.963069 1.087728 -0.104359
6
Structure 5 | Energy: -10.147377 Hartree
O 0.674755 -0.552972 0.404757
H -0.221129 -0.372449 0.113398
H 0.658021 -1.390162 0.872651
O -1.692425 0.182650 -1.138706
H -2.563604 0.555823 -1.286616
H -1.051341 0.858716 -1.366815
6
Structure 6 | Energy: -10.147264 Hartree
O 1.027491 -0.347199 1.363299
H 0.843134 -0.248161 2.299403
H 1.438320 0.467354 1.066967
O -0.869941 0.690944 -0.842546
H -0.545075 0.111148 -0.150891
H -1.371359 0.149221 -1.455085
6
Structure 7 | Energy: -10.147256 Hartree
O 0.564703 -0.950338 1.708896
H 1.220933 -1.573690 1.391278
H 0.070712 -1.387968 2.404988
O 1.338247 0.330722 -0.909182
H 1.090895 0.184544 0.005988
H 0.549437 0.204783 -1.440224
6
Structure 8 | Energy: -10.147192 Hartree
O 1.741016 0.672058 1.090798
H 1.431402 1.437780 1.578544
H 1.044467 0.423740 0.479858
O -0.400800 -1.176887 -0.180656
H 0.091489 -1.765895 -0.755816
H -0.490324 -1.616842 0.666995
6
Structure 9 | Energy: -10.147061 Hartree
O 0.599267 0.671786 1.384078
H 1.247002 1.357340 1.209317
H -0.180662 0.879079 0.865589
O 1.700720 -1.188488 -0.683191
H 1.504615 -0.484017 -0.062425
H 1.569114 -2.018844 -0.221371
6
Structure 10 | Energy: -10.147029 Hartree
O 0.935695 0.585050 0.609818
H 0.746743 0.054833 -0.166876
H 1.122313 -0.021376 1.329202
O 0.309354 -1.374151 -1.705711
H -0.045915 -0.631988 -2.198726
H 1.042312 -1.727734 -2.213489
6
Structure 11 | Energy: -10.147005 Hartree
O -0.009563 1.247865 -0.296708
H -0.436938 0.392937 -0.377551
H 0.165292 1.391004 0.635508
O -0.345453 -1.771079 -0.976435
H 0.367994 -2.277256 -0.582906
H -0.081626 -1.558624 -1.873846
6
Structure 12 | Energy: -10.146954 Hartree
O -0.617115 -0.423072 0.314067
H 0.237073 0.011054 0.269538
H -0.475029 -1.350647 0.115302
O 1.560468 0.588457 -1.399388
H 0.688716 0.587542 -1.799557
H 2.164592 0.976468 -2.035446
6
Structure 13 | Energy: -10.146945 Hartree
O -1.099167 -0.448246 1.215977
H -0.664040 0.287151 0.780153
H -2.028208 -0.222716 1.294147
O -0.986382 1.956270 -0.334049
H -1.492795 1.614009 -1.073299
H -0.947546 2.909530 -0.433420
6
Structure 14 | Energy: -10.146909 Hartree
O -0.405957 0.237531 -1.202997
H -1.139500 0.713362 -1.597440
H -0.220969 -0.516667 -1.766075
O 0.281469 -1.928779 0.906679
H -0.079647 -1.164143 0.453893
H 1.229237 -1.924965 0.759000
6
Structure 15 | Energy: -10.146865 Hartree
O -0.273361 1.380790 0.176350
H 0.622114 1.697214 0.310836
H -0.223847 0.430321 0.056988
O -1.094183 -1.647894 0.065376
H -1.980137 -1.280669 0.083270
H -0.949931 -2.082908 0.908015
6
Structure 16 | Energy: -10.146833 Hartree
O 0.942301 0.504126 -1.780890
H 0.196375 -0.013948 -2.089563
H 1.503878 0.673664 -2.539822
O 1.044756 -1.384688 0.428066
H 1.980987 -1.489199 0.247412
H 0.776622 -0.541045 0.058663
6
Structure 17 | Energy: -10.146821 Hartree
O -0.186007 -0.971994 0.652982
H 0.242917 -0.440085 1.326171
H 0.427312 -1.050732 -0.080319
O -0.217019 1.037393 -1.645464
H -0.651568 0.737011 -0.844823
H -0.903022 1.210427 -2.293189
6
Structure 18 | Energy: -10.146766 Hartree
O -1.761678 -0.722066 1.034259
H -1.124823 -0.637449 1.746538
H -2.107764 -1.616056 1.067374
O -0.834024 1.940232 -0.136810
H 0.042017 1.718663 -0.458596
H -1.251574 1.121259 0.137094
6
Structure 19 | Energy: -10.146721 Hartree
O 0.307802 1.181666 1.584765
H 0.548725 0.268227 1.418422
H 0.557407 1.381081 2.489210
O 0.842889 -1.518240 -0.117163
H 1.009508 -0.864631 -0.799161
H 0.111122 -2.061216 -0.416797
6
Structure 20 | Energy: -10.146708 Hartree
O -0.845188 -1.925647 0.788628
H -1.283578 -1.106060 0.551609
H 0.098982 -1.775785 0.710047
O -1.325386 0.692261 -0.848520
H -1.591926 1.526538 -1.239705
H -1.378598 0.026045 -1.536570
6
Structure 21 | Energy: -10.146611 Hartree
O -0.277656 -1.254352 0.889203
H -1.180002 -0.959820 1.027442
H -0.066504 -1.099430 -0.033567
O 1.792215 0.350441 -0.784923
H 1.825294 0.177707 0.158028
H 2.666445 0.641863 -1.051163
6
Structure 22 | Energy: -10.146606 Hartree
O 1.002695 0.659690 -0.455093
H 0.219603 1.200598 -0.335631
H 1.696558 1.040888 0.086510
O -0.755460 -0.601106 1.752889
H 0.039873 -0.618807 1.216961
H -1.429009 -1.091865 1.277939
6
Structure 23 | Energy: -10.146593 Hartree
O -0.583473 -0.982384 2.007972
H -1.088183 -1.782050 1.847072
H -0.676626 -0.426673 1.231699
O -0.904341 1.208914 -0.197924
H -1.422665 1.313712 -0.998202
H -0.112482 1.740400 -0.300726
6
Structure 24 | Energy: -10.146561 Hartree
O 1.335767 0.704054 -0.620954
H 1.165545 0.094142 0.099544
H 1.231023 1.591596 -0.272546
O -1.266867 0.209729 -1.437233
H -1.609762 1.071003 -1.683642
H -0.338542 0.194028 -1.678176
6
Structure 25 | Energy: -10.146553 Hartree
O 1.533351 -0.097705 -1.144344
H 0.639384 -0.249804 -1.457034
H 1.481302 0.551121 -0.439783
O 1.327932 0.301267 1.809639
H 1.367448 -0.651220 1.703366
H 1.647233 0.502177 2.691552
6
Structure 26 | Energy: -10.146489 Hartree
O -0.418542 -0.671627 -0.321464
H 0.399604 -0.776797 -0.811019
H -0.466223 0.244553 -0.041410
O 0.429790 1.986213 -0.739076
H 0.136121 2.033184 -1.651019
H 0.144342 2.793516 -0.306792
6
Structure 27 | Energy: -10.146464 Hartree
O 0.548365 -1.636705 -0.750460
H 0.359254 -2.296863 -1.420172
H 0.189129 -1.961164 0.077651
O 1.985894 1.218897 0.221347
H 1.724819 0.375775 -0.154248
H 1.480557 1.898913 -0.228432
6
Structure 28 | Energy: -10.146463 Hartree
O 0.339978 -2.103782 0.341122
H 0.305884 -1.213002 -0.013047
H 1.235582 -2.424389 0.217849
O -0.543514 0.400483 -1.156360
H -0.375875 0.865680 -1.978294
H -1.097207 -0.354467 -1.365075
6
Structure 29 | Energy: -10.146458 Hartree
O 0.743130 -1.947713 0.323623
H 0.286213 -2.194831 -0.482756
H 0.598425 -1.008727 0.455748
O -0.504519 0.695875 -0.436663
H -1.009372 0.914525 0.349086
H -0.085198 1.503917 -0.738864
6
Structure 30 | Energy: -10.146449 Hartree
O 2.200569 0.129682 -0.688948
H 2.589953 -0.734548 -0.835823
H 1.283701 -0.009775 -0.444008
O -0.369466 0.208661 -1.715295
H -0.234196 -0.126528 -2.603798
H -0.229212 1.157096 -1.745078
6
Structure 31 | Energy: -10.146416 Hartree
O 0.795189 -0.408664 0.331700
H 0.686872 -1.173316 0.900611
H 1.455454 -0.635318 -0.326152
O -1.579264 1.289641 -0.312023
H -1.019743 2.068027 -0.345748
H -1.126844 0.637735 0.226887
6
Structure 32 | Energy: -10.146395 Hartree
O -0.389983 1.118450 -0.496908
H -1.209636 1.615978 -0.470041
H -0.148180 1.019007 -1.419802
O 0.208058 -0.881270 1.908897
H 0.252655 -0.171596 1.265110
H 1.098307 -1.220861 2.019453
6
Structure 33 | Energy: -10.146379 Hartree
O 0.780926 -0.473843 0.316069
H 0.102818 0.035460 0.764251
H 0.347638 -1.225154 -0.093668
O -0.843285 1.922151 -0.304351
H -0.378448 1.361758 -0.928829
H -0.207544 2.553011 0.039069
6
Structure 34 | Energy: -10.146356 Hartree
O -0.023339 -0.011677 -1.158163
H -0.724991 0.421074 -1.648569
H -0.248637 0.047861 -0.227687
O -0.800791 1.531623 1.065181
H -0.838062 1.599321 2.021275
H 0.095045 1.748680 0.799751
6
Structure 35 | Energy: -10.146352 Hartree
O -0.592056 0.912427 -0.278242
H -0.113074 1.643053 0.117798
H -0.061782 0.123214 -0.151582
O -0.469910 -1.256095 1.683526
H -1.202917 -0.681870 1.913858
H -0.833333 -2.128325 1.518519
6
Structure 36 | Energy: -10.146319 Hartree
O 0.235351 2.167660 0.457948
H -0.298303 1.676686 1.085837
H 1.097758 2.296408 0.857657
O 1.786509 -0.297504 -0.355724
H 1.069733 0.282470 -0.091246
H 2.090469 0.000362 -1.215359
6
Structure 37 | Energy: -10.146312 Hartree
O 0.230404 0.013405 -1.219452
H -0.478381 0.652510 -1.123254
H 0.563103 -0.176320 -0.340017
O -0.452068 -1.020593 1.641684
H -0.734219 -1.879889 1.322170
H -0.396609 -1.077165 2.597619
6
Structure 38 | Energy: -10.146272 Hartree
O 1.003275 1.167028 -1.371481
H 1.114170 0.367971 -0.852544
H 0.289860 1.005943 -1.992110
O 0.693909 -1.197723 0.719950
H 0.201350 -0.395257 0.903038
H 1.310361 -1.324058 1.443907
6
Structure 39 | Energy: -10.146176 Hartree
O 0.425087 -0.596717 -1.435598
H 0.431142 -1.263406 -2.125217
H 0.239692 -1.045436 -0.608331
O 1.300885 0.671306 1.183843
H 2.158899 1.100080 1.191027
H 0.836790 0.977628 0.402261
6
Structure 40 | Energy: -10.146145 Hartree
O -0.167687 0.502741 0.821209
H -0.752286 1.139875 0.406009
H -0.370068 -0.355960 0.444691
O 0.359371 -0.316309 -1.827627
H 1.008853 0.309757 -1.501588
H 0.764583 -0.793363 -2.554477
6
Structure 41 | Energy: -10.146143 Hartree
O 1.349094 0.336488 1.087001
H 1.258837 0.065293 2.002639
H 2.264883 0.196630 0.838280
O 1.345905 -0.969830 -1.454332
H 1.443341 -1.788789 -0.964537
H 1.067140 -0.296971 -0.830121
6
Structure 42 | Energy: -10.146131 Hartree
O 1.644403 0.772527 -0.807311
H 1.073296 0.019579 -0.971603
H 2.388178 0.701496 -1.408846
O 0.171218 -0.530375 1.130425
H 1.044820 -0.837203 1.380950
H 0.252197 0.395956 0.894964
6
Structure 43 | Energy: -10.146129 Hartree
O 0.069190 -0.616322 -1.648894
H 0.800040 -0.512207 -1.036436
H 0.368248 -1.196152 -2.352067
O -1.160765 0.092941 0.891327
H -0.951747 0.693537 0.173216
H -1.486588 -0.718590 0.497189
6
Structure 44 | Energy: -10.146128 Hartree
O -0.720357 -1.941280 0.089682
H -1.014530 -2.494002 -0.636986
H -0.066079 -2.442151 0.580741
O -1.456505 0.892072 -0.295846
H -1.966876 0.788929 -1.101433
H -0.923092 0.101345 -0.194317
6
Structure 45 | Energy: -10.146125 Hartree
O -1.349267 1.065270 1.188253
H -2.264718 1.336243 1.095459
H -1.331342 0.331991 1.806371
O -0.926462 -1.439403 -0.464651
H -1.196813 -0.672216 0.043702
H -0.000623 -1.321580 -0.686074
6
Structure 46 | Energy: -10.146121 Hartree
O 2.189688 0.314349 -0.233236
H 1.684803 -0.354381 -0.700116
H 3.104831 0.220528 -0.504903
O -0.393461 0.449405 -1.663171
H -0.744604 0.073430 -0.853586
H -0.001407 1.295099 -1.436936
6
Structure 47 | Energy: -10.146108 Hartree
O 0.567618 -0.220509 1.085636
H -0.286881 0.214108 1.117677
H 0.650801 -0.742864 1.885834
O 0.403920 0.195960 -2.113228
H 1.070041 0.071824 -2.792168
H 0.758954 -0.163499 -1.297858
6
Structure 48 | Energy: -10.146102 Hartree
O -0.340885 -2.160073 -0.681527
H -0.995453 -1.467554 -0.571782
H -0.550451 -2.851571 -0.050652
O -0.906829 0.474888 0.565564
H -0.003022 0.676116 0.315110
H -0.896208 0.226061 1.491880
6
Structure 49 | Energy: -10.146083 Hartree
O -0.063517 -0.961082 -1.308678
H -0.155577 -0.340946 -0.582701
H -0.837151 -0.861701 -1.866983
O 1.411399 -0.283535 0.858179
H 1.125772 -1.198662 0.825813
H 2.289100 -0.246119 0.473044
6
Structure 50 | Energy: -10.146063 Hartree
O 0.661525 -0.940304 0.326431
H -0.264931 -1.086656 0.527295
H 1.081578 -1.801402 0.279986
O -1.317039 0.609926 -1.698142
H -1.677444 1.492107 -1.588820
H -0.483554 0.582839 -1.224161
6
Structure 51 | Energy: -10.146044 Hartree
O -0.086226 -0.123938 1.819463
H 0.181368 0.147765 0.939317
H 0.310105 0.491366 2.439475
O -0.617661 1.972446 -0.640719
H -1.283113 1.781390 0.023177
H -1.077809 2.282789 -1.423047
6
Structure 52 | Energy: -10.146038 Hartree
O -1.354186 1.332574 0.618551
H -0.977757 2.213821 0.660864
H -2.199338 1.362670 1.071216
O -0.807690 -0.732237 -1.510343
H -1.037402 0.186629 -1.358670
H -1.005494 -1.211433 -0.703291
6
Structure 53 | Energy: -10.146020 Hartree
O -0.368366 -0.713830 0.732315
H 0.288792 -0.583095 1.418710
H -0.248790 -1.601878 0.390024
O -0.260806 1.721190 -0.883038
H -0.618317 1.383804 -0.059360
H 0.102791 0.973938 -1.362100
6
Structure 54 | Energy: -10.145983 Hartree
O -1.910458 -0.198063 -1.037100
H -0.967147 -0.259532 -0.874399
H -2.236959 0.551554 -0.535541
O -0.256507 0.467735 1.357383
H 0.609111 0.236918 1.700189
H -0.906288 0.014348 1.898044
6
Structure 55 | Energy: -10.145974 Hartree
O 0.022925 -0.556950 -0.668847
H 0.327817 0.102183 -0.042212
H 0.788333 -1.068762 -0.937713
O -1.126960 1.417048 1.289350
H -1.747137 0.688494 1.357734
H -1.046350 1.635066 0.358727
6
Structure 56 | Energy: -10.145968 Hartree
O 0.651035 -0.787070 -1.068550
H 0.963047 -1.488883 -0.493925
H 1.162245 -0.002226 -0.861728
O 1.014438 1.786568 0.515191
H 1.333036 1.752554 1.419306
H 0.124093 2.142533 0.540962
6
Structure 57 | Energy: -10.145965 Hartree
O 0.223527 -0.732677 0.528435
H -0.301824 -0.425586 -0.213042
H 0.669531 0.032490 0.896798
O 0.005451 1.737569 -0.933665
H -0.858495 2.133364 -1.064169
H 0.543223 1.972872 -1.692296
6
Structure 58 | Energy: -10.145954 Hartree
O 0.539193 0.894238 -0.247422
H 0.082153 0.927414 0.595252
H 1.158955 0.163310 -0.205841
O -0.078059 -1.931789 -0.966444
H -0.664872 -1.178299 -0.877057
H 0.364783 -1.848068 -1.813185
6
Structure 59 | Energy: -10.145951 Hartree
O -0.735000 0.570162 -1.866503
H -1.367692 1.113059 -2.340897
H 0.087430 1.062155 -1.825984
O -0.923763 -0.492876 1.282478
H -1.101611 0.086782 0.539206
H -0.769383 -1.370567 0.927634
6
Structure 60 | Energy: -10.145945 Hartree
O -0.054235 0.864709 -0.473047
H 0.883732 0.949823 -0.291227
H -0.175769 1.011168 -1.413191
O -0.989555 -2.061851 0.110042
H -1.750392 -2.331868 -0.407940
H -1.061155 -1.115287 0.247802
6
Structure 61 | Energy: -10.145941 Hartree
O -0.188339 -0.537574 1.030538
H 0.409341 0.205173 1.136325
H -1.046198 -0.260813 1.358521
O -1.512277 0.656813 -1.054963
H -0.705946 0.174060 -0.862954
H -2.235303 0.027445 -1.020079
6
Structure 62 | Energy: -10.145918 Hartree
O 1.517710 0.877672 -0.753620
H 2.031760 1.431628 -1.344359
H 1.768520 1.109062 0.142841
O -1.197503 -0.506822 0.517522
H -0.288140 -0.575219 0.220088
H -1.686112 -0.044808 -0.166504
6
Structure 63 | Energy: -10.145912 Hartree
O -0.349663 0.256873 1.195820
H -0.419610 0.511840 0.273765
H -0.346012 -0.701861 1.225932
O -0.295922 1.821386 -1.360221
H -0.331576 1.478823 -2.255467
H 0.392237 2.489269 -1.338838
6
Structure 64 | Energy: -10.145895 Hartree
O -0.572479 -0.385361 -0.234577
H -0.274579 -1.295361 -0.291509
H 0.086707 0.098472 0.266890
O 0.030803 1.611595 1.637841
H -0.290478 1.035185 2.333986
H -0.570089 2.357522 1.586752
6
Structure 65 | Energy: -10.145863 Hartree
O 0.224833 -2.083845 0.195747
H -0.503613 -2.214488 0.805981
H 0.096646 -1.229374 -0.220833
O 0.937199 0.888896 -0.194959
H 1.453486 1.587000 0.212699
H 1.450356 0.548574 -0.930445
6
Structure 66 | Energy: -10.145856 Hartree
O -0.159949 -0.162274 0.852629
H -0.122232 -0.698102 1.647331
H -0.904231 0.435256 0.947985
O 0.479798 1.942576 -1.074903
H 0.938291 2.670237 -0.650190
H 0.775809 1.134426 -0.651395
6
Structure 67 | Energy: -10.145854 Hartree
O 0.795483 -0.360843 -1.240327
H 0.718749 -0.819899 -0.401598
H 0.632984 -1.004751 -1.932475
O -0.532607 1.111296 1.553452
H -0.198027 1.029222 0.658238
H -0.801758 2.024108 1.673535
6
Structure 68 | Energy: -10.145848 Hartree
O 0.493832 1.253705 -0.388338
H 0.381815 1.543722 0.519091
H 1.436510 1.226767 -0.563621
O 0.535632 -0.926604 1.972599
H 0.477485 -0.876340 1.016471
H 0.338608 -1.831635 2.221976
6
Structure 69 | Energy: -10.145846 Hartree
O -0.113901 -1.262653 0.286984
H -0.920816 -1.751273 0.460837
H -0.293876 -0.339972 0.477663
O -0.929314 0.536776 -2.121772
H -0.119387 1.009551 -2.323241
H -0.699959 -0.177989 -1.524616
6
Structure 70 | Energy: -10.145824 Hartree
O 0.843953 1.336495 0.923182
H 1.012746 0.427166 0.668787
H 1.180387 1.449264 1.814353
O 1.038701 -0.283603 -2.003281
H 0.562300 0.373659 -1.492266
H 1.427532 0.168045 -2.754888
6
Structure 71 | Energy: -10.145796 Hartree
O 1.133678 0.740372 0.009652
H 1.497466 0.708589 -0.877328
H 0.283665 1.181158 -0.047585
O -0.348565 -1.970312 -0.873612
H -0.037959 -1.344135 -0.216715
H -0.953635 -2.569089 -0.431520
6
Structure 72 | Energy: -10.145792 Hartree
O -0.467113 -0.679288 -0.742025
H -1.212792 -0.076113 -0.726884
H 0.075865 -0.478947 0.022912
O 2.172202 -0.743263 -0.460587
H 1.932411 -0.176141 -1.196087
H 1.784684 -1.604605 -0.627945
6
Structure 73 | Energy: -10.145778 Hartree
O 0.492595 -1.339836 -0.451904
H 0.242313 -0.470361 -0.133379
H -0.264942 -1.701120 -0.916342
O 0.670743 1.741125 0.620955
H 0.891636 1.075459 1.275312
H 1.452051 2.282271 0.491312
6
Structure 74 | Energy: -10.145732 Hartree
O -1.224012 0.672528 -1.708914
H -1.248261 -0.273586 -1.552817
H -1.213490 1.101760 -0.851161
O -0.342993 -0.415011 0.704631
H -0.523015 -1.021040 1.426024
H 0.527104 -0.630395 0.363121
6
Structure 75 | Energy: -10.145726 Hartree
O 0.447256 0.326595 -1.161692
H -0.010494 -0.220750 -0.520627
H -0.108690 1.089403 -1.332394
O -0.835452 -1.209421 1.158197
H -1.496765 -0.791430 1.713207
H 0.020481 -0.879699 1.438819
6
Structure 76 | Energy: -10.145700 Hartree
O -0.359582 0.054483 2.036515
H -1.013350 -0.550178 1.680063
H -0.791824 0.568864 2.721110
O -1.193917 -0.764350 -0.842948
H -0.915677 -0.008784 -1.364283
H -0.455362 -1.010184 -0.282421
6
Structure 77 | Energy: -10.145695 Hartree
O -1.390516 -0.194249 1.372013
H -1.174037 0.245917 2.196316
H -0.686015 -0.819331 1.190241
O -0.520942 0.986996 -1.414618
H -1.282178 0.890495 -0.839036
H -0.837499 0.921194 -2.317696
6
Structure 78 | Energy: -10.145693 Hartree
O -1.036704 0.736630 1.526176
H -1.803622 1.193355 1.175001
H -1.106490 0.758280 2.482603
O 0.615017 -0.989792 -0.556856
H 0.266032 -1.496648 0.178938
H 0.628750 -0.069509 -0.286709
6
Structure 79 | Energy: -10.145673 Hartree
O -0.931259 -0.416336 -0.654590
H -0.459093 0.350075 -0.985891
H -0.286885 -0.984213 -0.227519
O -0.045786 0.877205 1.911266
H -0.899714 0.461189 1.777757
H 0.008246 1.124314 2.836525
6
Structure 80 | Energy: -10.145671 Hartree
O 0.193975 -1.200738 0.171871
H 1.109102 -0.971640 -0.001745
H -0.208000 -0.449913 0.613197
O -0.129330 1.552971 -1.223488
H -0.489149 0.665022 -1.269998
H -0.856932 2.162025 -1.363975
6
Structure 81 | Energy: -10.145657 Hartree
O -0.525324 1.851043 -1.272648
H -0.310007 1.332743 -2.050523
H -1.061894 1.297381 -0.701997
O -1.690462 -0.450829 0.268756
H -1.377379 0.158711 0.939970
H -2.640125 -0.530267 0.377923
6
Structure 82 | Energy: -10.145651 Hartree
O -1.729407 0.138061 0.512074
H -2.154879 0.395405 -0.308191
H -1.488726 0.944455 0.972392
O -0.374765 -0.761304 -1.745697
H -1.000057 -1.466773 -1.922926
H -0.067923 -0.873609 -0.843852
6
Structure 83 | Energy: -10.145643 Hartree
O 0.229871 -0.728930 -1.261770
H 0.441579 -0.061114 -0.606569
H -0.574090 -0.448625 -1.703547
O 0.073622 0.656765 1.599790
H 0.094141 -0.142718 2.129407
H 0.959488 1.024580 1.606236
6
Structure 84 | Energy: -10.145628 Hartree
O -0.060195 -0.055410 1.814298
H 0.417776 0.148535 1.008049
H -0.955254 0.271489 1.704312
O -2.095568 0.633169 -0.095277
H -3.033615 0.725092 -0.273333
H -1.626780 1.068583 -0.809939
6
Structure 85 | Energy: -10.145627 Hartree
O -0.931296 -1.233279 1.133537
H -0.201813 -1.160733 0.514927
H -1.733645 -1.020728 0.652758
O 0.586865 0.438746 -0.894787
H 1.056258 1.107217 -1.397683
H 0.906814 0.485851 0.008264
6
Structure 86 | Energy: -10.145625 Hartree
O -0.343790 -0.651051 -0.671427
H 0.098423 -1.307769 -1.212958
H 0.319671 -0.262142 -0.098139
O -0.566493 -0.333782 2.083862
H -1.134277 -0.400781 1.313655
H -0.445298 0.599942 2.267058
6
Structure 87 | Energy: -10.145617 Hartree
O -1.182540 -0.034972 -0.517431
H -1.881459 -0.681776 -0.402353
H -0.496316 -0.449007 -1.044462
O -0.183645 -1.500160 1.726976
H -0.656701 -0.670008 1.642401
H 0.679063 -1.377624 1.325968
6
Structure 88 | Energy: -10.145613 Hartree
O 1.957651 0.863341 0.096514
H 2.646566 1.441382 -0.237178
H 2.281372 -0.036558 0.022505
O 0.450479 -0.301734 -1.790545
H 0.342253 0.092882 -0.922989
H -0.342524 -0.104947 -2.293048
6
Structure 89 | Energy: -10.145611 Hartree
O -0.653125 -0.088090 -1.690080
H -1.569507 -0.010665 -1.417435
H -0.111801 0.193344 -0.949908
O 2.085313 -0.636227 -0.702134
H 2.211348 -0.503809 -1.643764
H 2.528077 -1.454456 -0.468575
6
Structure 90 | Energy: -10.145603 Hartree
O -0.142249 -1.034009 1.077553
H 0.074269 -0.297110 0.502935
H -0.234916 -0.683911 1.965774
O -0.584856 0.477062 -1.539921
H -0.317670 1.084470 -2.232564
H -0.404471 -0.410637 -1.855420
6
Structure 91 | Energy: -10.145598 Hartree
O 0.352087 2.255396 0.258835
H 0.119191 1.488588 -0.268279
H -0.327651 2.357233 0.927921
O 0.641976 -0.060296 -1.528543
H 0.985767 -0.606403 -2.238235
H 1.110395 -0.306260 -0.728435
6
Structure 92 | Energy: -10.145584 Hartree
O 0.515961 1.316057 -0.180097
H 0.206191 0.669366 0.457022
H 1.225999 1.808065 0.236874
O 1.430136 -0.608890 1.664781
H 1.120044 -1.142098 2.399369
H 2.355483 -0.822295 1.529580
6
Structure 93 | Energy: -10.145582 Hartree
O -0.003444 0.804021 0.709707
H 0.175736 1.699608 1.002800
H -0.873438 0.806056 0.305730
O 1.118578 -0.372268 -1.769558
H 0.554581 -0.035329 -2.468462
H 0.800225 -0.001618 -0.944114
6
Structure 94 | Energy: -10.145572 Hartree
O 0.942335 1.286667 1.156329
H 0.050175 0.992876 0.961846
H 1.503258 0.508563 1.159579
O -1.401328 -0.006421 -0.768336
H -1.870272 0.469866 -1.456326
H -1.184482 -0.872289 -1.119533
6
Structure 95 | Energy: -10.145568 Hartree
O -0.479992 -0.839878 0.577955
H 0.161968 -0.649436 -0.108853
H -0.939189 -0.020535 0.772648
O 0.398838 1.157637 -1.357396
H -0.260262 0.874257 -1.994082
H 1.259658 0.989502 -1.745735
6
Structure 96 | Energy: -10.145555 Hartree
O 1.210134 0.331183 -1.237195
H 0.521911 -0.047606 -0.686781
H 1.477226 -0.344619 -1.863329
O 1.610190 -0.201265 1.293982
H 2.016347 0.471093 0.743474
H 2.148680 -0.285532 2.083296
6
Structure 97 | Energy: -10.145525 Hartree
O -0.395589 1.511812 -0.043551
H -1.075556 1.760684 0.585571
H -0.295003 0.559328 0.008865
O 0.433066 -0.831661 1.886614
H 1.362262 -0.825633 1.648607
H 0.306768 -1.540514 2.520384
6
Structure 98 | Energy: -10.145523 Hartree
O 0.890252 -1.659132 0.854672
H 1.190856 -2.117562 0.067548
H 0.372438 -0.905720 0.564276
O 0.297360 0.657798 -1.590836
H 1.124899 0.994388 -1.940081
H -0.388497 1.283052 -1.833212
6
Structure 99 | Energy: -10.145510 Hartree
O -0.262363 1.163129 0.435537
H 0.239519 1.689011 -0.190282
H 0.368432 0.658222 0.952505
O -0.039668 -1.794507 -1.171716
H -0.491191 -1.212753 -0.557081
H -0.702859 -2.147542 -1.768065
6
Structure 100 | Energy: -10.145489 Hartree
O 0.248152 -0.373151 -1.270776
H -0.368977 0.030049 -0.657044
H 0.175426 -1.323565 -1.163466
O -1.182741 1.460304 0.633014
H -1.735132 1.025289 1.285480
H -0.378333 1.733364 1.078496
6
Structure 101 | Energy: -10.145468 Hartree
O 0.845432 0.094738 -2.087254
H 0.979689 -0.614913 -1.456019
H 1.077616 0.914524 -1.646650
O 1.414589 -0.363159 1.008472
H 0.767967 0.251089 1.361554
H 2.233645 -0.219319 1.486535
6
Structure 102 | Energy: -10.145464 Hartree
O -0.287939 2.131097 0.625179
H 0.241912 2.644804 0.012440
H 0.030252 2.326419 1.508748
O 1.467740 -0.628537 -0.448788
H 0.726223 -0.212755 -0.004531
H 1.123837 -1.057134 -1.234997
6
Structure 103 | Energy: -10.145454 Hartree
O -0.472750 0.519662 1.494658
H 0.290408 -0.052890 1.593961
H -0.978462 0.192031 0.748330
O -1.415013 0.223962 -1.650792
H -1.149398 -0.016163 -2.540666
H -2.290020 0.612388 -1.710593
6
Structure 104 | Energy: -10.145454 Hartree
O 0.393179 -0.960489 0.616205
H -0.548109 -0.777716 0.590592
H 0.496594 -1.913374 0.653705
O -0.796101 1.884846 -1.055028
H -0.196211 1.266337 -0.633524
H -0.330375 2.269164 -1.800338
6
Structure 105 | Energy: -10.145453 Hartree
O 0.213155 1.024878 -0.740922
H 0.895977 0.504572 -0.312996
H -0.369709 1.350183 -0.052055
O -1.469418 -0.198288 1.606397
H -1.556824 -0.528332 2.502789
H -1.500434 -0.956841 1.020117
6
Structure 106 | Energy: -10.145443 Hartree
O -0.675465 -0.269017 -1.257576
H -1.542145 -0.613298 -1.482125
H -0.764815 0.680519 -1.155163
O 0.904700 1.644512 0.304293
H 1.198686 0.967889 -0.308767
H 1.688822 2.080917 0.643101
6
Structure 107 | Energy: -10.145434 Hartree
O 1.720441 0.928260 -0.554559
H 1.874358 0.493204 -1.395465
H 1.254989 0.305020 0.006704
O 0.474500 -1.018823 1.328695
H -0.144310 -0.336357 1.595906
H 0.017333 -1.589531 0.707906
6
Structure 108 | Energy: -10.145431 Hartree
O -0.398319 0.947074 0.784485
H 0.174884 0.209223 0.567461
H 0.108519 1.750039 0.648643
O -0.228076 -0.196526 -1.928600
H -0.419020 0.735056 -1.802971
H -0.930277 -0.690607 -1.500949
6
Structure 109 | Energy: -10.145425 Hartree
O -1.193289 -0.775714 -0.094945
H -1.665005 -1.107338 -0.861493
H -0.338074 -1.209778 -0.077996
O 0.541482 1.149990 0.937207
H 0.978684 1.756872 0.336678
H -0.324804 0.962314 0.570582
6
Structure 110 | Energy: -10.145424 Hartree
O -0.799221 -2.045652 0.271009
H -1.634434 -2.146189 -0.189857
H -0.878081 -1.275305 0.837080
O -1.732841 0.661953 -0.060538
H -2.131864 0.322282 -0.863963
H -0.961773 1.170448 -0.319336
6
Structure 111 | Energy: -10.145421 Hartree
O -0.649930 2.033780 0.942275
H -1.093698 2.690899 0.402505
H 0.045540 1.648194 0.405866
O 1.139272 -0.146126 -0.896214
H 1.063886 -0.945166 -1.421514
H 1.966459 -0.200436 -0.413618
6
Structure 112 | Energy: -10.145412 Hartree
O 0.603877 0.067321 -1.890464
H 0.273163 0.720444 -1.270670
H 1.401160 0.427290 -2.283977
O -0.368060 -0.937879 1.237892
H -0.378493 -1.050078 0.285322
H -0.926555 -1.622837 1.610725
6
Structure 113 | Energy: -10.145411 Hartree
O 0.033161 -0.213352 -0.722335
H 0.156863 -0.534002 0.173191
H -0.148562 -0.976253 -1.274648
O 0.343631 0.264472 2.111048
H 0.018128 1.155486 2.253279
H 0.833441 0.012267 2.896265
6
Structure 114 | Energy: -10.145411 Hartree
O -1.754694 0.495889 0.575028
H -1.510557 -0.250131 0.023724
H -2.535573 0.239932 1.069805
O 0.071142 -1.961690 -1.261415
H 0.548756 -1.152405 -1.453846
H 0.721685 -2.626754 -1.027809
6
Structure 115 | Energy: -10.145404 Hartree
O -0.279848 -1.375910 -1.873603
H -0.628995 -0.544709 -1.546056
H -1.022284 -1.974058 -1.978945
O 0.072299 1.102582 0.413412
H 0.694119 0.563430 -0.079276
H 0.469414 1.969300 0.519183
6
Structure 116 | Energy: -10.145404 Hartree
O 0.044890 0.002804 -1.073930
H 0.793866 -0.592751 -1.007328
H -0.173688 0.284985 -0.183600
O -0.042008 -1.446939 1.280541
H 0.535712 -1.847391 1.933201
H -0.572046 -2.150374 0.900637
6
Structure 117 | Energy: -10.145398 Hartree
O -0.684024 0.430889 -1.437213
H 0.016951 0.896338 -0.976695
H -1.215046 -0.012313 -0.772624
O 2.264198 -0.043526 0.114014
H 2.920495 -0.674978 0.415061
H 1.815655 -0.436427 -0.637336
6
Structure 118 | Energy: -10.145395 Hartree
O 0.432718 -1.746790 0.351633
H 0.797608 -2.501363 -0.114801
H -0.301180 -2.067054 0.879757
O -0.666953 0.710088 -1.487445
H 0.003624 0.124138 -1.130969
H -1.518951 0.303672 -1.317109
6
Structure 119 | Energy: -10.145387 Hartree
O 0.840423 0.541914 -0.467559
H 0.531816 0.370639 0.424356
H 1.793162 0.430691 -0.464749
O -0.360194 -2.156779 -0.466999
H -0.737313 -1.399586 -0.919248
H 0.262110 -2.567214 -1.070628
6
Structure 120 | Energy: -10.145385 Hartree
O 1.200754 -0.296522 1.588088
H 0.988784 -0.734702 0.761557
H 0.415545 -0.331948 2.137890
O 0.066400 0.972014 -0.938396
H -0.324064 1.804723 -1.210834
H 1.002093 1.129539 -0.797855
6
Structure 121 | Energy: -10.145376 Hartree
O 1.392531 0.124578 -0.242595
H 2.109220 0.183791 -0.877368
H 1.732072 0.435304 0.598982
O -1.373456 -0.126625 1.678622
H -0.698107 -0.569170 1.160795
H -2.116913 0.037288 1.095105
6
Structure 122 | Energy: -10.145373 Hartree
O -0.973291 -1.114563 1.024690
H -0.526834 -0.319591 1.322650
H -0.363290 -1.844980 1.145031
O -1.182613 0.417438 -1.571990
H -1.761398 0.057375 -0.897119
H -1.705622 0.520114 -2.369491
6
Structure 123 | Energy: -10.145369 Hartree
O 0.165562 0.892639 0.446861
H -0.393122 0.708138 -0.310713
H 0.982433 0.405389 0.322769
O -0.731136 -1.434384 -0.441191
H -1.619946 -1.723951 -0.656261
H -0.699010 -1.296687 0.507542
6
Structure 124 | Energy: -10.145364 Hartree
O -0.055524 -0.397449 1.857527
H 0.358198 -0.275694 1.000732
H -0.118702 -1.342233 2.010767
O 0.895550 0.367963 -0.855996
H 0.133990 -0.197561 -0.998459
H 0.769401 1.154321 -1.390614
6
Structure 125 | Energy: -10.145361 Hartree
O 0.370558 -0.076572 -0.316170
H -0.125839 -0.405516 0.435809
H -0.106985 -0.335158 -1.106852
O -1.469111 0.998227 1.333652
H -0.762975 1.500996 0.922943
H -1.216012 0.846367 2.246323
6
Structure 126 | Energy: -10.145352 Hartree
O -0.183043 1.844915 -0.752134
H 0.111449 0.952578 -0.944736
H -1.063168 1.939542 -1.121615
O 0.302329 -0.157666 0.877380
H 0.598937 0.739917 1.040029
H 0.214005 -0.586676 1.730748
6
Structure 127 | Energy: -10.145349 Hartree
O 0.330775 0.414330 -1.825732
H 0.271703 0.058928 -0.936752
H 0.115588 -0.297820 -2.431231
O 1.520898 -1.284337 0.780952
H 2.321112 -0.970444 0.355258
H 1.605433 -2.234762 0.879107
6
Structure 128 | Energy: -10.145348 Hartree
O 0.387612 0.180247 2.036473
H -0.436143 -0.196066 2.352544
H 0.691940 0.798529 2.703708
O -1.651151 -0.556250 -0.371883
H -0.740584 -0.499622 -0.075661
H -2.103315 0.226666 -0.051448
6
Structure 129 | Energy: -10.145338 Hartree
O -0.785417 -0.498572 0.751137
H -1.583528 -0.016177 0.526636
H -0.051468 -0.043287 0.333855
O 0.360324 0.565516 -2.159000
H -0.332732 0.608711 -2.820736
H 1.056289 0.008084 -2.512540
6
Structure 130 | Energy: -10.145329 Hartree
O 2.039532 -0.889784 -0.290632
H 1.603928 -1.174230 0.515237
H 2.406981 -0.019740 -0.123015
O -0.619949 -0.239849 -1.109059
H -0.388243 0.651697 -0.841578
H 0.163132 -0.782457 -0.997478
6
Structure 131 | Energy: -10.145323 Hartree
O -1.381975 -0.897651 1.503613
H -0.939969 -0.835243 0.654601
H -1.302276 -0.041598 1.928951
O -0.158388 1.616434 -0.208202
H 0.390835 1.888953 -0.945884
H -1.043002 1.947628 -0.375107
6
Structure 132 | Energy: -10.145322 Hartree
O -0.228437 -0.666193 -1.099707
H 0.425434 -0.732546 -0.401040
H -0.998539 -0.231850 -0.727711
O -1.670616 1.014719 1.176405
H -0.767992 1.329490 1.097181
H -2.105969 1.562615 1.832428
6
Structure 133 | Energy: -10.145299 Hartree
O -0.218574 0.392216 -0.830306
H -1.110299 0.209525 -0.527756
H 0.348934 -0.293112 -0.472046
O -1.496570 1.044300 1.435776
H -0.944405 1.023721 2.219854
H -1.313253 1.868612 0.980810
6
Structure 134 | Energy: -10.145292 Hartree
O -0.268107 1.845435 -1.257779
H 0.091027 2.517353 -0.674997
H -1.221559 1.859289 -1.153722
O 0.504593 -0.136041 1.408843
H 0.478510 -1.087490 1.527802
H 0.247491 0.044056 0.502448
6
Structure 135 | Energy: -10.145276 Hartree
O -0.191635 -2.093888 -0.240023
H 0.147445 -1.207544 -0.100359
H -0.810558 -2.049258 -0.971483
O 1.813848 0.419406 1.121180
H 2.590991 0.061838 0.687267
H 1.543151 -0.215387 1.787400
6
Structure 136 | Energy: -10.145276 Hartree
O 1.145938 1.788929 -0.419191
H 0.844501 2.415466 -1.080005
H 1.589986 1.077164 -0.884275
O -0.830306 -0.009440 1.069713
H -0.527211 -0.653252 1.712928
H -0.309797 0.786124 1.197134
6
Structure 137 | Energy: -10.145269 Hartree
O -1.001462 -1.065192 -0.752727
H -0.433360 -1.413129 -1.442862
H -0.547472 -0.316030 -0.361908
O -1.418423 1.520961 0.818741
H -2.312731 1.267528 1.055539
H -1.460922 2.408546 0.457528
6
Structure 138 | Energy: -10.145257 Hartree
O -0.377093 -0.009090 -1.555117
H -0.612834 0.634660 -0.884223
H -0.402889 -0.873745 -1.140633
O 0.612548 1.349338 1.356969
H 0.769810 1.072608 2.261832
H 1.455589 1.629107 0.994894
6
Structure 139 | Energy: -10.145255 Hartree
O -1.331643 -0.785445 0.886296
H -2.167904 -1.196546 1.113780
H -0.688956 -1.068459 1.539709
O -0.332500 0.002314 -2.367256
H -0.601483 -0.702003 -1.774237
H -0.421266 0.827700 -1.886687
6
Structure 140 | Energy: -10.145248 Hartree
O 0.402355 -0.534811 1.592458
H 0.624311 -0.437618 0.664355
H -0.530357 -0.330622 1.684355
O 0.849849 1.257563 -1.222015
H 1.669765 1.345259 -1.712049
H 0.246609 1.924386 -1.555986
6
Structure 141 | Energy: -10.145229 Hartree
O -0.311992 -1.143974 -0.778991
H -0.883176 -1.824568 -1.140416
H 0.060180 -0.662303 -1.520323
O 0.073936 2.193424 0.382643
H -0.389514 1.377409 0.184096
H 0.825929 1.966302 0.933107
6
Structure 142 | Energy: -10.145228 Hartree
O 0.713569 1.089130 1.775803
H 0.745162 0.317598 1.206746
H 1.078129 1.823945 1.278577
O -0.931112 -0.184076 -0.681854
H -1.704281 -0.346205 -0.137786
H -1.242385 -0.001507 -1.570598
6
Structure 143 | Energy: -10.145227 Hartree
O 0.721343 0.052032 -0.090982
H -0.128507 0.454301 0.098806
H 0.867788 -0.627666 0.569817
O -1.930825 -0.366932 -0.380669
H -1.583489 -0.820236 -1.151357
H -2.331756 -1.031446 0.183036
6
Structure 144 | Energy: -10.145225 Hartree
O -0.706427 -1.219753 -1.768004
H -1.362400 -0.943602 -1.124944
H 0.051916 -1.544600 -1.278635
O -0.682277 0.254230 1.143491
H -0.412372 0.866606 1.830684
H -0.659291 0.732110 0.312113
6
Structure 145 | Energy: -10.145224 Hartree
O 0.497510 -0.537142 2.078517
H -0.310869 -0.629954 2.586449
H 0.369028 -1.006425 1.251863
O -0.541342 1.545463 -0.069984
H -0.417657 0.877371 0.607100
H 0.193561 2.158159 -0.002088
6
Structure 146 | Energy: -10.145221 Hartree
O 0.212952 1.846199 1.036577
H -0.042786 1.309145 0.284076
H 1.066918 1.527806 1.335671
O -0.224584 -0.662371 -1.192170
H -1.125170 -0.934628 -1.379012
H 0.098833 -1.219263 -0.481283
6
Structure 147 | Energy: -10.145218 Hartree
O 0.835424 1.125046 -1.206973
H 0.182229 0.716007 -0.635913
H 1.670468 1.116543 -0.735039
O 1.594958 -1.047474 0.573962
H 0.861495 -1.654956 0.459573
H 2.402249 -1.561435 0.509049
6
Structure 148 | Energy: -10.145200 Hartree
O -0.158560 -1.183067 0.351183
H -1.066764 -1.402908 0.567798
H 0.375652 -1.393501 1.119574
O -1.361147 1.642873 -0.973846
H -1.377104 0.701110 -0.792423
H -0.483550 1.854916 -1.297804
6
Structure 149 | Energy: -10.145197 Hartree
O -1.216186 0.412188 -1.442711
H -0.725017 1.207055 -1.225859
H -2.140077 0.659896 -1.514530
O 0.895322 -1.362419 0.299114
H 0.670635 -2.259034 0.042825
H 0.107681 -0.827652 0.181919
6
Structure 150 | Energy: -10.145188 Hartree
O 0.710308 -0.472624 1.282025
H 0.811516 -0.867725 2.150206
H 0.212092 0.339134 1.395694
O 0.287630 0.213635 -1.906112
H 0.765335 0.599734 -1.169354
H 0.125517 -0.706432 -1.688662
6
Structure 151 | Energy: -10.145185 Hartree
O -0.941737 -0.088743 -1.836400
H -1.566698 0.243570 -2.483762
H -0.696778 0.648379 -1.273606
O -1.076801 0.580261 0.711937
H -1.304610 -0.347193 0.622391
H -0.155539 0.622285 0.975754
6
Structure 152 | Energy: -10.145161 Hartree
O 1.184125 -0.570368 0.383734
H 0.511833 -0.098708 -0.111893
H 1.110266 -0.291901 1.298661
O -1.547977 -0.511110 0.182943
H -2.473022 -0.507166 -0.070754
H -1.453892 -1.136472 0.904163
6
Structure 153 | Energy: -10.145155 Hartree
O -1.766832 0.896592 0.188860
H -2.637306 0.763894 -0.191602
H -1.887584 1.048803 1.128191
O -0.214634 -1.494486 -0.525777
H -0.546453 -1.229586 0.334346
H 0.037828 -0.694799 -0.991450
6
Structure 154 | Energy: -10.145152 Hartree
O -0.260022 -0.316656 2.076058
H 0.127803 -1.005084 2.619883
H 0.052970 -0.452704 1.179610
O -1.077464 0.268092 -0.749075
H -1.163329 0.812071 -1.534442
H -0.969455 0.861301 -0.003068
6
Structure 155 | Energy: -10.145150 Hartree
O 0.498811 0.349608 -1.489132
H 0.321962 1.056731 -2.112659
H -0.219690 -0.281452 -1.564036
O 0.460138 -1.038242 1.853345
H 0.567935 -0.349699 1.194274
H 1.237902 -1.597910 1.809277
6
Structure 156 | Energy: -10.145140 Hartree
O 0.953442 -0.193711 1.866834
H 1.670510 0.010742 1.263428
H 0.185803 0.301244 1.573849
O -1.571397 0.559388 -0.150095
H -2.062968 1.083256 0.485521
H -2.003972 -0.294691 -0.209387
6
Structure 157 | Energy: -10.145135 Hartree
O -0.729019 1.692979 -0.175818
H 0.169305 2.026710 -0.134313
H -1.139144 1.875079 0.671960
O -0.045445 -1.353361 1.089125
H -0.082708 -0.835230 0.282751
H -0.949868 -1.519009 1.362378
6
Structure 158 | Energy: -10.145125 Hartree
O 1.374557 0.034772 1.181531
H 0.894611 0.840247 1.383889
H 2.261385 0.290538 0.920362
O -1.657487 0.741443 0.660236
H -1.233274 0.884981 -0.188014
H -1.595812 -0.196039 0.853657
6
Structure 159 | Energy: -10.145098 Hartree
O 1.158463 0.672706 1.715040
H 1.748523 1.409392 1.885946
H 0.262029 1.011757 1.754303
O -0.626649 -0.690272 -0.056940
H 0.052857 -0.786861 0.613157
H -1.425461 -1.093739 0.288317
6
Structure 160 | Energy: -10.145088 Hartree
O -1.217484 -1.364333 -0.491827
H -1.973902 -0.775060 -0.465849
H -0.537364 -0.978155 0.063506
O 1.890685 0.209247 0.285620
H 1.642598 0.220630 -0.640885
H 2.721022 -0.266448 0.351523
6
Structure 161 | Energy: -10.145082 Hartree
O -0.413951 -0.242265 1.539814
H -0.892747 0.521135 1.211086
H -0.323918 -0.134129 2.488651
O -1.273797 -1.389122 -1.361260
H -0.392089 -1.489388 -1.725438
H -1.259926 -1.760906 -0.477137
6
Structure 162 | Energy: -10.145078 Hartree
O -0.313345 -0.787174 1.565149
H 0.029767 -0.324410 2.332097
H 0.372869 -0.774171 0.895050
O -1.547784 1.032476 -1.057151
H -2.366781 1.315040 -1.468843
H -1.760308 0.300281 -0.475076
6
Structure 163 | Energy: -10.145076 Hartree
O 0.749702 -0.461859 0.234063
H 0.218989 0.085689 0.815974
H 0.879809 0.030508 -0.578795
O -1.422839 1.204499 0.441208
H -1.207186 1.724020 -0.335760
H -1.844187 0.398612 0.136086
6
Structure 164 | Energy: -10.145074 Hartree
O 1.855456 -1.163871 -0.608667
H 1.775502 -1.142454 -1.564301
H 0.966141 -1.176427 -0.249428
O -0.865704 -0.006265 -1.757052
H -1.242342 0.652575 -1.170399
H -0.421450 0.464480 -2.464954
6
Structure 165 | Energy: -10.145066 Hartree
O -2.178161 -0.873343 -0.136489
H -2.392816 -0.620065 0.763433
H -1.340901 -1.340545 -0.108054
O -0.308678 1.105131 0.414616
H -0.526891 2.036650 0.483480
H -0.441442 0.849160 -0.500228
6
Structure 166 | Energy: -10.145064 Hartree
O 0.157058 -1.075284 -1.622013
H 0.482538 -0.188584 -1.454941
H -0.799844 -1.042195 -1.564268
O -0.599227 0.951824 0.771135
H -0.436770 0.009048 0.840918
H -1.367411 1.148412 1.310889
6
Structure 167 | Energy: -10.145048 Hartree
O -0.608905 1.883861 0.083778
H -0.807791 1.378977 0.874741
H -0.819204 1.327455 -0.668736
O -0.224216 -1.134090 -1.311362
H 0.626243 -1.475978 -1.594063
H -0.897264 -1.591363 -1.819296
6
Structure 168 | Energy: -10.145047 Hartree
O -1.130858 -1.637178 -0.736191
H -1.401829 -1.636937 -1.656333
H -1.692958 -2.262616 -0.274712
O 0.551511 0.663191 1.076255
H 0.662442 1.567952 0.777610
H 0.168149 0.168991 0.349008
6
Structure 169 | Energy: -10.145046 Hartree
O 1.535266 -0.588889 -1.347930
H 0.816371 -0.690485 -0.721069
H 1.936150 -1.452705 -1.462840
O -0.218812 0.715670 1.156667
H -1.014916 1.220151 1.335009
H 0.524828 1.244647 1.452082
6
Structure 170 | Energy: -10.145045 Hartree
O 0.833207 -1.985975 -0.274158
H 0.308902 -1.361739 -0.779647
H 0.425573 -2.064603 0.590563
O -0.510188 0.812195 0.790125
H 0.410464 0.637115 0.585590
H -0.688559 1.721228 0.541266
6
Structure 171 | Energy: -10.145037 Hartree
O 2.107178 0.577838 0.736336
H 2.057048 1.184226 -0.005193
H 1.309767 0.044904 0.721873
O -0.803317 -1.345063 -0.315140
H -0.539487 -2.260393 -0.427622
H -1.435160 -1.144320 -1.008367
6
Structure 172 | Energy: -10.145035 Hartree
O 0.808693 -0.391486 -1.843601
H 0.449765 -1.235038 -1.561330
H 1.423324 -0.569156 -2.558271
O 0.174562 1.588559 0.904634
H 0.658964 1.275335 0.138257
H -0.366848 0.860358 1.215578
6
Structure 173 | Energy: -10.145025 Hartree
O -0.095020 -0.055687 -1.208407
H 0.003248 -0.256962 -2.141101
H -0.443925 -0.841657 -0.783428
O 1.754336 1.191829 1.027959
H 1.383721 0.435334 0.569213
H 1.024696 1.771337 1.255737
6
Structure 174 | Energy: -10.145020 Hartree
O 1.549887 0.499896 -1.054451
H 1.618806 1.456616 -1.049618
H 0.708384 0.277761 -1.457712
O -1.741156 0.044111 -0.024435
H -1.005239 -0.429684 0.368034
H -2.540686 -0.434914 0.202227
6
Structure 175 | Energy: -10.145018 Hartree
O -0.609398 -0.713088 0.583626
H 0.084764 -1.291964 0.904760
H -0.425417 0.165618 0.921439
O 0.938106 1.533399 -1.353410
H 0.418918 2.319365 -1.534483
H 0.399569 0.776154 -1.591414
6
Structure 176 | Energy: -10.145016 Hartree
O 0.673880 -1.084323 -0.809565
H 1.344539 -0.523380 -0.415046
H 0.295361 -0.599723 -1.545755
O -1.902564 0.469915 0.373450
H -2.222911 -0.069245 1.099240
H -1.453874 -0.116078 -0.239232
6
Structure 177 | Energy: -10.145011 Hartree
O 1.890852 -1.216970 0.266260
H 1.501957 -0.859291 1.066830
H 1.191676 -1.274805 -0.387880
O 0.289713 1.322986 -0.227335
H 0.106660 1.214737 -1.162675
H 1.215888 1.558427 -0.144536
6
Structure 178 | Energy: -10.145006 Hartree
O 0.302311 0.039811 1.015384
H -0.148434 -0.526616 0.386038
H 0.036206 0.941912 0.826992
O 0.462306 -0.060454 -2.095142
H 0.196180 -0.087403 -3.016303
H 1.264761 -0.579962 -2.015985
6
Structure 179 | Energy: -10.145006 Hartree
O -1.556648 0.337762 1.009014
H -1.005029 1.000272 1.429587
H -1.755035 -0.328128 1.670318
O 1.351926 -0.282583 -0.530605
H 0.609464 -0.735314 -0.125794
H 0.991858 0.393463 -1.108014
6
Structure 180 | Energy: -10.144991 Hartree
O 0.801418 0.042688 -1.716047
H 1.503802 -0.605865 -1.637807
H 1.097630 0.837610 -1.268331
O -1.548845 -0.746160 0.760954
H -1.903339 -1.471473 0.242935
H -0.953912 -0.254490 0.191390
6
Structure 181 | Energy: -10.144988 Hartree
O 0.405433 1.280240 -0.177452
H -0.067785 1.767250 -0.854927
H 0.509098 1.867091 0.574180
O -1.588172 -1.255042 0.886515
H -2.312702 -0.939842 0.342647
H -0.775675 -0.930960 0.492931
6
Structure 182 | Energy: -10.144984 Hartree
O -1.210884 0.961330 -1.206053
H -0.454126 1.249380 -1.720281
H -1.354610 1.616738 -0.520579
O 1.317226 -0.756331 0.123042
H 0.536413 -0.851148 -0.425983
H 1.023820 -0.451794 0.984006
6
Structure 183 | Energy: -10.144984 Hartree
O -0.103068 1.116512 -1.590361
H -0.497235 0.632795 -0.861844
H -0.811027 1.586456 -2.035375
O 0.398299 -0.164165 1.594055
H 0.842770 -0.288422 0.753166
H 1.058584 -0.266692 2.282241
6
Structure 184 | Energy: -10.144983 Hartree
O -0.331603 -1.175138 -0.495884
H 0.054936 -0.407426 -0.070099
H 0.361225 -1.833447 -0.577800
O 0.405704 1.969685 0.590058
H 0.904522 1.997768 -0.228769
H -0.504990 2.180854 0.375275
6
Structure 185 | Energy: -10.144982 Hartree
O -0.728826 -1.099550 1.499331
H -0.483007 -1.512699 0.669291
H -0.428278 -1.676853 2.203946
O 0.504546 0.029680 -0.527852
H 0.133676 0.549553 0.187883
H -0.073527 0.136675 -1.285791
6
Structure 186 | Energy: -10.144981 Hartree
O -1.491943 -1.728086 -0.367815
H -1.926298 -1.468183 0.446969
H -1.376596 -2.679845 -0.337131
O -0.159309 0.168774 1.869651
H 0.574606 0.399391 2.442600
H 0.183368 0.119160 0.975113
6
Structure 187 | Energy: -10.144976 Hartree
O 0.049983 -0.664706 -1.229332
H 0.706800 -1.363117 -1.259316
H -0.811920 -1.085565 -1.219790
O 1.849851 1.153064 0.536621
H 0.969850 0.866418 0.284591
H 1.751700 1.966744 1.034997
6
Structure 188 | Energy: -10.144954 Hartree
O 1.409646 -0.505394 -1.624185
H 0.869433 -1.291509 -1.725576
H 0.819619 0.250346 -1.652727
O 0.143135 0.755342 0.939042
H 0.873722 1.339212 0.725910
H 0.510536 -0.004924 1.394124
6
Structure 189 | Energy: -10.144946 Hartree
O 0.978483 0.866120 0.067783
H 1.641840 1.230635 0.656996
H 1.278911 1.022537 -0.829640
O -0.875468 -1.309315 -1.297585
H -0.123567 -0.732906 -1.147638
H -1.006005 -1.820186 -0.496300
6
Structure 190 | Energy: -10.144938 Hartree
O 1.165634 0.005995 1.820275
H 1.196292 -0.216281 2.752873
H 0.240935 0.051721 1.569414
O -0.162173 1.239923 -0.895564
H 0.663588 0.755654 -0.834827
H -0.271904 1.500497 -1.812160
6
Structure 191 | Energy: -10.144936 Hartree
O 1.007048 1.204932 0.541745
H 1.834692 0.874422 0.186987
H 0.304255 0.668037 0.170374
O -1.214110 -0.517373 -1.469306
H -0.652039 -0.835544 -2.178482
H -1.972040 -1.103440 -1.422873
6
Structure 192 | Energy: -10.144936 Hartree
O -0.021319 0.965345 1.437204
H 0.404934 0.210433 1.026713
H -0.030616 1.673058 0.789789
O 1.258195 -0.851698 -1.327440
H 1.704378 -1.514369 -1.858359
H 0.497683 -0.550977 -1.828715
6
Structure 193 | Energy: -10.144917 Hartree
O 0.195720 1.011307 0.927907
H 0.559883 0.384104 1.555673
H -0.128144 0.507652 0.178551
O 1.027473 -0.822858 -1.072902
H 1.464110 -1.419072 -0.461376
H 1.580635 -0.762101 -1.854188
6
Structure 194 | Energy: -10.144915 Hartree
O 1.244422 -1.784769 0.462630
H 0.887695 -1.608223 1.335363
H 0.546338 -1.607252 -0.170818
O 0.519532 0.874432 -0.312378
H 0.748018 0.806420 0.616738
H 1.305700 0.652632 -0.815204
6
Structure 195 | Energy: -10.144913 Hartree
O 0.285658 -1.738619 1.058225
H 0.657966 -2.621551 1.014578
H 0.175317 -1.431957 0.156076
O -0.489965 0.021038 -1.535393
H -1.436280 -0.104853 -1.628803
H -0.146461 0.246415 -2.402167
6
Structure 196 | Energy: -10.144910 Hartree
O -0.695569 -0.830762 0.000729
H -1.570700 -1.218142 0.065284
H -0.063789 -1.517808 0.221895
O 0.962312 1.367037 -0.949458
H 0.973340 1.165443 -1.887182
H 0.736006 0.557426 -0.487502
6
Structure 197 | Energy: -10.144908 Hartree
O 1.330948 -0.891242 0.867430
H 0.649937 -0.352154 1.274485
H 2.057723 -0.949209 1.490752
O -1.322299 1.314197 -0.070268
H -1.922062 1.870624 -0.571028
H -0.906613 0.713294 -0.691725
6
Structure 198 | Energy: -10.144901 Hartree
O -0.859429 1.561653 -1.279714
H -0.786551 2.449518 -0.924085
H -0.388314 0.977007 -0.682779
O -1.351380 -0.720564 0.906887
H -2.151362 -0.809389 1.428642
H -1.300261 -1.487119 0.332546
6
Structure 199 | Energy: -10.144900 Hartree
O 0.486677 -1.585853 0.807453
H 1.170277 -1.897667 0.211173
H 0.089220 -0.811723 0.403916
O -1.793218 0.383269 -1.260498
H -2.442426 -0.285226 -1.033055
H -2.054152 0.757130 -2.104435
6
Structure 200 | Energy: -10.144886 Hartree
O 0.981660 0.255524 -1.795340
H 1.467505 -0.368467 -1.252499
H 0.047858 0.083777 -1.658929
O 0.420090 -0.504897 1.418798
H 1.136365 0.124200 1.312619
H -0.059698 -0.257890 2.211817
6
Structure 201 | Energy: -10.144883 Hartree
O 0.422119 0.968801 -0.757466
H 0.111370 0.603910 0.073423
H 0.719552 0.233605 -1.297014
O -0.470461 -1.063433 1.865494
H -0.623062 -0.587504 2.684207
H 0.430485 -1.391629 1.891403
6
Structure 202 | Energy: -10.144875 Hartree
O -0.472528 1.404624 -1.252120
H -1.009094 0.818100 -0.715304
H 0.137167 0.856094 -1.749591
O 0.670343 -0.899363 0.115453
H 1.021840 -0.740177 0.993631
H 1.332417 -1.395553 -0.369872
6
Structure 203 | Energy: -10.144861 Hartree
O 1.099598 -0.009852 -2.098875
H 0.375044 -0.285371 -1.533899
H 1.352010 0.874464 -1.826178
O -0.252373 -0.481659 0.982559
H 0.357543 -1.162432 0.691635
H 0.156589 -0.032185 1.724726
6
Structure 204 | Energy: -10.144861 Hartree
O 1.982974 -0.238370 -0.114897
H 2.429674 0.021344 0.693245
H 2.405277 0.231709 -0.836545
O -0.744269 1.124060 0.050685
H -0.266075 0.463123 -0.453874
H -1.680074 0.961079 -0.082709
6
Structure 205 | Energy: -10.144855 Hartree
O 0.105908 -0.550793 1.496709
H -0.829822 -0.363919 1.594552
H 0.184333 -1.316244 0.923974
O -0.561401 0.710764 -1.797805
H -0.015111 1.193814 -2.420956
H -0.104265 0.717535 -0.954557
6
Structure 206 | Energy: -10.144841 Hartree
O 0.969317 -0.195970 1.902608
H 0.860920 -1.116281 1.654893
H 0.181545 0.063123 2.384662
O 1.497986 0.795324 -0.800637
H 1.831928 1.190917 0.006875
H 0.879328 0.108098 -0.545548
6
Structure 207 | Energy: -10.144836 Hartree
O -0.134059 -1.421171 0.297964
H -0.626026 -0.600744 0.368348
H -0.263219 -1.754356 -0.592203
O 1.784009 1.010720 -0.167558
H 1.363618 0.496330 0.524368
H 2.563196 1.418613 0.215298
6
Structure 208 | Energy: -10.144834 Hartree
O -0.818957 -0.085822 -1.886370
H -0.545230 0.126341 -0.991861
H -1.340090 0.653012 -2.206737
O 1.304874 1.794310 0.304631
H 1.786491 2.242663 1.002565
H 1.793087 1.929983 -0.509819
6
Structure 209 | Energy: -10.144829 Hartree
O -0.783348 0.122135 1.222511
H -1.157508 0.144302 0.339562
H 0.138364 0.376735 1.146903
O 0.193770 -0.624487 -1.734873
H -0.009168 -0.801956 -2.655421
H 1.146825 -0.675575 -1.639141
6
Structure 210 | Energy: -10.144823 Hartree
O 0.018721 0.391258 -1.035336
H -0.240690 1.015631 -1.715741
H 0.847532 0.701996 -0.665734
O -0.207507 -1.597963 1.649333
H -0.119181 -0.656938 1.485755
H -0.612271 -1.984897 0.870529
6
Structure 211 | Energy: -10.144817 Hartree
O -0.589387 -1.260847 -1.314500
H -0.041498 -0.914198 -2.021422
H -0.124159 -1.102325 -0.490774
O -0.117263 0.824697 1.232929
H -0.462893 0.876925 0.339677
H -0.815438 0.470891 1.787422
6
Structure 212 | Energy: -10.144813 Hartree
O 1.190916 0.277571 1.024945
H 1.375801 -0.609341 1.340050
H 0.297713 0.274349 0.675274
O -1.436981 1.621139 0.290959
H -1.497175 1.518624 -0.660857
H -1.826599 2.469728 0.510466
6
Structure 213 | Energy: -10.144805 Hartree
O -1.228652 0.402727 1.676123
H -0.668506 0.584318 2.433320
H -0.848476 0.862233 0.924850
O 0.461315 -1.413967 -0.598459
H 0.661300 -2.346616 -0.497168
H -0.483573 -1.310453 -0.469774
6
Structure 214 | Energy: -10.144799 Hartree
O -0.100872 2.305964 -0.332804
H -0.842775 1.985954 0.184168
H 0.167952 1.592953 -0.915418
O -0.650229 -0.406870 0.439488
H -0.421064 -1.050627 -0.233674
H 0.171141 -0.085432 0.816473
6
Structure 215 | Energy: -10.144798 Hartree
O -0.940863 -0.837732 0.354087
H -1.171178 0.012252 0.734310
H -0.090254 -1.090677 0.718195
O 2.283935 0.481837 -0.272298
H 1.413069 0.406524 -0.667277
H 2.922294 0.472632 -0.988190
6
Structure 216 | Energy: -10.144796 Hartree
O -0.570284 1.339151 0.675418
H -0.573935 1.330952 1.634587
H -1.138829 2.059156 0.395345
O -0.650436 -1.243956 -1.702967
H -0.936192 -0.425005 -2.112540
H -0.184234 -1.011223 -0.897623
6
Structure 217 | Energy: -10.144791 Hartree
O -1.035296 0.133875 -2.071310
H -1.430183 -0.338657 -1.335876
H -0.088239 -0.011707 -2.026815
O 1.004543 1.220511 -0.240633
H 0.958215 1.292740 0.714733
H 1.168559 2.100844 -0.584436
6
Structure 218 | Energy: -10.144787 Hartree
O 0.187642 -0.635564 -0.677215
H 0.663222 0.152516 -0.407325
H -0.211111 -1.010440 0.110538
O -1.771873 0.864342 1.026063
H -2.182393 0.474514 0.251728
H -1.250311 1.611137 0.725466
6
Structure 219 | Energy: -10.144786 Hartree
O 0.533286 -0.461857 -0.506251
H 0.991376 0.039550 -1.183622
H -0.298528 -0.754910 -0.883472
O -1.561387 1.685050 0.322497
H -1.092367 2.329141 0.856590
H -1.441405 0.829325 0.738943
6
Structure 220 | Energy: -10.144783 Hartree
O 0.828231 -0.199602 1.050386
H 1.472228 -0.910148 1.072226
H 0.893527 0.216549 0.188617
O 0.694695 0.411580 -2.136022
H -0.085141 0.026715 -1.731271
H 1.155675 -0.294823 -2.592728
6
Structure 221 | Energy: -10.144769 Hartree
O -2.020757 -0.358016 -0.240183
H -1.355527 0.319219 -0.102679
H -1.689161 -0.948051 -0.919884
O -0.516755 2.125165 0.562447
H 0.333204 2.029931 0.996713
H -0.407210 2.771715 -0.137597
6
Structure 222 | Energy: -10.144760 Hartree
O -1.479606 -0.289587 0.235673
H -1.270051 -0.262016 -0.699962
H -1.897573 0.544696 0.457855
O 1.583389 -0.112445 1.603629
H 1.632286 0.730245 1.148030
H 0.674435 -0.413601 1.547097
6
Structure 223 | Energy: -10.144756 Hartree
O -0.929010 1.029069 -1.018241
H -1.545797 1.255216 -0.319300
H -0.176845 0.600116 -0.605522
O -0.490092 -0.365456 2.134077
H -0.405637 -1.212813 2.575597
H -0.328844 0.314527 2.791123
6
Structure 224 | Energy: -10.144755 Hartree
O -0.488220 -0.626154 -0.033000
H 0.305543 -0.533285 -0.563473
H -0.410336 -0.016957 0.703820
O 1.996642 0.643326 -0.557257
H 2.035212 0.232656 -1.423253
H 2.444843 1.488786 -0.623594
6
Structure 225 | Energy: -10.144747 Hartree
O 1.558983 0.737501 0.340792
H 0.992500 0.391759 -0.351772
H 1.095657 1.473246 0.745885
O -1.105017 -0.308500 -1.900245
H -0.984577 -0.514996 -2.829192
H -0.972283 -1.121598 -1.408980
6
Structure 226 | Energy: -10.144729 Hartree
O 0.967100 -0.409500 -1.437586
H 1.154954 0.413281 -0.981705
H 0.167373 -0.772016 -1.051437
O -0.251140 1.724219 1.263774
H -0.999068 2.319648 1.342236
H 0.427197 2.039567 1.864192
6
Structure 227 | Energy: -10.144723 Hartree
O -0.256082 -0.673089 1.652158
H -0.560079 -0.788431 2.554581
H 0.702606 -0.699449 1.669813
O -0.918799 1.978405 -0.849360
H -1.142924 1.533655 -1.669148
H -1.116406 1.371222 -0.133561
6
Structure 228 | Energy: -10.144718 Hartree
O -1.002571 0.193343 1.893438
H -0.429499 0.527887 1.200794
H -1.107738 0.895175 2.538777
O -0.303473 -0.622844 -0.997237
H -0.984805 -1.230543 -0.702998
H -0.715018 -0.009276 -1.608999
6
Structure 229 | Energy: -10.144717 Hartree
O 1.744850 0.526961 -1.482329
H 1.305296 0.325164 -2.310674
H 1.076592 0.509050 -0.794432
O 0.427357 -0.029169 1.776416
H 1.106180 0.313260 2.361249
H 0.758041 -0.850601 1.407654
6
Structure 230 | Energy: -10.144710 Hartree
O -0.252574 -1.478971 -1.297300
H 0.703772 -1.500445 -1.368198
H -0.524467 -0.564710 -1.398746
O 0.537871 0.500779 1.198601
H -0.062009 -0.081285 0.728035
H 0.028595 0.941682 1.881484
6
Structure 231 | Energy: -10.144704 Hartree
O 0.021724 0.987836 1.403384
H 0.746702 0.912053 2.026882
H -0.526593 0.207932 1.509156
O 2.096070 -0.165248 -0.640353
H 1.206134 0.159442 -0.790941
H 2.473086 0.358183 0.069553
6
Structure 232 | Energy: -10.144703 Hartree
O 0.457662 -0.659490 0.754520
H 0.561561 -1.612563 0.723801
H 1.123622 -0.320392 1.355853
O 1.218369 1.044439 -1.580338
H 1.095110 0.205131 -2.028062
H 1.208213 0.867673 -0.637608
6
Structure 233 | Energy: -10.144698 Hartree
O 0.662726 1.656426 1.227536
H 0.077966 2.380928 0.996800
H 0.170027 0.842938 1.102732
O -0.733970 -0.182796 -0.788276
H 0.129328 0.232466 -0.836856
H -0.619780 -1.024110 -0.341913
6
Structure 234 | Energy: -10.144697 Hartree
O -0.526095 -0.541000 0.948661
H -0.155515 0.338008 0.848148
H 0.072927 -1.152933 0.516456
O 0.197314 1.139263 -1.967903
H -0.757326 1.128343 -2.060806
H 0.566987 1.247375 -2.846391
6
Structure 235 | Energy: -10.144692 Hartree
O 0.180323 0.279375 0.560795
H -0.126910 0.575320 -0.298338
H 0.595458 -0.576122 0.434786
O -0.442758 -1.921655 -1.049927
H -1.134636 -2.087958 -1.693149
H -0.119775 -2.774715 -0.753182
6
Structure 236 | Energy: -10.144689 Hartree
O 0.200902 -1.893496 0.185502
H 0.104227 -2.841670 0.293697
H -0.101694 -1.482604 0.997718
O -0.613968 0.924441 -1.561115
H 0.256241 0.656861 -1.863150
H -0.859717 0.335324 -0.845129
6
Structure 237 | Energy: -10.144685 Hartree
O -0.114835 1.274738 -0.458222
H -1.013040 1.396096 -0.772205
H 0.422894 1.956973 -0.865030
O -1.074370 -1.170387 1.711637
H -1.262207 -0.879671 2.606226
H -0.920627 -0.384301 1.183887
6
Structure 238 | Energy: -10.144685 Hartree
O 1.713072 -1.387737 -0.907533
H 2.366765 -0.703938 -0.748817
H 0.878124 -1.068831 -0.559321
O -0.267312 0.770764 0.221355
H 0.209693 1.174680 0.948958
H -0.865392 0.122707 0.598728
6
Structure 239 | Energy: -10.144684 Hartree
O 1.781823 0.835084 0.452921
H 0.983730 0.493244 0.045148
H 2.464552 0.841861 -0.220818
O -0.250623 -0.261728 -1.474653
H -0.810825 0.508851 -1.586323
H 0.530602 -0.125586 -2.014320
6
Structure 240 | Energy: -10.144680 Hartree
O -0.203751 0.989247 0.578788
H 0.394022 0.618843 -0.073558
H -0.426465 0.285860 1.191761
O -0.716676 -2.123164 -0.088338
H -1.628906 -2.150444 0.206925
H -0.404810 -3.029243 -0.131332
6
Structure 241 | Energy: -10.144675 Hartree
O 1.595575 0.354336 -1.042288
H 2.226653 -0.174505 -0.550195
H 0.777413 -0.144705 -1.083042
O -1.258961 1.025954 -0.082802
H -1.020859 1.915489 -0.351359
H -1.423437 1.048893 0.861926
6
Structure 242 | Energy: -10.144670 Hartree
O -2.037699 0.615441 -0.253285
H -2.559245 -0.167276 -0.441515
H -1.246351 0.566068 -0.793119
O 1.250593 0.730742 -1.103593
H 1.439936 1.377371 -0.420872
H 1.029438 1.215965 -1.900925
6
Structure 243 | Energy: -10.144665 Hartree
O -1.374080 0.210772 -1.810160
H -1.792174 1.072950 -1.854119
H -1.808914 -0.280430 -1.110352
O -0.313893 -0.396577 0.728647
H 0.439156 0.166495 0.539031
H -0.014300 -1.305037 0.657713
6
Structure 244 | Energy: -10.144664 Hartree
O -1.440029 0.817398 -1.430565
H -2.077691 0.640564 -2.124973
H -0.809174 0.094830 -1.433491
O 0.314264 -0.356082 0.667032
H 0.597715 -0.522520 1.568165
H 0.524274 0.558342 0.467502
6
Structure 245 | Energy: -10.144651 Hartree
O 1.328013 0.174815 -1.220193
H 1.762003 1.014622 -1.057519
H 1.504674 -0.387503 -0.463436
O 0.309186 -0.100641 1.909603
H -0.528728 0.364212 1.953168
H 0.207809 -0.915920 2.404710
6
Structure 246 | Energy: -10.144641 Hartree
O -0.159388 0.977486 0.856093
H -0.594287 1.817919 1.013003
H 0.782914 1.120770 0.963926
O 2.036986 -0.100245 -0.446114
H 1.362653 -0.775826 -0.540735
H 2.863489 -0.479091 -0.751822
6
Structure 247 | Energy: -10.144638 Hartree
O 1.544017 -0.645149 0.292980
H 1.801607 -1.067635 -0.528749
H 2.228070 -0.009436 0.512141
O 0.829849 2.049574 -0.195976
H 0.592605 1.855766 -1.104955
H 0.153617 1.661773 0.362960
6
Structure 248 | Energy: -10.144637 Hartree
O 0.055795 2.186171 -0.213878
H -0.332654 1.456746 0.273084
H 1.002790 2.036266 -0.242526
O -1.396423 -1.225766 0.561865
H -2.040661 -1.202319 -0.148413
H -1.795067 -1.704478 1.291252
6
Structure 249 | Energy: -10.144632 Hartree
O -0.709869 -1.943807 -0.680292
H -1.558467 -1.699853 -0.305521
H -0.468727 -1.258935 -1.307103
O 0.895507 0.863049 0.043315
H 1.590299 0.209587 -0.058364
H 0.768987 0.999065 0.984367
6
Structure 250 | Energy: -10.144631 Hartree
O 0.046868 -1.023493 0.885631
H -0.132274 -0.110450 0.652508
H -0.016650 -1.540091 0.079913
O -0.035478 1.117321 -1.653817
H 0.720035 0.905674 -2.205626
H 0.218105 1.855203 -1.095861
6
Structure 251 | Energy: -10.144628 Hartree
O 1.362307 -0.807310 -1.624669
H 1.755719 -1.370944 -0.955617
H 0.835037 -1.369595 -2.195557
O 0.427601 0.884402 1.411003
H 0.138443 0.533171 0.566544
H 0.901357 1.699144 1.232566
6
Structure 252 | Energy: -10.144624 Hartree
O 0.616535 -1.596673 -1.460460
H -0.048310 -2.268747 -1.622890
H 0.333511 -1.096968 -0.692162
O 0.050403 0.110938 1.670513
H -0.453644 0.830680 1.285811
H 0.929541 0.446993 1.855635
6
Structure 253 | Energy: -10.144616 Hartree
O 0.457266 0.086803 0.377975
H 0.592436 0.541253 -0.455866
H -0.256573 -0.540426 0.247173
O -1.456349 0.235437 -1.711001
H -1.803118 -0.484016 -2.242251
H -1.329890 0.985097 -2.295899
6
Structure 254 | Energy: -10.144615 Hartree
O -1.278017 0.393120 -1.331519
H -0.715597 0.268918 -0.564484
H -0.741274 0.800166 -2.014389
O 1.552472 0.714616 -0.915467
H 1.617104 1.500237 -0.368925
H 1.793174 -0.034073 -0.366272
6
Structure 255 | Energy: -10.144611 Hartree
O 1.417538 -0.335239 -0.890197
H 0.628271 -0.669281 -0.459430
H 1.959156 -1.093358 -1.118227
O -0.375463 0.509433 1.944613
H -1.222113 0.955673 1.880255
H 0.303252 1.158304 1.748652
6
Structure 256 | Energy: -10.144592 Hartree
O 0.730952 0.551256 -0.807224
H -0.150180 0.578039 -1.185344
H 0.759876 1.206846 -0.107611
O -0.911858 -1.569881 0.773509
H -0.180824 -2.175220 0.912227
H -0.537077 -0.728607 0.505394
6
Structure 257 | Energy: -10.144584 Hartree
O 1.133693 -0.911218 0.559890
H 1.915416 -0.891883 0.004352
H 1.088140 -1.783692 0.955877
O -0.276130 0.622139 -1.834749
H -0.537348 0.067495 -1.097034
H -0.844244 1.394941 -1.824232
6
Structure 258 | Energy: -10.144577 Hartree
O -0.978670 -0.793979 -1.063583
H -1.180757 -1.628997 -1.490190
H -1.385658 -0.812838 -0.195196
O 0.877393 -0.004337 2.100170
H 1.262182 0.866967 2.213543
H 0.891450 -0.201118 1.161465
6
Structure 259 | Energy: -10.144575 Hartree
O -1.158531 -0.030374 -0.263870
H -1.030032 0.767452 -0.780636
H -0.533581 -0.001573 0.463247
O 1.985833 -0.137739 -0.623332
H 2.139105 -0.973902 -0.179005
H 2.164967 -0.274491 -1.555693
6
Structure 260 | Energy: -10.144574 Hartree
O -0.541514 -0.985901 1.080175
H -0.263658 -1.811302 1.482162
H -0.802312 -1.182804 0.178341
O 0.904556 -1.077658 -1.266824
H 1.191017 -0.854593 -0.378979
H 0.244339 -0.430772 -1.523222
6
Structure 261 | Energy: -10.144573 Hartree
O 0.653751 1.686180 1.311311
H 1.130553 1.092008 0.728469
H -0.107274 2.010396 0.825702
O 0.078945 -0.325777 -1.022173
H 0.474013 -0.939001 -1.645041
H -0.579377 0.181202 -1.501413
6
Structure 262 | Energy: -10.144572 Hartree
O -0.882215 -2.037975 0.219390
H -0.308278 -1.532075 -0.359185
H -1.169240 -2.811129 -0.270447
O -0.054017 0.408833 -0.935439
H -0.956115 0.361969 -0.612778
H -0.096890 0.459945 -1.892328
6
Structure 263 | Energy: -10.144568 Hartree
O -0.188581 1.018715 1.165422
H -0.742739 1.080134 1.945948
H 0.110472 1.906392 0.958813
O 0.853056 -1.593638 -0.679187
H -0.049768 -1.884847 -0.537079
H 1.118308 -1.100336 0.099519
6
Structure 264 | Energy: -10.144566 Hartree
O -0.460756 -1.636393 -0.488765
H -1.073910 -1.694700 0.246577
H -0.148317 -0.730293 -0.526925
O -0.128490 1.519303 1.218685
H -0.605201 2.336267 1.059305
H 0.806633 1.714529 1.131971
6
Structure 265 | Energy: -10.144560 Hartree
O -1.193737 -0.095271 -1.397829
H -0.905432 0.817293 -1.462587
H -0.520258 -0.571897 -0.908601
O -0.107980 -1.703897 1.322437
H 0.694641 -1.783779 1.841577
H -0.829910 -1.556059 1.936480
6
Structure 266 | Energy: -10.144556 Hartree
O 0.038952 0.256665 -1.501571
H -0.409055 0.092632 -2.333718
H -0.612311 0.158617 -0.804195
O -1.324225 1.165079 1.161113
H -2.159906 0.944113 1.576925
H -0.661886 1.197453 1.854183
6
Structure 267 | Energy: -10.144550 Hartree
O 0.917998 0.426480 0.647902
H 1.188511 0.861397 -0.163119
H 1.026917 -0.517102 0.514181
O -1.563194 -1.457708 -0.004904
H -1.472214 -0.503158 -0.030297
H -2.439582 -1.668350 -0.333022
6
Structure 268 | Energy: -10.144546 Hartree
O -0.395376 1.709997 -0.985970
H -1.281856 1.805583 -1.339666
H 0.172638 2.305943 -1.478209
O 0.221608 -1.534583 0.671431
H 0.384518 -1.432301 1.611158
H 0.404319 -0.688673 0.257739
6
Structure 269 | Energy: -10.144540 Hartree
O 1.026858 1.313637 0.050851
H 1.458649 1.198493 0.899606
H 0.105834 1.516514 0.225913
O 0.565388 -1.053988 -1.820942
H -0.331732 -1.301470 -2.053353
H 0.508397 -0.296664 -1.235024
6
Structure 270 | Energy: -10.144534 Hartree
O -2.213461 0.627620 0.010575
H -2.661151 0.403491 -0.807610
H -2.339460 -0.107392 0.613875
O 0.900582 -0.717449 0.016473
H 1.141598 -0.097338 0.707458
H 0.434173 -0.222118 -0.659691
6
Structure 271 | Energy: -10.144530 Hartree
O -0.660062 -0.013858 2.188347
H 0.109524 0.509835 1.956894
H -0.576784 -0.856060 1.736849
O -0.830985 0.544234 -0.931876
H -1.465520 -0.024460 -0.491377
H -1.278399 1.369322 -1.129714
6
Structure 272 | Energy: -10.144528 Hartree
O 1.463102 -1.122694 1.391326
H 2.234127 -0.787701 0.929388
H 0.781402 -0.450607 1.330717
O 0.093141 1.146877 -0.886069
H -0.102650 1.973807 -1.330974
H -0.727840 0.654221 -0.828036
6
Structure 273 | Energy: -10.144521 Hartree
O -1.213349 0.124082 -0.294197
H -1.163453 0.702211 0.469585
H -2.052392 -0.338290 -0.246134
O 1.183540 1.215173 -0.993634
H 1.233747 0.421359 -0.457512
H 0.701506 0.989063 -1.791509
6
Structure 274 | Energy: -10.144520 Hartree
O 2.189825 0.299239 -0.640054
H 1.886050 1.066402 -0.150904
H 2.420162 0.597675 -1.522081
O -0.367026 -0.091008 1.149575
H 0.525103 -0.162380 0.804466
H -0.296703 0.201487 2.060393
6
Structure 275 | Energy: -10.144517 Hartree
O -1.104193 0.619437 1.762101
H -0.617837 1.214256 2.336326
H -1.181115 -0.219139 2.221410
O 0.058543 -0.283058 -1.279098
H -0.859843 -0.559873 -1.273858
H 0.296658 -0.071617 -0.374288
6
Structure 276 | Energy: -10.144513 Hartree
O -0.912919 0.342586 -0.241661
H -0.766215 1.286191 -0.151252
H -0.102367 -0.097436 0.021924
O 1.391839 1.624519 -0.322765
H 1.622915 2.538165 -0.144043
H 1.755902 1.402282 -1.181926
6
Structure 277 | Energy: -10.144509 Hartree
O -0.547349 2.021402 0.382152
H 0.159437 2.668240 0.335894
H -0.589020 1.710535 1.288637
O -0.231241 -0.587484 -0.033272
H 0.211629 -0.256949 -0.817300
H -1.006688 -0.040542 0.106815
6
Structure 278 | Energy: -10.144501 Hartree
O -1.092207 0.394784 -0.076375
H -0.521179 -0.039979 0.560016
H -1.621434 -0.286784 -0.495272
O 1.854323 0.375840 -1.385179
H 1.383844 -0.436670 -1.581558
H 1.195560 1.046957 -1.196179
6
Structure 279 | Energy: -10.144501 Hartree
O -1.199167 -0.318932 0.090327
H -0.468560 0.084845 0.562836
H -1.126993 -0.050118 -0.827617
O 1.612197 -1.086971 -0.815741
H 0.749609 -1.438268 -1.045129
H 1.733615 -1.224294 0.125794
6
Structure 280 | Energy: -10.144493 Hartree
O -1.679461 1.028755 0.276633
H -1.740336 1.982577 0.195363
H -1.287338 0.840976 1.131659
O 1.083030 -0.153405 -0.981183
H 0.313134 0.385309 -1.173889
H 1.424818 -0.470577 -1.819438
6
Structure 281 | Energy: -10.144491 Hartree
O 1.223591 -0.188364 -0.486060
H 1.308785 0.665429 -0.914856
H 0.308798 -0.462058 -0.577356
O -0.457391 1.375447 1.203530
H -0.353889 2.117229 0.604252
H 0.368306 0.887324 1.196607
6
Structure 282 | Energy: -10.144475 Hartree
O -1.070675 -1.157237 -0.771463
H -1.434561 -0.744807 0.014397
H -0.628906 -1.961357 -0.491602
O -1.032998 1.797036 0.472864
H -0.870894 2.075687 -0.430553
H -0.221227 1.938716 0.963824
6
Structure 283 | Energy: -10.144470 Hartree
O -0.093570 1.553374 1.190998
H -0.967067 1.949708 1.188029
H 0.305872 1.739873 0.339086
O 1.211856 0.045747 -0.582041
H 1.816588 -0.476003 -1.113231
H 0.762423 -0.558164 0.012425
6
Structure 284 | Energy: -10.144462 Hartree
O 1.079786 -0.008134 0.482284
H 0.496283 0.367720 -0.179791
H 0.531958 -0.285361 1.219251
O -2.208065 0.137909 0.407242
H -2.697338 0.173854 -0.417019
H -2.209136 -0.775987 0.698587
6
Structure 285 | Energy: -10.144461 Hartree
O 1.165972 0.540659 -1.670069
H 1.628866 0.067697 -0.975719
H 0.950696 -0.097149 -2.353405
O -0.546785 -0.976595 0.559369
H -0.033308 -0.271275 0.160680
H -0.666841 -0.752665 1.484318
6
Structure 286 | Energy: -10.144458 Hartree
O -1.818782 -1.286095 -0.604491
H -2.771782 -1.244451 -0.503775
H -1.530703 -0.433502 -0.936433
O 0.243497 0.709776 0.498914
H 0.685312 0.729540 -0.352260
H 0.459318 -0.128804 0.911580
6
Structure 287 | Energy: -10.144452 Hartree
O 0.816754 0.109722 0.949592
H 0.729764 0.109000 1.904850
H 1.294998 0.905496 0.708518
O -1.775300 -0.923439 -1.252735
H -1.464614 -1.089401 -0.360536
H -1.031396 -1.060267 -1.842626
6
Structure 288 | Energy: -10.144441 Hartree
O 1.573211 -0.670184 0.781464
H 2.467993 -0.402093 0.999588
H 1.555363 -0.862474 -0.158109
O 0.314731 0.864213 -0.994109
H -0.480327 0.493241 -1.381860
H 0.082177 1.183423 -0.119974
6
Structure 289 | Energy: -10.144436 Hartree
O -0.941980 0.274930 -0.099455
H -0.958665 -0.295178 -0.870678
H -0.432000 1.053194 -0.332511
O 1.385296 -1.717420 0.266802
H 0.479523 -1.417329 0.364829
H 1.892720 -0.980711 -0.079418
6
Structure 290 | Energy: -10.144426 Hartree
O 1.734505 -0.746736 1.116354
H 1.381687 -0.013015 0.609146
H 1.890496 -1.467281 0.502699
O -0.237024 1.416690 -1.182693
H -1.010983 0.854032 -1.115670
H -0.256984 1.825040 -2.050414
6
Structure 291 | Energy: -10.144425 Hartree
O 1.390973 -0.768892 0.609241
H 1.166981 -0.363656 1.449299
H 1.116380 -0.162088 -0.081033
O -0.617109 1.091857 -0.498113
H -1.103176 1.701812 -1.056485
H -0.542220 1.497556 0.367848
6
Structure 292 | Energy: -10.144420 Hartree
O -1.588401 0.187593 1.191846
H -1.872155 1.094301 1.059749
H -1.253917 -0.130721 0.351080
O 0.693741 0.632085 0.217842
H 0.613264 0.507959 1.165578
H 1.566728 0.993200 0.051772
6
Structure 293 | Energy: -10.144417 Hartree
O -1.803848 1.236776 -0.466439
H -2.567284 1.218663 -1.046890
H -1.421627 0.357024 -0.472299
O 0.042775 -0.669103 1.686612
H -0.310443 0.222382 1.662549
H 0.699547 -0.733309 0.990468
6
Structure 294 | Energy: -10.144409 Hartree
O 0.818316 -0.866621 -0.923548
H 0.136958 -0.211843 -0.758921
H 1.631999 -0.391117 -1.102173
O -2.084009 -0.279397 -0.854923
H -1.870840 0.336521 -1.558692
H -1.640891 -1.105821 -1.056807
6
Structure 295 | Energy: -10.144404 Hartree
O -1.092130 -1.357168 -0.112788
H -0.754380 -1.628479 0.743016
H -0.352216 -1.005379 -0.611649
O 1.319240 1.143248 0.807507
H 0.370349 1.041615 0.710735
H 1.472602 1.991299 1.228669
6
Structure 296 | Energy: -10.144402 Hartree
O 0.619532 -0.819626 0.159959
H -0.316608 -0.749668 0.357023
H 1.041905 -1.216035 0.924518
O -0.314009 1.351051 -1.774563
H -0.034191 1.209314 -0.868086
H 0.478159 1.483646 -2.298945
6
Structure 297 | Energy: -10.144400 Hartree
O -1.741591 -0.779530 0.339750
H -1.610585 -1.572922 0.862677
H -2.480172 -0.304061 0.725130
O 1.230202 0.592439 -0.875712
H 2.029884 0.111832 -0.652973
H 0.508713 0.181456 -0.395467
6
Structure 298 | Energy: -10.144389 Hartree
O 0.068858 -0.970243 1.054537
H -0.372033 -1.650632 1.567149
H 1.013076 -1.108662 1.151399
O 2.062117 0.476695 -0.790115
H 1.233729 0.944954 -0.669309
H 2.288348 0.535048 -1.720438
6
Structure 299 | Energy: -10.144387 Hartree
O -0.145496 2.263505 -0.365858
H 0.782232 2.478856 -0.480012
H -0.609027 2.583630 -1.142228
O -0.041405 -0.305842 1.386374
H -0.795237 0.216658 1.105628
H 0.446624 0.219236 2.023719
6
Structure 300 | Energy: -10.144381 Hartree
O 0.532302 1.070383 -0.249584
H -0.278332 1.577832 -0.323431
H 0.720563 0.707892 -1.117483
O -1.795308 -0.492431 1.430002
H -1.182887 -0.374732 2.158820
H -1.295064 -0.849194 0.693412
6
Structure 301 | Energy: -10.144379 Hartree
O -1.406263 -0.026077 -0.136090
H -1.431475 0.904598 0.094766
H -1.973507 -0.144598 -0.900471
O 2.128758 -0.538871 0.642831
H 1.436598 -0.908686 0.091254
H 1.705240 0.038130 1.281416
6
Structure 302 | Energy: -10.144378 Hartree
O -0.118897 2.006907 0.180596
H 0.250113 1.130695 0.307760
H 0.427526 2.453724 -0.468917
O -0.499197 -1.451048 -0.886186
H -1.416047 -1.293727 -0.652254
H -0.463943 -2.291155 -1.347777
6
Structure 303 | Energy: -10.144378 Hartree
O 0.447945 -0.146757 2.003255
H -0.480222 -0.046800 2.223710
H 0.610216 0.374167 1.214334
O -1.353802 -1.234669 0.255719
H -1.026599 -0.730518 -0.491849
H -0.593042 -1.627165 0.688478
6
Structure 304 | Energy: -10.144365 Hartree
O -0.744435 -0.845471 -0.375909
H -1.386457 -0.445255 -0.965588
H -0.069833 -0.186372 -0.201003
O 1.993179 0.340282 0.324703
H 1.999747 0.268703 1.281218
H 2.199528 1.251292 0.106602
6
Structure 305 | Energy: -10.144357 Hartree
O -0.236022 -0.839305 -1.820073
H 0.031391 -0.785022 -0.900492
H -0.092943 0.025753 -2.209038
O -1.287253 0.506382 0.938790
H -0.875644 0.680245 1.787576
H -2.234624 0.597014 1.058629
6
Structure 306 | Energy: -10.144355 Hartree
O -0.593784 -0.771974 -1.621465
H 0.159852 -0.249786 -1.903314
H -0.841065 -0.464893 -0.747026
O -0.346472 -0.197910 2.136224
H -0.124485 -0.224707 3.069011
H -0.341319 -1.102399 1.816910
6
Structure 307 | Energy: -10.144342 Hartree
O -1.836221 -0.085744 -1.012644
H -1.672159 -1.006278 -0.798664
H -2.582289 0.200601 -0.482096
O 0.437991 1.065025 1.406139
H 0.485659 0.752379 0.500563
H 0.654120 1.999513 1.395769
6
Structure 308 | Energy: -10.144329 Hartree
O 1.077588 -1.718747 0.307243
H 2.026661 -1.603978 0.228660
H 0.665146 -1.089592 -0.287858
O -1.542875 0.276899 -0.873858
H -1.707744 -0.554917 -0.425542
H -1.728584 0.139507 -1.804838
6
Structure 309 | Energy: -10.144320 Hartree
O 0.638523 1.285903 -0.521955
H -0.011563 0.982733 0.114883
H 0.600982 0.689311 -1.272128
O -0.727677 -1.176973 0.808660
H -0.248619 -0.724986 1.506011
H -1.641693 -1.246833 1.091117
6
Structure 310 | Energy: -10.144318 Hartree
O 0.812529 -1.902367 -0.264016
H -0.058527 -2.299260 -0.202186
H 0.694833 -0.951262 -0.223551
O 0.738600 1.813267 0.735539
H 1.379128 2.259387 0.178054
H 0.481877 2.430606 1.423342
6
Structure 311 | Energy: -10.144314 Hartree
O -0.034392 -0.636136 -0.609610
H 0.089791 0.306212 -0.480594
H 0.311877 -1.077431 0.168495
O -1.181088 1.095913 1.598288
H -1.938240 0.510844 1.665384
H -1.287567 1.607143 0.793679
6
Structure 312 | Energy: -10.144314 Hartree
O -0.964351 -0.919569 -1.565920
H -0.151606 -0.436629 -1.403743
H -0.866054 -1.365988 -2.409210
O -1.287670 0.882824 0.932335
H -1.740198 1.425002 0.283222
H -1.840361 0.116382 1.097223
6
Structure 313 | Energy: -10.144300 Hartree
O -0.528666 -1.731615 -1.208379
H 0.167454 -2.316731 -1.513572
H -0.201859 -1.286139 -0.424263
O 1.216233 0.814727 1.231363
H 0.906065 1.143554 2.077386
H 1.061117 1.505349 0.584008
6
Structure 314 | Energy: -10.144297 Hartree
O 1.396081 1.532987 0.570302
H 0.897182 0.773735 0.262532
H 1.986469 1.224188 1.260357
O -0.722133 -0.760406 0.010285
H -0.231633 -0.765914 -0.814012
H -1.236386 -1.569563 0.040234
6
Structure 315 | Energy: -10.144297 Hartree
O 0.292766 -1.326767 1.377504
H 0.627048 -0.541860 0.939026
H -0.145711 -1.859434 0.711100
O 1.348382 1.084544 -1.419182
H 1.474906 1.866087 -1.960726
H 2.218167 0.730271 -1.224110
6
Structure 316 | Energy: -10.144278 Hartree
O 1.635923 -1.267844 -0.458759
H 2.305772 -1.945041 -0.571867
H 1.626026 -1.030512 0.470578
O -0.748060 0.185015 1.621261
H -0.223392 -0.206402 0.920117
H -1.637983 -0.163189 1.538323
6
Structure 317 | Energy: -10.144275 Hartree
O 1.203845 0.477932 1.325649
H 0.959270 -0.045384 0.559875
H 0.499191 0.385272 1.969829
O -1.736895 1.252422 0.370006
H -1.566266 1.710499 -0.455305
H -1.020187 1.470160 0.969178
6
Structure 318 | Energy: -10.144271 Hartree
O 1.434376 -0.130422 -0.083094
H 1.221048 0.347236 -0.887097
H 2.170046 0.324903 0.331104
O -1.375426 -0.563869 -1.713284
H -0.751351 -0.814253 -1.029233
H -1.382984 0.394452 -1.753932
6
Structure 319 | Energy: -10.144271 Hartree
O -2.069077 0.433421 0.670170
H -1.533423 0.493772 -0.123252
H -2.077636 1.303455 1.073975
O 0.432491 -1.228577 -0.884727
H 0.496047 -1.422095 -1.822063
H -0.367176 -1.648349 -0.561598
6
Structure 320 | Energy: -10.144268 Hartree
O -1.531133 -1.578408 -0.773420
H -0.765703 -1.462009 -0.207156
H -2.202410 -2.026529 -0.255091
O 0.023563 1.244069 1.125405
H -0.350915 1.464370 0.270232
H 0.429452 2.041230 1.471638
6
Structure 321 | Energy: -10.144265 Hartree
O 0.018699 0.718160 -1.559407
H -0.333411 1.217298 -2.298978
H 0.938714 0.530612 -1.755593
O -1.139194 -1.397219 0.917150
H -0.774733 -1.005249 0.121150
H -1.066509 -2.349125 0.823987
6
Structure 322 | Energy: -10.144257 Hartree
O -0.312780 0.991505 -0.953708
H 0.265841 0.569761 -0.315417
H -0.176726 0.551093 -1.794908
O -1.173265 -1.405049 0.736713
H -1.810561 -0.748864 1.025439
H -1.222258 -2.138835 1.352542
6
Structure 323 | Energy: -10.144256 Hartree
O -0.179873 1.113351 -0.088386
H -0.618706 1.816972 0.393724
H 0.636440 0.917311 0.375611
O -0.696396 -1.269876 1.069388
H -1.261906 -0.707266 0.536701
H -1.154400 -2.104651 1.185448
6
Structure 324 | Energy: -10.144251 Hartree
O 0.153523 0.606377 0.576549
H -0.320277 0.983032 1.320679
H -0.500487 0.228931 -0.014972
O 1.222308 -0.593699 -1.662885
H 1.843968 0.123407 -1.802114
H 1.562601 -1.128947 -0.943302
6
Structure 325 | Energy: -10.144247 Hartree
O -1.110607 -1.238750 -0.920820
H -1.633990 -0.434925 -0.916157
H -0.218835 -0.998567 -0.661692
O -0.570916 0.365592 1.994531
H -0.966824 -0.293487 2.568080
H -0.527512 1.185094 2.491140
6
Structure 326 | Energy: -10.144245 Hartree
O -1.279489 1.633887 -0.124570
H -1.382792 1.371358 0.792214
H -0.840157 0.912312 -0.578892
O 0.859751 -1.008190 1.160281
H 1.585610 -1.628549 1.068792
H 0.902647 -0.649852 2.049011
6
Structure 327 | Energy: -10.144243 Hartree
O 0.940357 -1.833438 1.164368
H 1.527771 -1.254527 0.674579
H 0.071032 -1.759206 0.765800
O 1.089516 1.611224 -0.078042
H 0.186649 1.808146 0.179134
H 1.626849 2.365710 0.171183
6
Structure 328 | Energy: -10.144233 Hartree
O -0.725526 -0.903617 1.063396
H -1.332869 -1.285395 1.700158
H -0.238224 -0.211800 1.515079
O 0.654586 1.081786 -1.942186
H 0.157874 0.629685 -1.257372
H 1.464390 0.586418 -2.079723
6
Structure 329 | Energy: -10.144231 Hartree
O 0.713091 0.230042 -0.522491
H -0.013512 0.632089 -0.042395
H 1.499522 0.328432 0.017820
O -1.053153 -1.537072 1.183542
H -1.157321 -2.070801 0.393372
H -0.212693 -1.776274 1.579141
6
Structure 330 | Energy: -10.144213 Hartree
O 0.150972 1.661425 -1.313662
H -0.115081 1.166721 -0.536121
H 0.076358 1.070525 -2.065567
O -0.992358 -0.322064 2.027283
H -0.821022 0.447108 2.574189
H -1.506346 -0.936750 2.554602
6
Structure 331 | Energy: -10.144212 Hartree
O -0.320628 0.306042 -1.767478
H 0.502242 0.188205 -1.288850
H -0.100857 0.369148 -2.699041
O 1.476256 -0.397902 1.147193
H 2.175958 -1.047223 1.241461
H 0.661379 -0.814727 1.434108
6
Structure 332 | Energy: -10.144208 Hartree
O 1.372334 -0.459979 -0.352408
H 1.855821 -0.318176 -1.168630
H 1.948505 -0.949906 0.237583
O -0.365618 1.896709 1.128180
H -0.800156 1.049218 1.242298
H -0.107300 1.961682 0.206693
6
Structure 333 | Energy: -10.144205 Hartree
O 0.595674 -0.764715 1.716519
H 0.154530 -0.752100 0.864863
H 0.444221 0.088643 2.127533
O -1.829490 0.346861 -0.989122
H -1.289587 0.203616 -1.768912
H -2.482259 1.012756 -1.213988
6
Structure 334 | Energy: -10.144203 Hartree
O 1.595309 0.165087 1.173207
H 1.676565 0.987056 0.685509
H 1.964277 -0.529020 0.623507
O -1.331560 0.253744 0.740452
H -1.512294 -0.191371 -0.089786
H -0.660701 -0.257840 1.196871
6
Structure 335 | Energy: -10.144200 Hartree
O 1.008151 0.135822 1.722155
H 0.833293 -0.713653 1.312396
H 0.774676 0.057444 2.649213
O -0.929419 -0.396658 -0.865021
H -1.037404 0.058368 -0.027538
H -1.346735 0.144453 -1.538174
6
Structure 336 | Energy: -10.144196 Hartree
O -1.508524 -1.394656 -0.516597
H -0.819682 -0.814727 -0.847149
H -2.054842 -1.642230 -1.265153
O 1.317310 0.527996 0.560786
H 0.512053 0.990875 0.800351
H 1.645960 0.100513 1.354094
6
Structure 337 | Energy: -10.144196 Hartree
O 1.497565 0.597331 0.401020
H 0.579263 0.595305 0.123886
H 1.794590 1.509366 0.393294
O -0.856225 -0.605696 -0.985022
H -1.036466 -1.460665 -1.380787
H -1.432221 -0.518318 -0.222997
6
Structure 338 | Energy: -10.144188 Hartree
O 0.110687 -0.754403 1.659844
H 0.312768 -1.650715 1.935297
H 0.709143 -0.170876 2.130415
O -0.314126 1.539687 -1.023696
H -0.865032 0.767363 -0.881899
H 0.293181 1.595217 -0.283302
6
Structure 339 | Energy: -10.144183 Hartree
O 0.118960 -1.801790 1.125845
H 0.993250 -1.527994 1.409991
H 0.208152 -2.670965 0.730029
O -0.841271 1.275592 -0.105765
H -1.619986 1.818265 0.032778
H -1.114351 0.359992 -0.020958
6
Structure 340 | Energy: -10.144180 Hartree
O -0.731275 1.344936 -0.491352
H -0.893656 0.714183 0.212829
H -0.352007 2.128655 -0.088821
O -0.793248 -1.730514 1.052846
H -0.654215 -2.593135 0.657064
H -1.171170 -1.874622 1.922613
6
Structure 341 | Energy: -10.144178 Hartree
O -0.328438 2.212052 0.141978
H 0.376054 2.415352 0.760400
H -0.280001 1.272467 -0.044903
O 0.776304 -1.406782 -1.069575
H 0.413807 -2.293795 -1.026076
H 1.567990 -1.449621 -1.609469
6
Structure 342 | Energy: -10.144176 Hartree
O 1.695168 -0.285273 -0.915550
H 1.746691 -0.191797 0.037704
H 1.002672 0.303636 -1.221697
O 0.246047 0.386333 2.200517
H -0.186901 0.119811 3.013910
H 1.086723 0.780070 2.442021
6
Structure 343 | Energy: -10.144175 Hartree
O -1.807983 1.037597 -0.385318
H -2.222172 0.993560 -1.249375
H -1.694964 1.965814 -0.171469
O 0.735895 -1.428673 0.834211
H -0.088082 -0.963494 0.991555
H 1.354813 -0.794121 0.467643
6
Structure 344 | Energy: -10.144173 Hartree
O 1.268806 -0.986391 -0.052445
H 1.829960 -0.994104 -0.830348
H 0.567716 -0.352047 -0.214222
O -0.473882 -0.198137 -2.162587
H 0.258014 -0.232109 -2.781669
H -1.251219 0.070530 -2.656200
6
Structure 345 | Energy: -10.144171 Hartree
O 1.258593 1.061439 1.310305
H 1.455000 0.498200 0.559124
H 0.457906 1.546085 1.100279
O -0.845475 -0.635733 -0.135296
H -1.252024 -1.197521 -0.798018
H -1.554178 -0.247816 0.381762
6
Structure 346 | Energy: -10.144171 Hartree
O -0.490775 0.142697 1.797551
H -0.465521 -0.511065 2.499009
H -1.332999 0.597091 1.862943
O 0.563211 -1.059475 -1.085986
H 1.213902 -0.565727 -0.583092
H -0.016739 -1.489941 -0.454761
6
Structure 347 | Energy: -10.144168 Hartree
O -1.074947 0.039441 -1.174992
H -1.233657 -0.096448 -0.238813
H -0.128296 0.142271 -1.290620
O 2.165483 -0.592377 0.295232
H 2.943605 -0.292949 0.769528
H 2.447413 -0.834089 -0.589177
6
Structure 348 | Energy: -10.144165 Hartree
O -0.382082 -1.406901 0.357969
H -1.221553 -1.500567 0.812504
H -0.277102 -0.477797 0.143876
O 1.383163 0.275740 -1.569350
H 2.090975 -0.358542 -1.439828
H 1.612546 0.804754 -2.335911
6
Structure 349 | Energy: -10.144159 Hartree
O 0.663980 0.046944 -1.314462
H -0.251505 0.297398 -1.453192
H 0.767831 -0.143815 -0.380162
O 0.938994 -1.846376 1.086528
H 0.102510 -1.786754 0.620882
H 1.615910 -2.029906 0.432166
6
Structure 350 | Energy: -10.144152 Hartree
O -0.716950 1.399687 -0.028259
H -0.477398 1.877998 0.767932
H -0.852076 0.483260 0.220728
O 0.632716 -1.618773 -1.491641
H 1.280638 -2.222649 -1.859906
H 0.740188 -0.778195 -1.941047
6
Structure 351 | Energy: -10.144150 Hartree
O -0.831028 0.347899 0.134627
H -0.415901 0.060900 -0.681085
H -1.157329 1.238134 -0.010630
O 1.907957 -0.284034 0.455734
H 2.209521 0.313957 1.142431
H 1.439881 -1.000706 0.888601
6
Structure 352 | Energy: -10.144141 Hartree
O -0.440465 1.599943 0.106286
H -0.186502 0.838260 0.631099
H -0.401480 2.366783 0.681201
O -1.015102 -1.684684 -1.135989
H -0.809667 -0.764279 -1.311313
H -1.581950 -1.706858 -0.362503
6
Structure 353 | Energy: -10.144135 Hartree
O -0.495321 -1.126467 0.004538
H -0.372678 -1.811200 0.664981
H -0.203484 -0.300130 0.394524
O 0.043219 2.200990 -0.311723
H 0.772056 2.809965 -0.177435
H 0.316747 1.574602 -0.984709
6
Structure 354 | Energy: -10.144131 Hartree
O -1.515402 0.232164 -0.369561
H -2.184906 -0.213392 0.153249
H -0.780061 0.425090 0.215370
O 0.954952 -1.884797 -0.879676
H 0.246534 -1.815182 -1.522626
H 1.687783 -2.328296 -1.311364
6
Structure 355 | Energy: -10.144130 Hartree
O 0.508506 0.392049 0.936090
H -0.448181 0.454382 0.905261
H 0.857420 1.119348 0.417066
O -0.099616 -1.043633 -1.963875
H 0.688687 -0.833543 -1.459368
H 0.177869 -1.562353 -2.721515
6
Structure 356 | Energy: -10.144115 Hartree
O -1.792634 0.374117 -0.947635
H -1.415335 0.038720 -1.763258
H -1.203649 0.117198 -0.235470
O 1.446692 -1.087795 -1.286497
H 1.743575 -1.999778 -1.301796
H 1.830822 -0.677015 -0.509456
6
Structure 357 | Energy: -10.144115 Hartree
O 0.173443 0.145484 2.310010
H 0.270377 -0.715718 2.721133
H -0.667331 0.146808 1.848287
O -1.070589 -0.935871 -0.410795
H -1.154794 -1.188462 -1.332312
H -1.008355 0.020918 -0.383065
6
Structure 358 | Energy: -10.144113 Hartree
O -1.312508 1.654691 -0.884078
H -1.015266 1.343759 -0.026725
H -1.626610 0.889862 -1.370356
O -1.387118 -1.599392 0.304426
H -1.424731 -1.706422 1.256906
H -0.482344 -1.769332 0.034995
6
Structure 359 | Energy: -10.144106 Hartree
O -0.816369 0.253160 -1.303319
H -0.304303 1.027552 -1.544546
H -0.217116 -0.361712 -0.875628
O 1.757155 -0.273812 1.098138
H 2.032442 0.422091 1.698158
H 0.853058 -0.501843 1.323303
6
Structure 360 | Energy: -10.144104 Hartree
O -0.123372 0.345023 -1.511197
H 0.628835 0.704129 -1.985869
H 0.068619 -0.577286 -1.330705
O -0.442525 -0.330161 2.140900
H -1.289456 -0.756077 1.994643
H -0.199923 0.108065 1.322860
6
Structure 361 | Energy: -10.144101 Hartree
O -1.939150 0.585782 0.948245
H -1.254823 -0.081333 1.030338
H -1.509739 1.402417 0.685938
O 0.277576 -1.369919 -0.859291
H -0.541722 -1.635427 -0.436985
H 0.224329 -1.640606 -1.777976
6
Structure 362 | Energy: -10.144101 Hartree
O 0.423161 0.695100 -0.394591
H 0.010314 1.470261 -0.008887
H -0.276320 0.160667 -0.775640
O -2.110205 -0.787269 0.472024
H -1.316742 -0.443867 0.887449
H -1.845631 -1.528174 -0.076745
6
Structure 363 | Energy: -10.144095 Hartree
O 1.090201 -1.101503 -0.244884
H 0.526672 -1.686905 -0.754615
H 1.453812 -0.455785 -0.853921
O -0.762561 0.425840 2.200677
H -1.222583 0.061953 1.441695
H 0.171925 0.443141 1.984982
6
Structure 364 | Energy: -10.144087 Hartree
O -2.021470 -0.744526 0.513447
H -2.143974 -1.694379 0.566910
H -2.885084 -0.354698 0.364130
O -0.281897 0.847383 -0.906314
H 0.350803 1.025186 -0.207627
H -0.515033 -0.081290 -0.848841
6
Structure 365 | Energy: -10.144078 Hartree
O -0.263719 1.082826 -0.080381
H -0.310460 1.356790 -0.998446
H -0.847173 0.328234 0.020925
O 0.873425 -1.159169 1.793645
H 1.510328 -1.741066 2.212977
H 1.189639 -0.261066 1.909866
6
Structure 366 | Energy: -10.144078 Hartree
O -1.390865 -0.721716 0.306780
H -1.003217 -1.233497 1.019447
H -0.669492 -0.304951 -0.168634
O 1.846575 -0.539328 -0.508864
H 2.074667 -0.422214 0.415445
H 1.884291 -1.479789 -0.693793
6
Structure 367 | Energy: -10.144076 Hartree
O -1.901611 -0.321301 0.300220
H -2.843880 -0.472689 0.203793
H -1.761159 0.626909 0.264688
O 0.746505 1.125188 -0.542473
H 1.030753 0.274680 -0.201991
H 1.373348 1.383386 -1.221067
6
Structure 368 | Energy: -10.144076 Hartree
O -0.599821 -1.049356 -0.529544
H -0.236298 -0.832099 -1.390204
H -0.782228 -0.221334 -0.080993
O -0.054849 1.507494 -1.037108
H -0.650433 2.197248 -0.737763
H 0.747863 1.579872 -0.517009
6
Structure 369 | Energy: -10.144062 Hartree
O -1.349205 -0.198703 -1.517855
H -1.103285 -0.919681 -2.100780
H -1.989535 0.339954 -1.986808
O -0.600192 0.878107 1.456550
H -0.716932 1.301050 0.603568
H -1.353318 0.299780 1.592299
6
Structure 370 | Energy: -10.144057 Hartree
O -0.990144 -1.583120 -0.580065
H -1.784854 -1.287890 -1.028798
H -0.594471 -0.813108 -0.167011
O -0.744999 1.194613 0.622967
H -1.075438 2.062627 0.862652
H -0.501000 1.229572 -0.304034
6
Structure 371 | Energy: -10.144052 Hartree
O -0.958874 -0.256862 0.220343
H -0.861667 -0.688055 -0.630956
H -1.881555 -0.010569 0.310293
O 2.049927 0.594952 -0.486879
H 1.966545 1.544946 -0.590057
H 1.777544 0.381393 0.407710
6
Structure 372 | Energy: -10.144043 Hartree
O -0.431636 0.701494 -1.291584
H -0.161289 0.185216 -0.529708
H -0.317866 0.146533 -2.065642
O 1.082566 -1.863263 0.305363
H 0.858077 -2.429671 1.046224
H 0.717881 -2.269385 -0.483406
6
Structure 373 | Energy: -10.144041 Hartree
O -0.414749 -0.713760 -2.129885
H 0.398527 -0.817758 -1.632037
H -0.285202 0.018444 -2.735844
O 1.144532 0.834060 0.453286
H 1.751053 1.574314 0.518429
H 0.707126 0.749612 1.302775
6
Structure 374 | Energy: -10.144038 Hartree
O -0.209991 -0.488582 0.749462
H -0.093896 -1.201671 1.380424
H 0.657924 -0.118983 0.575650
O 0.466958 0.069268 -1.691984
H 0.191178 0.845034 -1.199825
H -0.139721 -0.639344 -1.468609
6
Structure 375 | Energy: -10.144037 Hartree
O 0.220752 -1.700653 0.364777
H -0.426064 -2.159280 -0.175016
H 0.401214 -0.860175 -0.060806
O 0.725337 0.089688 -2.216797
H -0.070098 -0.222384 -2.652665
H 1.288862 -0.673257 -2.073825
6
Structure 376 | Energy: -10.144034 Hartree
O 1.553706 -0.975630 -0.211628
H 1.394824 -0.066625 0.050198
H 1.286824 -1.057695 -1.129304
O -1.034042 0.074764 -0.657919
H -1.632789 -0.673373 -0.701290
H -1.560035 0.867151 -0.782584
6
Structure 377 | Energy: -10.144030 Hartree
O 0.243082 -0.049228 1.646294
H 0.481384 0.197505 2.542073
H 0.407808 -0.990005 1.557433
O -1.240995 0.439160 -1.542612
H -1.962484 1.061210 -1.654839
H -0.634341 0.819885 -0.904563
6
Structure 378 | Energy: -10.144024 Hartree
O 0.937673 -1.106118 -0.320555
H 1.136229 -0.206322 -0.587067
H 1.257085 -1.213405 0.577530
O -0.954524 0.806329 1.240435
H -0.822579 0.442565 0.362737
H -0.716977 0.122665 1.869929
6
Structure 379 | Energy: -10.144023 Hartree
O -0.965608 -0.830304 0.736997
H -1.711052 -1.422003 0.856546
H -0.771902 -0.441107 1.592037
O 0.526173 1.320692 -0.390866
H 1.029777 1.400921 0.421559
H 0.425714 0.384009 -0.571475
6
Structure 380 | Energy: -10.144019 Hartree
O -1.230305 0.053461 -1.332031
H -1.982688 0.076321 -0.737487
H -0.569643 -0.515651 -0.932371
O 1.827353 -0.386989 0.341030
H 2.306301 -0.521648 -0.479069
H 2.406063 -0.659183 1.055938
6
Structure 381 | Energy: -10.144017 Hartree
O -1.537497 1.495714 0.116787
H -0.763745 1.618538 -0.436665
H -1.504812 0.598995 0.455781
O 0.260749 -0.841326 -0.085441
H -0.236447 -1.635078 -0.292424
H 0.478485 -0.417374 -0.917873
6
Structure 382 | Energy: -10.144014 Hartree
O 0.108592 0.071689 0.944194
H 0.842640 0.196998 1.548806
H 0.177979 -0.818542 0.593813
O 1.295143 -0.720013 -1.622497
H 0.442015 -1.117450 -1.437287
H 1.187918 0.230296 -1.548310
6
Structure 383 | Energy: -10.144012 Hartree
O 0.787257 0.267692 0.680994
H 0.055317 0.806987 0.375199
H 0.621769 -0.629722 0.385441
O -0.412838 -1.733747 -1.318734
H 0.127590 -1.668106 -2.108491
H 0.053335 -2.301465 -0.701914
6
Structure 384 | Energy: -10.144008 Hartree
O -0.699576 -2.192525 -0.172280
H -0.733635 -1.588302 0.571925
H -1.009108 -3.045144 0.139683
O 1.058489 0.738673 1.625244
H 1.758622 1.333487 1.901101
H 1.429539 0.150050 0.964992
6
Structure 385 | Energy: -10.144006 Hartree
O -1.570607 0.390861 1.238806
H -1.505106 -0.504398 0.900712
H -0.681530 0.749853 1.266343
O 1.181352 -0.622696 -0.681086
H 1.919152 -0.214482 -0.223812
H 1.055976 -0.143450 -1.502483
6
Structure 386 | Energy: -10.144000 Hartree
O -0.874676 -1.952398 0.908497
H -0.629841 -2.021902 1.833328
H -1.605398 -1.333406 0.853853
O -0.218175 0.990563 -1.399698
H -0.226011 0.069801 -1.130954
H -0.647025 1.040122 -2.256272
6
Structure 387 | Energy: -10.143990 Hartree
O -0.127170 1.036549 0.703882
H -0.632999 0.257085 0.941915
H -0.527010 1.783119 1.154274
O 0.474185 -0.800207 -2.025382
H -0.264504 -0.191795 -1.960106
H 1.277282 -0.280899 -1.951608
6
Structure 388 | Energy: -10.143988 Hartree
O 1.365740 -0.522793 1.336207
H 1.202983 -0.721112 0.411942
H 2.239525 -0.131189 1.393104
O -1.029084 1.329231 -0.519033
H -1.534019 0.515504 -0.573594
H -0.987655 1.576282 0.406893
6
Structure 389 | Energy: -10.143987 Hartree
O -1.056503 -0.582256 -1.378913
H -1.007626 -0.821487 -0.451300
H -0.173236 -0.671471 -1.742190
O 1.336747 0.984039 0.873346
H 1.654192 1.687943 1.442410
H 1.154055 1.372733 0.015658
6
Structure 390 | Energy: -10.143986 Hartree
O -1.746670 0.287576 0.212127
H -1.614594 0.782728 -0.598716
H -2.413039 -0.378662 0.032764
O 0.999638 -1.811775 -1.078711
H 0.188965 -1.521459 -0.656084
H 1.562912 -2.175776 -0.392917
6
Structure 391 | Energy: -10.143981 Hartree
O 1.550510 -1.632442 -0.541452
H 1.363377 -1.326623 -1.431139
H 1.455778 -2.586964 -0.543383
O -1.164832 0.048177 1.011266
H -0.999885 -0.818208 0.634098
H -0.367703 0.567573 0.889193
6
Structure 392 | Energy: -10.143980 Hartree
O 0.107111 -1.345584 0.496735
H 0.194030 -0.887660 1.335089
H 0.918860 -1.198611 0.007294
O -1.139886 0.616510 -1.890284
H -1.430329 -0.070990 -1.287728
H -0.212011 0.779228 -1.709567
6
Structure 393 | Energy: -10.143979 Hartree
O 0.277161 1.887922 1.361276
H 1.089752 1.503246 1.026903
H 0.015597 2.577149 0.747565
O 1.144596 -0.731877 -0.149708
H 0.209734 -0.946361 -0.160529
H 1.487114 -0.910138 -1.027770
6
Structure 394 | Energy: -10.143958 Hartree
O 0.246966 0.575464 -1.495754
H 0.986081 0.982891 -1.951603
H 0.426485 0.633313 -0.555266
O -0.108973 -0.501863 2.180988
H -0.944397 -0.097252 2.422741
H -0.254578 -0.990444 1.368477
6
Structure 395 | Energy: -10.143955 Hartree
O 1.159564 -1.086919 1.519397
H 1.305627 -1.740733 2.205895
H 1.537995 -1.435613 0.709896
O -0.936603 1.017333 -0.929593
H -0.613367 1.646682 -0.281885
H -1.010393 0.168614 -0.488776
6
Structure 396 | Energy: -10.143946 Hartree
O 0.622421 -0.872814 -1.856618
H -0.149899 -0.304022 -1.865708
H 0.462605 -1.558429 -1.205095
O -2.077356 0.495755 0.716319
H -3.026319 0.506415 0.855756
H -1.708117 1.224165 1.219478
6
Structure 397 | Energy: -10.143945 Hartree
O 2.127150 0.580912 -0.397497
H 2.257453 -0.189537 0.158844
H 2.765930 0.527325 -1.111065
O -0.135599 -0.014146 1.819057
H -1.032389 -0.178197 2.117288
H -0.181305 0.198063 0.884730
6
Structure 398 | Energy: -10.143941 Hartree
O -0.466969 -1.523420 -1.735359
H -0.659779 -0.829207 -2.368587
H -0.139683 -1.099250 -0.939712
O -0.888450 0.555261 0.050685
H -0.411677 0.244923 0.822996
H -1.171325 1.453414 0.233419
6
Structure 399 | Energy: -10.143934 Hartree
O 1.370307 -0.438801 -0.960393
H 1.408087 -1.236331 -0.428787
H 0.828049 0.193871 -0.485237
O 0.706828 -1.352452 1.741926
H 0.701110 -0.528782 2.233477
H -0.153377 -1.441584 1.326967
6
Structure 400 | Energy: -10.143932 Hartree
O 0.377471 0.825122 -0.162736
H 0.705538 -0.047406 0.063434
H 1.033539 1.460225 0.131049
O -1.461122 -1.620106 -0.814022
H -1.213728 -2.296723 -1.447324
H -1.470566 -0.782848 -1.281996
6
Structure 401 | Energy: -10.143931 Hartree
O -1.059781 1.979734 0.707649
H -0.293625 1.459662 0.957883
H -0.757699 2.654682 0.096680
O 0.975066 -0.421225 -1.076508
H 1.336627 -0.102535 -1.905843
H 0.026129 -0.500313 -1.192061
6
Structure 402 | Energy: -10.143927 Hartree
O -0.189919 -0.839813 -1.269458
H -0.256821 -0.531617 -2.175341
H -0.404929 -1.774618 -1.270842
O 0.912513 0.235416 2.050686
H 0.481186 0.551452 1.254341
H 1.847367 0.151230 1.853079
6
Structure 403 | Energy: -10.143909 Hartree
O -1.721990 0.432751 -1.425560
H -1.168410 1.175040 -1.675844
H -1.216570 -0.104477 -0.812348
O 1.568029 -0.978192 -0.909925
H 1.499148 -0.750687 -1.839218
H 2.466410 -0.783756 -0.635711
6
Structure 404 | Energy: -10.143908 Hartree
O 0.406925 -1.699149 -1.161753
H 1.071538 -1.182555 -0.701857
H 0.857979 -2.436266 -1.578047
O -0.771682 0.693647 1.081134
H -1.658050 0.811158 0.733814
H -0.638128 -0.247950 1.206217
6
Structure 405 | Energy: -10.143902 Hartree
O 1.058700 -1.060598 0.210092
H 0.999577 -1.929142 0.612860
H 0.650079 -0.438493 0.815159
O -1.408542 0.985263 0.928530
H -2.277758 0.954752 1.333029
H -1.140276 1.905781 0.900834
6
Structure 406 | Energy: -10.143902 Hartree
O -0.285162 -1.144263 2.031148
H -0.308762 -0.885441 1.107816
H 0.607129 -1.441196 2.220196
O -0.969286 0.799348 -1.452616
H -0.675321 1.419828 -2.122449
H -1.928221 0.791216 -1.474217
6
Structure 407 | Energy: -10.143902 Hartree
O 0.094105 -0.385675 1.458102
H 0.618275 -0.283645 2.254922
H -0.828343 -0.364671 1.720284
O -1.773377 1.298264 -0.421478
H -1.098392 0.681176 -0.710764
H -2.620059 0.944922 -0.701421
6
Structure 408 | Energy: -10.143900 Hartree
O 1.022613 -1.748296 -0.935648
H 1.933520 -2.022389 -0.812324
H 0.864034 -1.013283 -0.340081
O -0.291396 1.884222 0.219623
H -0.467351 2.781904 -0.068984
H -0.792075 1.298798 -0.351942
6
Structure 409 | Energy: -10.143885 Hartree
O 0.141733 -1.659786 0.976421
H 0.467343 -1.903617 0.107737
H 0.895358 -1.649791 1.569751
O -0.076481 0.769582 -0.382000
H -0.615539 -0.007221 -0.543492
H -0.571752 1.341430 0.207733
6
Structure 410 | Energy: -10.143884 Hartree
O -0.452162 0.687157 0.361265
H 0.350251 1.021031 -0.044626
H -0.193180 0.210071 1.152092
O 0.272104 -0.921167 -1.866535
H -0.506127 -0.500006 -2.236760
H 0.015222 -1.804798 -1.595800
6
Structure 411 | Energy: -10.143882 Hartree
O 2.034253 -0.233114 0.386490
H 1.148831 -0.054036 0.063930
H 2.454431 0.613904 0.548051
O -1.237496 1.501251 -0.876987
H -0.752261 2.242791 -1.244074
H -2.020648 1.378874 -1.417158
6
Structure 412 | Energy: -10.143873 Hartree
O 0.996426 1.186289 0.262469
H 1.667858 1.658042 0.759171
H 0.799508 1.709608 -0.516923
O -1.131711 -1.536897 -0.937158
H -0.863341 -0.626941 -0.795582
H -1.577518 -1.828934 -0.139626
6
Structure 413 | Energy: -10.143858 Hartree
O 0.123870 -0.819423 -1.940178
H -0.370819 -0.332784 -2.602410
H 0.757470 -1.368839 -2.405780
O -0.067775 0.416133 1.288516
H 0.056896 1.067748 0.595737
H 0.424836 -0.366647 1.034197
6
Structure 414 | Energy: -10.143858 Hartree
O -1.029000 1.239716 0.037926
H -1.241778 2.144758 0.273958
H -1.640378 0.974891 -0.652129
O 0.994362 -1.532611 -0.544461
H 1.881952 -1.417023 -0.889294
H 0.866848 -0.871762 0.138991
6
Structure 415 | Energy: -10.143858 Hartree
O -1.045676 1.247038 -1.668341
H -1.426752 1.224593 -0.788362
H -0.305120 0.637408 -1.672819
O 1.323493 -0.314826 0.304543
H 1.847383 -1.062147 0.599733
H 0.631636 -0.178395 0.954781
6
Structure 416 | Energy: -10.143854 Hartree
O -1.824678 0.325004 0.962957
H -0.920506 0.010968 1.025730
H -1.967569 0.599746 0.055108
O -0.880214 -1.782133 -1.114024
H -0.446276 -1.598558 -1.949540
H -1.418432 -2.566107 -1.239696
6
Structure 417 | Energy: -10.143851 Hartree
O 2.015623 -0.818370 -0.786572
H 1.346497 -0.228334 -0.434130
H 2.058579 -1.579319 -0.204162
O -1.142877 -0.292840 -1.080880
H -0.620447 -0.744237 -1.746759
H -1.233422 -0.891495 -0.336904
6
Structure 418 | Energy: -10.143848 Hartree
O 0.272981 -1.513290 -0.004778
H -0.549901 -1.510394 0.488114
H 0.285175 -0.718643 -0.541879
O -0.885947 0.849823 1.674067
H -0.067529 1.011026 1.200471
H -0.722484 0.130284 2.286954
6
Structure 419 | Energy: -10.143838 Hartree
O -0.765731 -0.539040 1.173378
H -0.951808 -0.434808 2.108577
H -1.526373 -0.970044 0.778725
O 0.022198 1.710290 -1.372789
H 0.626631 1.496527 -0.659309
H -0.865432 1.685926 -1.010013
6
Structure 420 | Energy: -10.143837 Hartree
O 0.771874 0.221423 -0.048473
H -0.174146 0.074629 -0.108339
H 0.916951 0.854825 0.657109
O -0.167912 -1.933600 -1.222694
H -0.469598 -2.504429 -1.932079
H 0.762709 -1.758346 -1.375397
6
Structure 421 | Energy: -10.143830 Hartree
O -0.780746 1.587502 0.113707
H -0.172111 2.195976 0.537274
H -1.064800 1.995046 -0.706849
O 1.688745 0.058189 1.255570
H 1.022121 0.195689 0.579705
H 1.792918 0.888264 1.724837
6
Structure 422 | Energy: -10.143826 Hartree
O 0.919189 0.725879 1.781865
H 0.025233 0.417166 1.621786
H 1.202989 0.352719 2.618704
O 0.331329 -0.527526 -0.786112
H 1.285103 -0.440554 -0.732832
H 0.082491 -0.372054 -1.699346
6
Structure 423 | Energy: -10.143825 Hartree
O 0.962011 1.008086 0.956537
H 0.205634 1.095377 1.539941
H 1.094451 1.858931 0.533911
O -1.106865 -0.928365 -1.286495
H -0.695879 -1.142676 -0.446704
H -0.485541 -1.169163 -1.976466
6
Structure 424 | Energy: -10.143824 Hartree
O -1.210871 -1.058925 -1.605245
H -1.733719 -0.788980 -0.847719
H -0.537051 -1.661836 -1.285002
O 0.437108 0.697969 0.841221
H -0.024507 1.525756 0.693682
H 1.374977 0.874651 0.744923
6
Structure 425 | Energy: -10.143823 Hartree
O -0.212302 1.861849 -1.210256
H -0.099901 2.783274 -0.968533
H 0.527150 1.378055 -0.837102
O -1.000524 -1.400024 0.085161
H -1.735910 -0.786800 0.028144
H -0.995034 -1.913118 -0.725266
6
Structure 426 | Energy: -10.143818 Hartree
O -0.340391 0.324919 2.127791
H -0.361568 1.203639 2.511836
H 0.141179 0.387968 1.300624
O 1.349787 -0.351131 -1.034004
H 1.985437 -0.914843 -1.479275
H 1.111035 -0.785625 -0.212846
6
Structure 427 | Energy: -10.143816 Hartree
O -0.574841 1.219578 0.664164
H -1.379038 1.394143 1.156993
H -0.829945 0.779642 -0.149143
O -0.458909 -2.095550 -0.156705
H -0.924732 -2.473230 0.591930
H 0.476589 -2.257973 -0.020507
6
Structure 428 | Energy: -10.143815 Hartree
O 0.576522 0.122233 0.854096
H 1.520306 0.198968 0.700898
H 0.184551 -0.217991 0.047438
O -1.859058 -0.966956 -0.792541
H -2.350028 -1.760515 -0.570507
H -2.128245 -0.703920 -1.674832
6
Structure 429 | Energy: -10.143813 Hartree
O 1.255367 -0.566814 -1.260556
H 0.552786 -0.250131 -1.831676
H 0.914276 -0.567095 -0.364036
O -1.358153 -0.486255 0.602554
H -1.360184 0.264401 0.005395
H -1.731097 -0.188356 1.434574
6
Structure 430 | Energy: -10.143809 Hartree
O -1.285908 0.875780 -1.788142
H -0.772024 1.392491 -1.164428
H -0.667614 0.474488 -2.401956
O -0.909121 -0.031817 1.525869
H -1.635712 0.558671 1.317359
H -1.283958 -0.802081 1.957468
6
Structure 431 | Energy: -10.143809 Hartree
O 0.903825 0.564776 1.512947
H 1.361496 -0.278180 1.519858
H 0.535366 0.680754 0.634950
O -0.350421 -2.129494 -0.469536
H -0.983006 -1.824074 -1.122715
H -0.731903 -1.963381 0.394736
6
Structure 432 | Energy: -10.143801 Hartree
O 0.122643 1.331115 -1.857571
H -0.255653 0.652535 -1.294982
H -0.595199 1.904874 -2.132515
O -0.623188 -0.779438 1.316373
H 0.121660 -1.015187 0.759856
H -0.268006 -0.494143 2.160495
6
Structure 433 | Energy: -10.143798 Hartree
O -1.332835 1.207403 1.055771
H -0.828109 0.598313 1.598310
H -1.054697 2.094754 1.291013
O 1.626335 0.031012 0.193627
H 0.804676 -0.084055 -0.287751
H 1.646473 0.936753 0.508771
6
Structure 434 | Energy: -10.143795 Hartree
O -1.108263 -0.660258 1.140425
H -1.418619 -0.796312 2.037785
H -0.161168 -0.515356 1.186322
O -0.597434 1.704150 -1.049430
H -0.560346 0.800300 -0.730420
H -0.545306 2.278318 -0.282813
6
Structure 435 | Energy: -10.143794 Hartree
O 0.523573 -0.725175 2.082291
H 0.683658 -1.607107 1.740742
H 0.233677 -0.183557 1.345609
O -1.463882 1.086564 -0.223947
H -1.945200 0.268689 -0.363596
H -1.604253 1.634582 -0.998583
6
Structure 436 | Energy: -10.143791 Hartree
O -0.150096 2.055119 -0.333246
H -0.437752 1.249660 0.101008
H 0.774410 2.182692 -0.111651
O 0.575312 -1.355003 0.729579
H 0.100647 -1.076396 -0.056015
H 0.646444 -2.310928 0.694419
6
Structure 437 | Energy: -10.143788 Hartree
O -0.505128 -1.627852 -1.290272
H -0.065824 -1.710657 -2.138943
H -0.053627 -2.212590 -0.678456
O 0.570020 0.318874 1.649169
H -0.336785 0.015274 1.724134
H 0.839819 0.185600 0.738381
6
Structure 438 | Energy: -10.143786 Hartree
O -0.208088 -1.570446 -0.068852
H 0.609757 -1.433511 -0.550998
H -0.901780 -1.116708 -0.551557
O 0.227459 1.437786 1.685035
H 0.297383 0.488153 1.800774
H -0.508492 1.598131 1.091105
6
Structure 439 | Energy: -10.143774 Hartree
O 0.949908 0.412057 -1.759144
H 1.704916 1.003690 -1.754822
H 1.256495 -0.437360 -2.082539
O -0.974520 -1.195063 0.602463
H -1.664749 -1.663047 0.128477
H -0.289119 -0.979946 -0.033177
6
Structure 440 | Energy: -10.143768 Hartree
O -0.167241 1.826342 0.625624
H -0.336468 0.988254 1.060432
H -0.452355 2.519550 1.224175
O 0.779004 -1.066494 -0.561111
H 1.274868 -1.857188 -0.782490
H 1.307828 -0.314000 -0.833484
6
Structure 441 | Energy: -10.143766 Hartree
O 0.716517 -0.562619 1.675361
H 1.054481 0.059586 2.322453
H -0.146353 -0.849455 1.980764
O -1.309791 1.115818 -0.367237
H -0.580994 1.173173 0.253772
H -1.586598 0.197876 -0.396361
6
Structure 442 | Energy: -10.143761 Hartree
O -1.126405 -1.610477 -0.343722
H -0.693459 -0.891742 0.121105
H -2.022663 -1.326595 -0.534049
O 0.128159 1.720234 0.424716
H -0.515180 1.797972 -0.282504
H 0.332364 2.609083 0.721929
6
Structure 443 | Energy: -10.143755 Hartree
O 0.523686 -2.021398 -1.031520
H -0.225657 -1.504336 -0.729499
H 0.898204 -2.454953 -0.262198
O -0.470839 0.832566 1.440350
H -0.579943 1.734821 1.133561
H 0.352605 0.796992 1.931024
6
Structure 444 | Energy: -10.143754 Hartree
O -0.736687 -1.452523 0.236685
H -0.355913 -2.321608 0.377356
H -0.659131 -1.256498 -0.699077
O -1.656405 1.499428 -0.273209
H -2.343507 1.708877 -0.908906
H -1.984870 0.783870 0.274673
6
Structure 445 | Energy: -10.143751 Hartree
O 1.012320 -1.898703 -0.206068
H 1.899614 -2.098302 0.098820
H 0.677716 -1.185390 0.341029
O -1.356423 0.118330 1.012623
H -1.078611 0.291989 0.111096
H -1.701767 0.940171 1.366745
6
Structure 446 | Energy: -10.143750 Hartree
O -0.321233 0.092329 0.770959
H 0.542890 0.459306 0.967695
H -0.203947 -0.549222 0.067577
O 2.041328 -0.111139 -0.280977
H 2.585140 -0.835869 -0.595815
H 1.907563 0.485511 -1.020032
6
Structure 447 | Energy: -10.143744 Hartree
O -0.729732 0.837071 0.514420
H -1.603991 0.487651 0.330943
H -0.734743 1.153990 1.419753
O 1.344378 -0.301865 -0.975765
H 0.402939 -0.128549 -1.036934
H 1.798333 0.513149 -1.198846
6
Structure 448 | Energy: -10.143741 Hartree
O 0.056438 -0.465096 -1.359589
H -0.022938 -1.349279 -0.996262
H 0.896410 -0.421846 -1.820747
O -1.253059 1.457234 0.492588
H -0.346693 1.581905 0.204414
H -1.812271 1.548084 -0.281438
6
Structure 449 | Energy: -10.143739 Hartree
O -0.391973 -1.431483 -1.156360
H 0.483268 -1.590331 -1.515257
H -0.466895 -1.947739 -0.351402
O 0.770171 1.571066 0.618606
H -0.070741 1.128472 0.487973
H 0.655924 2.483910 0.347034
6
Structure 450 | Energy: -10.143737 Hartree
O 0.573632 1.038459 -0.955147
H 0.826272 0.642423 -0.118837
H 1.248122 0.804150 -1.595657
O -0.620812 -1.649053 1.444517
H -0.692746 -1.881559 0.516695
H -1.168472 -0.874465 1.586538
6
Structure 451 | Energy: -10.143736 Hartree
O 0.832094 -0.644342 1.221468
H 1.233764 -0.194652 1.967474
H 0.987914 -0.102287 0.445589
O -2.130991 -0.565715 0.454723
H -2.053552 0.320522 0.813434
H -1.729493 -1.164388 1.087556
6
Structure 452 | Energy: -10.143735 Hartree
O 0.416701 -1.966006 -0.436097
H 1.162960 -1.663865 0.085337
H -0.351255 -1.468918 -0.147589
O 1.624840 1.607389 0.174867
H 1.847261 1.604274 -0.758196
H 2.364024 2.001973 0.641771
6
Structure 453 | Energy: -10.143734 Hartree
O 0.613895 -0.023956 1.928523
H 0.717933 0.030327 2.880529
H -0.278113 -0.332381 1.757389
O 1.389525 0.902329 -0.756572
H 2.194001 0.425570 -0.543012
H 0.662796 0.433336 -0.341845
6
Structure 454 | Energy: -10.143733 Hartree
O 0.408290 1.975161 0.836234
H 1.145920 2.301512 1.355352
H 0.393433 1.020895 0.932394
O -0.016306 -0.649132 -0.914258
H -0.403782 -0.395774 -1.754353
H -0.739169 -0.800629 -0.302208
6
Structure 455 | Energy: -10.143714 Hartree
O -2.356032 0.050580 0.296945
H -1.956998 -0.696719 -0.152945
H -1.939269 0.119252 1.158155
O 1.108401 -0.803825 1.376177
H 1.919749 -1.228549 1.661505
H 1.064667 0.048415 1.814197
6
Structure 456 | Energy: -10.143714 Hartree
O -0.450237 0.384378 1.386537
H 0.073627 -0.213956 1.922866
H 0.114902 0.700051 0.678681
O 0.479451 -1.993803 -0.393216
H -0.336091 -2.495536 -0.450160
H 0.305777 -1.126365 -0.763993
6
Structure 457 | Energy: -10.143710 Hartree
O 0.771343 -0.867482 -1.457010
H 1.363320 -0.703136 -0.720369
H 0.343530 -1.710581 -1.294991
O -0.075254 -0.018390 1.903809
H -0.268273 0.865364 1.584733
H 0.127754 0.055072 2.838410
6
Structure 458 | Energy: -10.143708 Hartree
O 0.504526 2.027982 -0.543611
H 1.448011 2.049868 -0.715200
H 0.336507 1.273344 0.024176
O 1.026669 -1.301279 0.147766
H 0.132552 -1.518731 0.418610
H 0.967325 -0.866894 -0.705391
6
Structure 459 | Energy: -10.143702 Hartree
O -0.702485 1.864151 -0.049049
H -1.151949 1.017291 -0.019114
H -1.003968 2.372600 0.706384
O 1.148154 -0.283005 0.916268
H 1.831949 -0.943195 0.787193
H 1.579685 0.573503 0.932470
6
Structure 460 | Energy: -10.143701 Hartree
O -0.741362 -1.293433 0.870843
H -0.758219 -1.347295 1.828392
H 0.157547 -1.478231 0.591729
O 0.055139 2.212579 -0.815784
H -0.275907 1.312563 -0.794173
H -0.317849 2.670659 -0.060052
6
Structure 461 | Energy: -10.143700 Hartree
O 0.099679 0.256556 2.120593
H -0.651082 0.141010 2.706336
H 0.073277 -0.457557 1.480721
O 0.520113 -1.683473 -1.490424
H 1.134593 -1.937889 -2.181636
H 0.646643 -0.746511 -1.328618
6
Structure 462 | Energy: -10.143699 Hartree
O 1.831404 0.796064 0.774879
H 1.000565 0.345577 0.611007
H 2.356530 0.723183 -0.024510
O -1.223051 -1.091291 1.476822
H -1.830043 -0.478413 1.057263
H -0.744612 -0.601928 2.148915
6
Structure 463 | Energy: -10.143693 Hartree
O -0.406328 -0.519451 1.775343
H 0.166621 -0.120790 1.117402
H -0.779896 0.193989 2.296439
O 0.166395 0.147343 -1.684714
H -0.739074 -0.014581 -1.956733
H 0.578677 0.676463 -2.370385
6
Structure 464 | Energy: -10.143691 Hartree
O -1.113623 -1.277726 -1.501949
H -1.485978 -1.047970 -0.648339
H -1.251427 -2.218580 -1.628015
O -0.713721 1.082680 1.273793
H -0.674821 2.040226 1.232809
H 0.189046 0.764002 1.333315
6
Structure 465 | Energy: -10.143687 Hartree
O 1.343313 1.794330 -0.267648
H 0.836237 2.242135 0.412375
H 0.777316 1.714771 -1.037978
O -0.921278 -0.141180 1.156995
H -0.022486 -0.078513 0.827855
H -1.069036 0.617004 1.725689
6
Structure 466 | Energy: -10.143672 Hartree
O 1.580600 0.305074 -0.674483
H 2.225123 0.518913 0.002975
H 1.931359 0.620135 -1.509825
O -1.863780 -0.939348 0.061808
H -1.179170 -0.462185 -0.411173
H -2.454724 -0.286130 0.441517
6
Structure 467 | Energy: -10.143670 Hartree
O 0.610949 -1.407020 1.268669
H -0.261713 -1.076202 1.490267
H 0.513956 -1.970671 0.498617
O -0.461437 0.592987 -1.346599
H -0.354308 1.399282 -0.838171
H 0.130017 -0.061297 -0.969527
6
Structure 468 | Energy: -10.143669 Hartree
O -0.338915 0.626685 -1.888249
H -0.550038 0.681882 -0.954190
H 0.572616 0.907301 -1.990501
O -0.731351 -1.402523 0.441741
H -0.269212 -2.133933 0.027551
H -0.966496 -1.681019 1.329004
6
Structure 469 | Energy: -10.143665 Hartree
O 0.007250 1.279229 1.429065
H 0.044655 0.569047 2.072750
H 0.725000 1.882955 1.630161
O -1.171774 -0.988483 -0.809020
H -0.603523 -0.970499 -0.036456
H -1.016029 -0.176390 -1.295165
6
Structure 470 | Energy: -10.143661 Hartree
O -1.815155 -0.806658 0.935270
H -1.700253 -1.748069 1.078894
H -2.217121 -0.698132 0.071131
O -0.537248 1.423323 -0.711438
H -0.044130 1.650023 0.079466
H -1.467815 1.536623 -0.508223
6
Structure 471 | Energy: -10.143659 Hartree
O 0.458871 -0.935295 -1.908814
H 0.288860 -0.557905 -1.043505
H 1.280274 -1.426901 -1.847901
O -1.155255 1.267252 0.263295
H -0.945252 1.529763 1.161668
H -1.359929 2.066651 -0.225743
6
Structure 472 | Energy: -10.143657 Hartree
O 0.072946 0.107119 -1.101467
H -0.249241 -0.722736 -1.458711
H -0.220143 0.156633 -0.189471
O -1.207183 -1.802142 0.502620
H -0.527218 -1.494460 1.105170
H -1.078193 -2.745533 0.386588
6
Structure 473 | Energy: -10.143655 Hartree
O 1.097463 -0.441792 -1.522599
H 1.041090 -1.289606 -1.077491
H 1.283222 0.219000 -0.852570
O -0.533233 0.951788 0.591417
H -1.310771 0.477932 0.893049
H -0.493503 1.774510 1.082985
6
Structure 474 | Energy: -10.143646 Hartree
O -1.310021 1.447280 0.702005
H -2.179273 1.145612 0.430925
H -1.319084 1.516953 1.658642
O -0.829485 -0.490172 -1.138547
H -0.035225 -0.779216 -1.592080
H -0.581408 -0.282824 -0.235468
6
Structure 475 | Energy: -10.143646 Hartree
O 0.364878 1.902293 -0.922713
H 1.049041 1.725482 -0.274064
H -0.461179 1.999597 -0.444955
O -0.444785 -0.998284 1.304905
H 0.190184 -1.506198 0.796058
H -1.241778 -1.527529 1.374112
6
Structure 476 | Energy: -10.143643 Hartree
O 0.879005 -0.491917 -1.730423
H 0.197824 -0.420795 -2.402003
H 0.964021 0.370685 -1.319594
O -0.907348 0.564615 1.063904
H -0.974429 -0.359773 1.311076
H -0.398810 1.005257 1.747506
6
Structure 477 | Energy: -10.143642 Hartree
O 1.391049 0.979119 0.793840
H 0.641428 0.945755 0.196311
H 2.167362 1.173589 0.265057
O 0.071853 -0.274916 -1.832041
H 0.101445 -1.067388 -2.371670
H 0.714574 0.338780 -2.193115
6
Structure 478 | Energy: -10.143638 Hartree
O 1.774174 -0.970912 0.424522
H 1.634755 -1.725799 -0.150624
H 1.198374 -1.081977 1.183607
O -0.801434 1.334239 -0.809785
H -0.232733 1.856029 -1.379347
H -0.310273 1.154408 -0.005727
6
Structure 479 | Energy: -10.143634 Hartree
O -1.835404 0.666556 -0.792091
H -1.391736 0.111078 -1.436055
H -2.300177 1.350074 -1.278794
O 1.269020 -1.233877 0.160390
H 0.739290 -0.436798 0.224718
H 0.675521 -1.951621 -0.069152
6
Structure 480 | Energy: -10.143634 Hartree
O -1.874130 -0.511053 -1.199212
H -2.270570 -0.011773 -1.915899
H -1.892331 0.047673 -0.419734
O 0.527626 0.869275 1.307681
H -0.009636 0.242917 0.818687
H 1.321668 0.407489 1.583974
6
Structure 481 | Energy: -10.143633 Hartree
O -0.676888 0.920702 -1.408331
H -0.501266 0.863544 -2.349594
H -0.307706 0.134024 -1.002210
O -0.905339 -0.578392 1.805045
H -1.458018 -0.094774 2.422091
H -0.311246 0.055639 1.398663
6
Structure 482 | Energy: -10.143633 Hartree
O 1.835639 -0.817146 -0.745525
H 1.513363 -0.882327 -1.646621
H 1.108556 -1.053045 -0.166049
O -0.586148 1.299425 0.458102
H -1.082121 1.795689 1.112181
H 0.224134 1.005483 0.878969
6
Structure 483 | Energy: -10.143630 Hartree
O -1.839685 -0.282614 0.115646
H -1.837419 -1.211057 0.356632
H -1.938606 -0.236750 -0.837350
O 0.544449 -0.058611 1.492446
H 0.623244 -0.913087 1.921105
H -0.373964 0.209683 1.560440
6
Structure 484 | Energy: -10.143621 Hartree
O -0.094109 -1.831077 0.953906
H 0.454795 -2.617149 0.924211
H 0.058664 -1.409819 1.802017
O 1.091478 0.417298 -0.367461
H 0.444065 0.031630 -0.960928
H 0.633879 0.641362 0.445242
6
Structure 485 | Energy: -10.143621 Hartree
O -0.241665 1.677476 0.962984
H -0.756925 1.446136 0.187693
H -0.859718 1.951707 1.643351
O 1.053386 -1.250913 -0.340398
H 0.919640 -0.315749 -0.174061
H 1.158367 -1.358758 -1.287729
6
Structure 486 | Energy: -10.143620 Hartree
O -0.398247 0.159124 -1.596282
H 0.010086 -0.483889 -1.013286
H -0.471843 -0.248357 -2.461518
O -1.091203 -1.793749 0.440751
H -0.302438 -1.595525 0.949322
H -1.846107 -1.569678 0.988473
6
Structure 487 | Energy: -10.143614 Hartree
O -0.514918 -1.194306 -1.106316
H -0.339206 -1.942044 -1.680858
H -0.088335 -0.429276 -1.497272
O 2.106628 0.190094 0.720709
H 2.259982 1.016395 1.183091
H 1.172996 0.155196 0.503447
6
Structure 488 | Energy: -10.143611 Hartree
O 0.199389 0.258753 -1.696529
H 0.040425 1.179030 -1.915406
H 0.234086 0.196180 -0.739987
O -0.970052 -1.183486 1.728243
H -1.758003 -1.280791 1.189956
H -0.292183 -1.742325 1.343170
6
Structure 489 | Energy: -10.143609 Hartree
O -0.533722 1.420617 -1.531292
H -0.781083 2.283526 -1.869356
H -1.282913 0.837095 -1.666593
O 0.640577 -0.107448 1.465184
H 0.983225 0.292062 0.663266
H 1.249905 0.109654 2.173474
6
Structure 490 | Energy: -10.143606 Hartree
O 1.951264 0.656485 -0.042097
H 2.092376 1.602786 -0.110561
H 1.909566 0.310130 -0.935623
O -1.363809 -0.223963 0.395449
H -0.754380 0.240619 0.972378
H -1.791614 -0.902477 0.921462
6
Structure 491 | Energy: -10.143600 Hartree
O 0.300831 0.315022 1.774892
H 0.459041 -0.309763 2.485314
H -0.526258 0.066814 1.357270
O 0.206548 -0.725129 -1.923195
H 0.739225 -0.619674 -2.713905
H 0.259241 0.097889 -1.433345
6
Structure 492 | Energy: -10.143597 Hartree
O 1.121492 -0.832838 -1.207342
H 0.283159 -0.919087 -0.749254
H 1.258033 -1.641688 -1.704542
O -0.216715 0.024968 1.962818
H -1.010441 0.473133 2.261537
H 0.511524 0.641565 2.060616
6
Structure 493 | Energy: -10.143591 Hartree
O 0.553772 -0.932230 1.859922
H -0.326427 -0.643414 1.611084
H 0.615515 -1.866598 1.651989
O 0.559914 1.609876 -0.126094
H 0.306041 1.494936 0.791742
H 1.325622 2.187473 -0.138830
6
Structure 494 | Energy: -10.143584 Hartree
O -0.042453 -0.358955 1.706660
H 0.497919 0.135882 1.087612
H -0.689137 0.249846 2.068946
O 0.486322 0.996971 -1.813011
H 0.089074 1.733958 -2.281125
H -0.194848 0.330880 -1.701579
6
Structure 495 | Energy: -10.143580 Hartree
O -1.623759 0.789152 0.772512
H -1.342163 0.791195 1.689456
H -2.572543 0.930086 0.766427
O 1.413813 -0.462812 -0.179854
H 1.781128 -1.322418 -0.394897
H 0.469089 -0.509664 -0.339199
6
Structure 496 | Energy: -10.143579 Hartree
O 1.753503 0.154369 0.969716
H 2.277894 -0.262712 1.656115
H 2.229285 0.046626 0.143814
O -1.595335 -0.241853 -0.283479
H -1.643900 0.715973 -0.300707
H -1.291374 -0.495192 0.590315
6
Structure 497 | Energy: -10.143579 Hartree
O 1.526129 -0.604588 1.010437
H 0.850143 -0.224570 0.445888
H 1.622168 -1.525109 0.758430
O 0.529417 1.605937 -1.545859
H -0.378833 1.891288 -1.428627
H 0.982253 1.750102 -0.712646
6
Structure 498 | Energy: -10.143568 Hartree
O 0.394511 -0.638980 1.236836
H 0.273783 -1.590143 1.208563
H 1.084706 -0.459194 1.878239
O 1.429986 0.294143 -1.563699
H 1.349955 -0.191920 -2.386758
H 1.217826 -0.313987 -0.852888
6
Structure 499 | Energy: -10.143563 Hartree
O 1.817109 0.070351 1.324951
H 1.010987 -0.427957 1.176817
H 2.309322 -0.383355 2.011949
O 0.139935 -0.207544 -0.681731
H -0.630078 0.310492 -0.439233
H 0.672697 0.332979 -1.268322
6
Structure 500 | Energy: -10.143560 Hartree
O 0.640028 0.808836 1.815417
H 0.389247 1.661597 1.454871
H 0.865327 0.242446 1.074787
O -0.359854 -1.590574 -0.407657
H -0.947712 -2.341367 -0.303636
H 0.536345 -1.913998 -0.296704
6
Structure 501 | Energy: -10.143560 Hartree
O 0.225767 0.148062 1.987895
H 0.046395 0.931783 2.511052
H 0.472419 -0.550148 2.597613
O 0.300235 -0.769840 -2.234293
H 0.540918 -0.228993 -1.479546
H -0.126848 -1.558440 -1.894003
6
Structure 502 | Energy: -10.143555 Hartree
O -0.414275 1.920665 0.556182
H -0.237631 1.446424 -0.258666
H 0.432326 2.098489 0.970592
O -0.765225 -1.798573 -1.154185
H -1.027665 -1.278162 -0.392355
H -1.458300 -2.443048 -1.310347
6
Structure 503 | Energy: -10.143547 Hartree
O 0.361814 1.270103 -1.799989
H 0.763571 0.408913 -1.669490
H -0.383456 1.329865 -1.199079
O -1.576117 -0.122597 0.366949
H -1.143080 -0.790518 0.902158
H -1.549857 -0.426385 -0.542507
6
Structure 504 | Energy: -10.143546 Hartree
O -0.764079 1.038051 1.845361
H -0.484262 0.875501 0.942385
H -0.372619 0.353616 2.391619
O 1.396037 -0.952369 -0.030212
H 0.734838 -1.643054 -0.106755
H 1.418171 -0.486194 -0.868233
6
Structure 505 | Energy: -10.143534 Hartree
O 1.048543 -0.080950 -1.923229
H 0.447667 0.635244 -2.137939
H 0.823439 -0.386103 -1.042150
O -0.315734 1.889424 0.429911
H -0.128380 2.392332 -0.365117
H -0.975959 2.377552 0.925816
6
Structure 506 | Energy: -10.143534 Hartree
O 1.906196 -0.179548 -0.447470
H 2.065654 0.190682 -1.317866
H 1.212598 -0.835559 -0.540542
O -0.558432 1.480555 1.743420
H -0.369870 0.586913 1.450274
H 0.282183 1.897625 1.942186
6
Structure 507 | Energy: -10.143531 Hartree
O 1.330300 -0.079049 -1.526518
H 0.572313 -0.537530 -1.158638
H 1.665924 0.506952 -0.845306
O 0.643048 0.923327 1.402545
H 0.782852 0.259606 2.080790
H 1.474471 1.386398 1.282593
6
Structure 508 | Energy: -10.143530 Hartree
O -0.652388 -0.081145 -0.680768
H -1.072712 -0.346844 -1.501023
H -0.109632 0.685509 -0.875058
O 0.361417 1.038319 1.734144
H 0.270241 0.147462 1.390416
H 1.274445 1.301407 1.602792
6
Structure 509 | Energy: -10.143529 Hartree
O -0.064749 -0.846538 1.498785
H 0.652022 -0.488568 0.971354
H -0.752753 -0.179050 1.533416
O 0.738532 1.016520 -1.488317
H 0.176911 1.689459 -1.098672
H 0.393875 0.831044 -2.364044
6
Structure 510 | Energy: -10.143529 Hartree
O 0.597598 -1.176293 0.155662
H 0.078006 -0.407488 -0.087337
H 0.505266 -1.293609 1.103187
O -1.395680 1.698085 -0.654921
H -0.901728 1.919589 0.136934
H -1.651569 2.523910 -1.070398
6
Structure 511 | Energy: -10.143525 Hartree
O -0.756843 -0.649528 0.100775
H -1.172729 -0.186285 -0.628972
H -0.013849 -0.115932 0.389435
O 0.744339 1.990001 -0.812989
H 0.183810 1.906670 -1.586907
H 1.515269 1.438484 -0.959903
6
Structure 512 | Energy: -10.143519 Hartree
O 0.133533 -0.019489 1.494173
H 0.509899 -0.577242 2.177800
H 0.221619 -0.490220 0.663063
O 0.735099 -1.306546 -1.464263
H 0.372565 -0.497996 -1.831553
H 0.017118 -1.765313 -1.023666
6
Structure 513 | Energy: -10.143507 Hartree
O 1.326021 0.590749 0.717797
H 1.637854 -0.298124 0.898766
H 0.816260 0.553192 -0.093883
O -1.899230 -0.916278 -0.531688
H -2.022145 -1.843003 -0.746538
H -2.770514 -0.537060 -0.400745
6
Structure 514 | Energy: -10.143481 Hartree
O -0.313013 1.170467 0.506187
H -0.982064 0.514467 0.300954
H 0.119108 1.402950 -0.318018
O 0.486418 -1.759280 -1.323666
H 1.139087 -1.712083 -0.622322
H 0.894646 -1.404645 -2.115924
6
Structure 515 | Energy: -10.143480 Hartree
O -0.232699 0.945101 0.381507
H -0.279905 1.852687 0.688338
H 0.692713 0.692707 0.382446
O 1.001373 -1.822079 -1.062386
H 0.674833 -0.933110 -1.214681
H 0.892165 -2.309032 -1.881554
6
Structure 516 | Energy: -10.143474 Hartree
O 0.512483 1.703651 -0.285973
H -0.411707 1.759360 -0.536685
H 0.674852 2.397267 0.356384
O -0.216654 -1.774409 1.470865
H -0.066429 -1.048910 0.861627
H -0.381984 -2.558485 0.943628
6
Structure 517 | Energy: -10.143474 Hartree
O -1.054132 1.368193 0.008273
H -1.053208 1.642253 0.927499
H -1.436496 2.085143 -0.501503
O -1.108960 -1.806932 -0.643751
H -0.884168 -2.457621 0.024201
H -1.446323 -1.034590 -0.185754
6
Structure 518 | Energy: -10.143467 Hartree
O 0.937905 -0.632745 0.503052
H 1.848050 -0.769374 0.773340
H 0.416479 -1.335775 0.895421
O -1.484267 0.557370 -1.242777
H -0.821636 -0.102694 -1.029884
H -1.776835 0.386992 -2.140253
6
Structure 519 | Energy: -10.143462 Hartree
O -0.687838 1.950223 0.258015
H 0.032074 1.961959 -0.375763
H -0.311416 2.142561 1.119063
O 1.164357 -0.631414 -1.852200
H 0.317993 -0.264445 -2.115046
H 1.359778 -1.353362 -2.452776
6
Structure 520 | Energy: -10.143457 Hartree
O 1.297204 -1.088808 1.513834
H 0.413133 -1.188231 1.155200
H 1.227370 -1.166748 2.467322
O -1.524144 0.432553 -0.522335
H -1.210396 0.961537 0.213753
H -1.540751 1.001591 -1.294351
6
Structure 521 | Energy: -10.143455 Hartree
O -0.579030 -0.766956 1.727391
H -0.802296 -1.579061 1.268345
H -1.230283 -0.109593 1.474736
O -0.468058 1.332847 -0.415038
H 0.323977 1.241630 -0.948374
H -0.703057 2.262823 -0.412202
6
Structure 522 | Energy: -10.143443 Hartree
O 1.226860 0.999885 0.102362
H 1.198154 0.136064 -0.313662
H 1.855297 0.946363 0.825061
O -0.654364 -1.929487 -0.706037
H -1.544959 -1.606214 -0.855775
H -0.206271 -1.930710 -1.554153
6
Structure 523 | Energy: -10.143438 Hartree
O -1.028880 -0.340988 0.093051
H -0.490757 0.051303 -0.597324
H -1.935292 -0.069586 -0.064583
O 1.103199 1.815166 1.082217
H 1.334789 1.941803 0.160037
H 0.332500 1.244591 1.105779
6
Structure 524 | Energy: -10.143437 Hartree
O 0.645965 2.058734 -0.971515
H 0.668093 1.391040 -1.659832
H 0.907278 1.631891 -0.153217
O -1.430870 -0.558918 1.133988
H -1.910798 -0.941129 1.871328
H -2.080652 -0.187539 0.534029
6
Structure 525 | Energy: -10.143436 Hartree
O -2.109550 -0.436488 0.660907
H -1.789413 -0.751883 1.508330
H -2.377704 -1.205673 0.154411
O 0.857302 0.366621 -0.750752
H 1.714319 0.597961 -0.387308
H 0.195080 0.828632 -0.232973
6
Structure 526 | Energy: -10.143430 Hartree
O -1.353309 -0.542656 1.028460
H -1.229064 -0.215344 0.135422
H -2.292687 -0.501234 1.218049
O 1.304212 -1.474706 0.299272
H 1.210675 -1.339481 1.244287
H 1.311040 -2.421752 0.147139
6
Structure 527 | Energy: -10.143430 Hartree
O 1.656801 1.524755 0.496519
H 2.384562 1.112198 0.027213
H 0.855643 1.063963 0.239793
O -0.903724 -1.437620 -0.903456
H -1.520972 -2.102658 -1.214612
H -1.073154 -1.308228 0.031766
6
Structure 528 | Energy: -10.143424 Hartree
O 0.788356 -0.555725 -1.665124
H 0.823162 -1.301206 -2.267729
H 0.379151 -0.864652 -0.854442
O 1.169053 0.451652 1.761205
H 1.765856 1.200719 1.814246
H 1.428974 -0.064994 0.995956
6
Structure 529 | Energy: -10.143422 Hartree
O 0.889676 1.006066 -0.616245
H 0.614838 0.612821 0.214362
H 0.261076 0.726454 -1.284653
O 1.093900 -1.855859 0.341536
H 2.045466 -1.972006 0.308080
H 0.856337 -1.721118 1.261045
6
Structure 530 | Energy: -10.143420 Hartree
O 1.245430 -0.274736 -0.136403
H 0.705644 -0.266417 0.656470
H 2.159932 -0.194530 0.141703
O -0.975974 1.987410 0.748109
H -1.449526 1.160337 0.856665
H -0.124722 1.778325 0.358567
6
Structure 531 | Energy: -10.143415 Hartree
O -0.850621 1.209927 -1.527957
H 0.108047 1.241294 -1.535655
H -1.144452 1.693914 -0.753677
O 1.377394 -1.046146 0.582622
H 0.928185 -0.851314 -0.242204
H 0.787150 -1.592432 1.105375
6
Structure 532 | Energy: -10.143413 Hartree
O 0.786596 -1.264798 -1.050330
H -0.167766 -1.256066 -0.954390
H 1.160876 -1.264699 -0.167151
O -0.454264 1.628203 1.277485
H 0.193106 2.256532 1.603371
H -0.303276 1.527510 0.335598
6
Structure 533 | Energy: -10.143411 Hartree
O 0.079280 -2.229578 -0.442807
H -0.325714 -1.635769 0.192376
H 0.929806 -2.491320 -0.084773
O -1.364593 1.335386 0.122320
H -0.610415 1.097704 -0.420644
H -2.124789 0.865477 -0.226071
6
Structure 534 | Energy: -10.143404 Hartree
O 1.964115 -0.064543 1.060320
H 2.560375 -0.010362 0.310904
H 2.406704 -0.578091 1.738902
O 0.338445 0.404825 -1.246813
H 0.060666 1.053248 -0.596834
H -0.320027 -0.292656 -1.251609
6
Structure 535 | Energy: -10.143392 Hartree
O 1.049429 1.255199 0.830673
H 0.636489 0.602672 0.261661
H 1.540506 0.776908 1.501621
O -1.754589 -0.836364 -0.592356
H -2.354594 -0.325462 -0.045492
H -1.335514 -0.225390 -1.201597
6
Structure 536 | Energy: -10.143392 Hartree
O 0.814869 -0.650287 -0.375981
H 1.130237 -0.631198 0.529704
H -0.143767 -0.644975 -0.343126
O -0.764934 0.866094 1.016816
H -1.082135 1.527683 0.398940
H -0.036111 1.257275 1.502493
6
Structure 537 | Energy: -10.143380 Hartree
O -1.101540 -0.550643 0.458245
H -0.866506 -1.369961 0.898203
H -1.651078 -0.050157 1.064555
O 1.432607 0.627752 -1.738935
H 2.167818 0.835862 -1.159071
H 0.939675 -0.085144 -1.327979
6
Structure 538 | Energy: -10.143377 Hartree
O -0.810865 -1.613077 0.291106
H -1.159452 -0.961577 -0.320548
H -1.464099 -1.730663 0.983601
O 0.204773 1.947470 0.679037
H 0.541849 1.888776 -0.217078
H 0.086337 1.050382 0.997303
6
Structure 539 | Energy: -10.143376 Hartree
O 1.300571 1.181823 -1.463794
H 2.160772 1.312928 -1.867467
H 1.338219 1.563566 -0.584620
O -0.147174 -1.709890 0.195853
H -0.424638 -1.186273 -0.558419
H -0.631678 -2.537016 0.161125
6
Structure 540 | Energy: -10.143373 Hartree
O 0.052385 -0.952620 1.036570
H 0.867207 -1.422355 0.848152
H -0.507489 -1.033015 0.261864
O -0.457185 2.344808 -0.123472
H -0.134488 1.848967 0.631575
H -0.337094 1.792423 -0.898415
6
Structure 541 | Energy: -10.143366 Hartree
O 1.480712 1.500255 -0.906454
H 1.839618 2.297206 -1.301602
H 0.540453 1.643511 -0.782024
O 0.263689 -0.239162 1.724727
H 1.134222 -0.632076 1.635965
H -0.096608 -0.144291 0.840830
6
Structure 542 | Energy: -10.143362 Hartree
O -0.337630 2.235330 0.479296
H -0.178064 3.039536 0.977168
H 0.475004 1.725929 0.494419
O 0.096712 -1.636406 -0.889568
H -0.057351 -2.055380 -1.738575
H -0.705468 -1.165447 -0.655486
6
Structure 543 | Energy: -10.143362 Hartree
O -1.333162 0.121808 1.779116
H -0.681063 0.746703 2.102162
H -0.957446 -0.307704 1.008111
O 0.254985 -1.571993 -0.911150
H -0.645701 -1.253330 -0.996624
H 0.218458 -2.401409 -0.430709
6
Structure 544 | Energy: -10.143345 Hartree
O 1.289808 -1.169425 -0.332401
H 1.646304 -0.328407 -0.625122
H 1.268092 -1.150483 0.626380
O -0.556610 1.850761 1.102978
H -0.697349 2.462774 1.828044
H -1.319889 1.914176 0.525508
6
Structure 545 | Energy: -10.143345 Hartree
O 0.083198 -0.209007 2.063174
H 0.080150 -0.963805 2.655083
H -0.630104 -0.337819 1.434924
O 0.001397 1.662802 -1.547891
H 0.279778 0.934408 -0.989292
H 0.330676 2.469829 -1.147428
6
Structure 546 | Energy: -10.143342 Hartree
O 0.066185 -0.098244 -1.838691
H 0.960421 -0.211644 -2.166670
H -0.051920 -0.717599 -1.115821
O 2.261492 0.036020 0.268493
H 2.143312 0.862543 -0.203715
H 1.390177 -0.270200 0.527584
6
Structure 547 | Energy: -10.143339 Hartree
O 0.788430 -1.559296 1.402012
H -0.147994 -1.601727 1.198557
H 1.223559 -1.147897 0.652676
O -0.316748 0.801851 -1.683428
H 0.339830 1.381136 -1.291739
H -1.114229 1.319981 -1.808544
6
Structure 548 | Energy: -10.143335 Hartree
O -0.106298 1.716691 0.373862
H 0.825392 1.661580 0.595228
H -0.196730 2.382619 -0.310575
O -1.806370 -0.392156 -0.564031
H -1.883760 0.540291 -0.352751
H -2.364966 -0.870302 0.051953
6
Structure 549 | Energy: -10.143329 Hartree
O 1.329929 -0.277402 0.681837
H 0.749526 -0.118851 -0.065212
H 1.429454 0.556040 1.146122
O -1.503144 1.130744 -1.030076
H -1.011037 1.682643 -1.641079
H -1.738437 0.327721 -1.498988
6
Structure 550 | Energy: -10.143329 Hartree
O -0.417488 0.415874 -0.119243
H 0.092197 -0.379076 0.049169
H -0.844663 0.304328 -0.970812
O 1.586202 -0.305629 1.468041
H 1.721562 0.586652 1.793001
H 1.978566 -0.903379 2.107442
6
Structure 551 | Energy: -10.143329 Hartree
O 0.826084 0.224618 -0.893674
H 0.850214 0.351184 -1.844193
H 1.680515 -0.123844 -0.631734
O -1.230134 -0.252824 1.599731
H -1.989305 0.333466 1.596333
H -1.118331 -0.577981 0.704265
6
Structure 552 | Energy: -10.143327 Hartree
O 0.387911 -0.061154 1.106318
H 0.792061 -0.080145 1.976024
H -0.228092 0.674041 1.095343
O -1.554197 0.806304 -1.150363
H -1.326467 -0.003549 -1.611193
H -1.885219 1.422927 -1.806327
6
Structure 553 | Energy: -10.143326 Hartree
O -0.210107 -1.487296 -0.607909
H 0.512707 -2.040813 -0.305841
H 0.044195 -1.128080 -1.460191
O 1.955830 0.585388 0.798282
H 1.256239 0.131350 0.324458
H 2.437364 1.112259 0.157486
6
Structure 554 | Energy: -10.143323 Hartree
O 1.496040 -0.283620 1.339489
H 0.698613 -0.129975 1.849970
H 1.292438 -0.961004 0.691579
O -0.645392 1.147334 -0.817466
H 0.232086 1.422857 -1.089875
H -0.666965 1.174859 0.141109
6
Structure 555 | Energy: -10.143322 Hartree
O -1.037352 1.077690 -1.601295
H -0.367385 0.508212 -1.217986
H -0.879408 1.105404 -2.547009
O 0.033378 -1.006757 1.068456
H -0.548903 -1.071553 1.827954
H 0.026254 -1.860583 0.631399
6
Structure 556 | Energy: -10.143319 Hartree
O 0.742024 -0.815226 -0.155029
H 0.515843 -1.730264 -0.332887
H 0.543210 -0.314108 -0.948404
O -1.975855 0.708951 0.332029
H -2.506605 1.194912 0.966247
H -1.109987 1.121170 0.311163
6
Structure 557 | Energy: -10.143316 Hartree
O -1.373620 0.560779 1.800033
H -1.215435 1.506855 1.801902
H -1.308941 0.263766 0.890258
O 0.593011 -0.786313 -1.626009
H 0.715160 -1.393475 -0.893533
H 0.287201 -1.302201 -2.374626
6
Structure 558 | Energy: -10.143312 Hartree
O 0.153285 1.544238 1.318409
H 0.444819 0.690300 0.993011
H -0.232264 1.401446 2.185042
O -0.519550 -1.230015 -0.734012
H -1.358898 -0.858521 -1.012533
H -0.714369 -1.969535 -0.155009
6
Structure 559 | Energy: -10.143297 Hartree
O 0.444102 -1.755814 -0.864727
H -0.116171 -1.869341 -0.094472
H 1.227692 -1.282252 -0.578691
O -0.067812 0.465852 1.425062
H 0.033441 0.237402 2.351154
H 0.567559 1.158074 1.232138
6
Structure 560 | Energy: -10.143293 Hartree
O 0.802742 -0.175924 1.766074
H 1.739860 -0.379209 1.742145
H 0.699561 0.725409 1.454558
O 0.911929 0.932771 -0.806650
H 0.286840 0.651543 -1.477666
H 1.450656 1.626023 -1.192995
6
Structure 561 | Energy: -10.143287 Hartree
O -1.528460 -0.407840 -1.573983
H -1.998583 -0.902562 -2.248016
H -1.856721 0.493021 -1.602003
O 0.220782 0.934075 1.396940
H -0.094856 0.037873 1.265482
H 1.179072 0.905064 1.366491
6
Structure 562 | Energy: -10.143278 Hartree
O 0.931120 0.701089 -2.000284
H 0.536830 1.147812 -1.248580
H 0.228631 0.226849 -2.449391
O -0.650105 -1.649954 0.453556
H -0.665922 -1.885162 1.383348
H 0.126803 -1.105618 0.311427
6
Structure 563 | Energy: -10.143274 Hartree
O 1.153378 1.811144 0.559865
H 0.609088 2.144901 1.275715
H 1.724658 2.528696 0.279064
O -1.101019 -0.173097 -0.658274
H -1.529862 0.255595 0.084965
H -0.232958 -0.453852 -0.362072
6
Structure 564 | Energy: -10.143272 Hartree
O 0.344075 -1.513371 1.261308
H 0.339929 -1.247429 2.182907
H 1.066487 -2.134165 1.148054
O 0.626813 0.290661 -1.552258
H 0.610258 -0.556106 -2.002589
H 1.025315 0.146960 -0.691657
6
Structure 565 | Energy: -10.143268 Hartree
O 0.318128 -2.098364 0.628508
H 0.525148 -2.131900 -0.307496
H -0.635000 -2.167558 0.711275
O -0.426756 1.531058 -0.963816
H 0.118251 2.236992 -0.610670
H -0.310835 0.769600 -0.392124
6
Structure 566 | Energy: -10.143268 Hartree
O -1.900516 1.146735 -0.161718
H -2.047507 0.637905 -0.961450
H -0.970999 1.382745 -0.142030
O 1.129740 -0.128627 1.340839
H 1.255434 -0.945736 0.854401
H 1.118797 -0.352132 2.273584
6
Structure 567 | Energy: -10.143261 Hartree
O -1.068306 1.940203 -0.336242
H -0.973178 1.013864 -0.106170
H -1.037887 1.999801 -1.293119
O 0.034897 -1.509314 0.617614
H 0.319351 -2.211649 1.205746
H -0.914516 -1.595083 0.511099
6
Structure 568 | Energy: -10.143260 Hartree
O 0.055062 0.100484 -2.224510
H 0.714958 -0.174590 -1.585012
H -0.805043 -0.089520 -1.844761
O -0.866736 -0.541697 1.150751
H -1.011083 0.200900 0.561005
H -0.754640 -0.185230 2.034184
6
Structure 569 | Energy: -10.143254 Hartree
O -0.204280 1.531745 -0.815922
H 0.067675 2.020496 -0.036660
H 0.581342 1.381099 -1.345257
O 1.187433 -1.162031 1.282423
H 0.356361 -1.582087 1.512553
H 1.178770 -1.015563 0.334499
6
Structure 570 | Energy: -10.143254 Hartree
O -0.090690 -1.430423 1.349009
H 0.537439 -1.930158 0.823837
H -0.603893 -0.892921 0.742540
O 2.121985 0.752172 -0.138349
H 2.820002 0.950385 0.489003
H 1.707849 1.584430 -0.374836
6
Structure 571 | Energy: -10.143247 Hartree
O -0.241540 -0.930308 1.604686
H -0.609841 -1.714680 1.193345
H -0.343996 -1.032128 2.552961
O 0.725650 2.058679 -0.327913
H 0.278124 2.901501 -0.425169
H 0.114249 1.460910 0.106769
6
Structure 572 | Energy: -10.143243 Hartree
O -1.584364 -0.480949 -1.326352
H -1.599051 0.356716 -1.793457
H -1.271879 -0.304678 -0.436761
O 1.594303 0.821085 1.238275
H 1.628428 -0.083354 1.555943
H 2.490911 1.077158 1.013307
6
Structure 573 | Energy: -10.143236 Hartree
O 1.152432 -1.005039 -0.449123
H 1.075626 -0.491801 0.357583
H 1.859596 -1.639304 -0.316017
O -1.399104 1.187987 -0.463585
H -1.475117 2.028135 -0.920161
H -0.488526 0.899086 -0.550022
6
Structure 574 | Energy: -10.143236 Hartree
O 0.341076 1.811064 0.007424
H -0.444612 2.358203 0.065901
H 0.741922 1.795571 0.878729
O 0.796134 -1.433782 -0.084472
H 1.054973 -1.153856 0.795716
H 1.154372 -0.793974 -0.702858
6
Structure 575 | Energy: -10.143225 Hartree
O 1.083434 0.378031 0.161561
H 1.760383 0.963160 0.507176
H 0.237367 0.806783 0.304504
O -1.958634 -0.607884 0.995256
H -2.239677 -1.337855 1.550454
H -2.385322 -0.718321 0.143300
6
Structure 576 | Energy: -10.143221 Hartree
O -0.192484 1.482887 1.644356
H 0.580436 1.354562 2.197722
H -0.738501 0.699232 1.732904
O 0.857483 -0.642881 -0.813973
H 0.580705 0.125493 -0.310900
H 0.578468 -1.418832 -0.323934
6
Structure 577 | Energy: -10.143214 Hartree
O 0.050903 0.760657 -0.993156
H -0.167570 1.395398 -1.678328
H 1.006865 0.685133 -0.970279
O 0.113478 -2.096224 1.052188
H 0.945333 -2.217747 1.514071
H 0.232954 -1.368766 0.438495
6
Structure 578 | Energy: -10.143213 Hartree
O 1.971502 0.621551 0.335542
H 1.427162 -0.088327 0.681740
H 2.864273 0.476565 0.654963
O -0.859969 -0.911833 -1.015512
H -1.113966 -0.476736 -0.199262
H -0.915097 -0.257866 -1.715066
6
Structure 579 | Energy: -10.143196 Hartree
O -0.159838 -0.576379 -1.557491
H 0.740706 -0.582704 -1.227239
H -0.213009 -1.237764 -2.250192
O -1.156937 0.741710 1.630703
H -1.662073 1.345240 2.179043
H -1.566746 0.735185 0.763464
6
Structure 580 | Energy: -10.143192 Hartree
O -0.672479 0.351253 2.192398
H -0.313668 0.394457 1.303874
H -0.320120 -0.440887 2.602823
O 1.143980 -1.095968 -0.118936
H 0.746424 -1.540917 0.632101
H 0.805729 -1.518280 -0.910976
6
Structure 581 | Energy: -10.143183 Hartree
O 1.961859 1.034295 0.692398
H 1.149174 0.785437 1.137030
H 1.716286 1.452377 -0.135245
O -1.095647 -0.967128 -1.237752
H -0.518526 -1.677517 -1.524746
H -1.846275 -1.371084 -0.797906
6
Structure 582 | Energy: -10.143180 Hartree
O -0.436759 -0.998421 -1.782974
H -0.595107 -1.739697 -2.370786
H 0.313178 -0.513488 -2.133010
O -1.685593 0.408269 0.495992
H -2.352651 0.935502 0.051980
H -1.785405 -0.494517 0.187605
6
Structure 583 | Energy: -10.143178 Hartree
O 0.416682 1.994794 -0.796716
H 1.375207 1.977965 -0.764596
H 0.124500 1.109840 -1.023822
O -1.043516 -1.742294 0.321151
H -1.861250 -2.225509 0.187354
H -0.692159 -2.008872 1.172956
6
Structure 584 | Energy: -10.143175 Hartree
O -0.076559 1.683107 -0.327469
H 0.534003 2.422205 -0.359634
H -0.861686 1.941874 -0.813993
O 0.963647 -1.707429 1.342869
H 0.768778 -1.853526 0.415093
H 1.384571 -0.848352 1.412861
6
Structure 585 | Energy: -10.143174 Hartree
O 0.140359 1.002267 -1.183097
H 0.595836 0.337225 -0.663150
H 0.806421 1.604664 -1.520098
O -0.620855 -1.227239 1.286506
H -1.070415 -1.007818 2.104942
H -1.033809 -2.020380 0.939397
6
Structure 586 | Energy: -10.143171 Hartree
O -0.591318 -0.463324 -1.727569
H 0.265798 -0.778187 -2.021336
H -0.769149 -0.873752 -0.879032
O -0.123651 0.110810 2.045299
H -0.361529 -0.200049 2.921009
H -0.901407 0.529792 1.671617
6
Structure 587 | Energy: -10.143169 Hartree
O -0.452137 0.367691 -1.314296
H 0.397432 -0.018573 -1.092668
H -1.116995 -0.093872 -0.799501
O 1.561604 1.578101 -0.365826
H 1.523362 1.909811 -1.265044
H 1.176990 2.249417 0.201179
6
Structure 588 | Energy: -10.143160 Hartree
O 2.096632 -0.423528 0.780264
H 1.546712 -1.199374 0.905711
H 1.770147 0.255126 1.374339
O -0.350353 0.148941 -1.302351
H -0.132588 -0.187827 -0.431000
H 0.477098 0.300513 -1.763262
6
Structure 589 | Energy: -10.143159 Hartree
O -0.022183 -0.547960 -1.313951
H -0.767121 -0.648634 -0.718117
H 0.734350 -0.963579 -0.895609
O 0.149391 0.850626 1.669218
H 0.947989 0.727421 2.186084
H -0.293661 1.629189 2.012193
6
Structure 590 | Energy: -10.143158 Hartree
O -1.280668 -0.964800 -0.587784
H -1.252569 -0.878942 0.367164
H -0.694053 -1.685518 -0.825565
O 0.959565 0.790502 1.497854
H 0.991581 1.741192 1.374357
H 1.831266 0.511877 1.785246
6
Structure 591 | Energy: -10.143156 Hartree
O -1.463914 1.162401 0.600967
H -0.750910 1.452696 1.173190
H -1.189518 0.333757 0.203290
O -0.787318 -0.264285 -2.039513
H -1.173893 -0.143060 -2.908968
H -0.904753 -1.186298 -1.802471
6
Structure 592 | Energy: -10.143155 Hartree
O 1.671949 -0.435119 1.093306
H 0.821122 -0.038365 1.290195
H 1.803963 -1.149553 1.719603
O -1.831715 1.280213 0.112692
H -2.713533 1.370576 0.479187
H -1.915825 1.316703 -0.842129
6
Structure 593 | Energy: -10.143154 Hartree
O -0.062022 0.587902 -1.435943
H -1.001427 0.597232 -1.242252
H 0.243751 1.496492 -1.403407
O -1.422019 -1.459612 1.081191
H -1.648241 -1.438694 2.013110
H -0.479335 -1.295552 1.013968
6
Structure 594 | Energy: -10.143151 Hartree
O 1.617706 0.488480 -0.695887
H 1.710301 0.108417 -1.571709
H 2.428794 0.963768 -0.505290
O -0.269300 -0.824085 1.344795
H -0.376943 0.083188 1.636952
H -0.463569 -0.845046 0.405695
6
Structure 595 | Energy: -10.143147 Hartree
O -2.087171 -0.255916 0.689881
H -2.086708 0.535023 1.232561
H -1.300749 -0.224647 0.141562
O 1.060894 -0.363092 1.094609
H 1.265276 -0.152741 0.181335
H 1.587353 -1.128178 1.334551
6
Structure 596 | Energy: -10.143144 Hartree
O 0.487559 0.270540 1.768343
H -0.411050 0.389185 2.082209
H 0.599483 -0.661914 1.573169
O -0.249317 -0.373792 -2.201249
H 0.148733 0.330672 -1.686104
H 0.466302 -0.896834 -2.567860
6
Structure 597 | Energy: -10.143139 Hartree
O 0.788992 -1.596878 0.633372
H 1.489202 -1.412374 0.004286
H -0.022080 -1.236677 0.269357
O -0.391819 0.082100 -2.042264
H 0.019349 0.850640 -2.442733
H -0.792795 0.370549 -1.220010
6
Structure 598 | Energy: -10.143137 Hartree
O -1.256877 -1.443566 1.237378
H -0.604113 -2.109417 1.012374
H -0.869182 -0.882120 1.911590
O 0.407512 0.597368 -1.616368
H 0.018348 0.976440 -0.825835
H -0.313243 0.276981 -2.162219
6
Structure 599 | Energy: -10.143132 Hartree
O -2.134798 0.702918 -0.040104
H -2.603579 -0.094348 -0.294462
H -2.771760 1.420108 -0.042974
O 0.121821 -0.275901 1.678157
H -0.208907 0.608343 1.508393
H 1.054077 -0.278702 1.452372
6
Structure 600 | Energy: -10.143130 Hartree
O -1.223852 0.535547 1.145295
H -0.491289 -0.049513 1.348132
H -1.933083 0.324867 1.755784
O 1.594987 -1.133456 -1.317254
H 1.197062 -1.942857 -1.643772
H 0.887081 -0.497589 -1.196302
6
Structure 601 | Energy: -10.143125 Hartree
O -1.387053 1.606697 -0.622370
H -1.866215 1.244582 -1.370275
H -0.522058 1.192258 -0.611583
O 1.540060 -0.123856 0.808855
H 0.889108 -0.819766 0.918665
H 2.405158 -0.525399 0.911114
6
Structure 602 | Energy: -10.143116 Hartree
O 0.578421 2.271826 -0.399673
H 0.221735 1.753116 -1.123415
H -0.092765 2.303513 0.284868
O 1.334090 -0.952457 0.175852
H 1.285867 -1.187477 1.104576
H 2.253884 -0.766286 -0.022659
6
Structure 603 | Energy: -10.143116 Hartree
O 1.694717 0.241299 -0.419371
H 1.394346 0.491633 -1.295269
H 2.230621 0.963480 -0.085677
O 0.835804 -1.281907 1.658607
H 1.777733 -1.461443 1.633640
H 0.712093 -0.373904 1.375210
6
Structure 604 | Energy: -10.143100 Hartree
O -0.235936 -0.260673 1.480978
H -0.618561 0.420127 0.924025
H 0.018256 0.157068 2.306187
O 0.553264 0.607378 -0.898575
H 0.582295 -0.323709 -1.127317
H 0.587669 1.102710 -1.719276
6
Structure 605 | Energy: -10.143096 Hartree
O 0.834242 -1.256485 0.407654
H 0.756887 -1.124276 -0.539248
H 0.744089 -0.396493 0.822837
O -1.724320 1.263620 0.018327
H -2.657843 1.199196 -0.192557
H -1.371420 2.004585 -0.478181
6
Structure 606 | Energy: -10.143094 Hartree
O 1.024736 0.355780 -0.799901
H 0.544674 -0.393067 -1.158864
H 0.407368 0.859317 -0.265673
O 0.594629 -2.080447 0.411645
H 0.051063 -2.073207 1.201943
H 1.391105 -2.573025 0.619203
6
Structure 607 | Energy: -10.143092 Hartree
O 2.010873 -0.300101 -0.099895
H 2.830758 -0.215034 0.390654
H 1.367687 -0.699665 0.488961
O -1.245150 1.079561 0.046502
H -0.468507 1.498208 -0.329860
H -1.580695 1.664479 0.728681
6
Structure 608 | Energy: -10.143086 Hartree
O 0.075377 1.669374 0.392101
H -0.000562 1.238383 -0.461459
H -0.508362 1.207004 0.996711
O -1.072250 -1.082521 -1.594722
H -1.117322 -1.703868 -2.324094
H -0.164178 -0.779193 -1.535671
6
Structure 609 | Energy: -10.143081 Hartree
O 0.345619 -1.111267 -0.750268
H 0.104703 -0.353650 -0.213554
H 0.349075 -1.878059 -0.173979
O -0.878065 1.836496 1.140964
H -0.474522 1.750289 0.275049
H -0.384548 2.505845 1.618983
6
Structure 610 | Energy: -10.143080 Hartree
O -0.603764 -1.460301 -0.986427
H -1.153856 -2.222577 -1.177265
H -0.376294 -1.500096 -0.055425
O 0.545425 0.304356 2.239510
H -0.351349 0.179915 2.556366
H 0.490496 0.793565 1.416257
6
Structure 611 | Energy: -10.143077 Hartree
O 1.608768 -0.841921 0.275211
H 1.325648 -1.005748 -0.626504
H 1.435944 0.082583 0.463670
O -0.476477 1.832622 -0.132160
H -0.102496 2.115627 -0.968900
H -0.978979 1.033301 -0.301469
6
Structure 612 | Energy: -10.143074 Hartree
O -0.936408 -0.162122 -2.105357
H -0.596150 -0.624894 -2.873571
H -0.197786 0.295851 -1.699415
O 0.645850 0.755947 1.595108
H -0.311319 0.738737 1.655272
H 0.946780 -0.154836 1.593368
6
Structure 613 | Energy: -10.143068 Hartree
O -0.625170 -1.249906 1.780490
H 0.012638 -1.133000 2.487327
H -0.528989 -0.504183 1.184892
O 0.039446 1.623955 -1.118564
H -0.193813 2.498971 -0.802298
H 0.838217 1.714637 -1.641852
6
Structure 614 | Energy: -10.143067 Hartree
O -0.336626 1.957951 -1.048743
H 0.241193 2.138094 -0.304592
H 0.131560 1.358682 -1.633353
O 0.749237 -1.176032 1.189109
H 0.199693 -1.811807 1.651580
H 0.207876 -0.777077 0.505113
6
Structure 615 | Energy: -10.143063 Hartree
O -2.063763 -0.659864 -0.105909
H -2.462566 -0.030762 0.498470
H -2.026064 -0.240894 -0.967961
O 0.950446 0.528582 0.332232
H 1.646653 -0.127524 0.262182
H 0.486735 0.363906 1.155604
6
Structure 616 | Energy: -10.143063 Hartree
O 0.465039 -1.716281 0.553196
H -0.386337 -2.005835 0.219425
H 1.098787 -2.407924 0.352984
O -0.608953 0.496578 -1.563668
H -1.196274 -0.126832 -1.995525
H 0.093874 -0.011992 -1.154427
6
Structure 617 | Energy: -10.143062 Hartree
O -1.155790 1.196137 0.815763
H -1.795347 1.877177 0.598419
H -1.569717 0.610702 1.452960
O 0.151122 -1.185849 -0.953660
H -0.586827 -1.758828 -0.736375
H 0.367915 -0.689349 -0.162094
6
Structure 618 | Energy: -10.143062 Hartree
O -0.614772 2.163821 -0.229451
H -0.993780 1.975087 0.631257
H -1.341582 2.226825 -0.852242
O -1.044386 -1.060676 0.532897
H -0.572278 -0.316272 0.911135
H -0.560610 -1.854182 0.770377
6
Structure 619 | Energy: -10.143058 Hartree
O -0.256622 0.368740 -0.775427
H 0.397790 0.085297 -0.133952
H -0.767901 1.070858 -0.368346
O -0.036531 -0.437494 1.757764
H -0.052603 0.258937 2.417167
H 0.400192 -1.193961 2.154146
6
Structure 620 | Energy: -10.143057 Hartree
O 1.210200 0.218538 0.407756
H 0.620110 -0.493269 0.663121
H 1.091843 0.361835 -0.533280
O -1.872915 -0.515764 0.437012
H -1.469535 0.346157 0.316742
H -1.849160 -0.961474 -0.412026
6
Structure 621 | Energy: -10.143051 Hartree
O -0.219421 -0.363343 0.815063
H 0.243995 0.197659 0.190077
H 0.107650 -1.256598 0.691728
O -0.988262 0.615683 -1.794299
H -0.634483 0.485214 -2.676289
H -1.944565 0.615614 -1.868948
6
Structure 622 | Energy: -10.143050 Hartree
O 0.165027 1.976401 -0.842296
H 0.440725 2.863697 -0.604006
H -0.227003 1.581331 -0.061064
O -1.233097 -0.001491 0.959469
H -1.171696 0.534677 1.752464
H -1.522633 -0.875307 1.229104
6
Structure 623 | Energy: -10.143048 Hartree
O -1.073281 -0.389013 2.000062
H -0.688523 -0.208734 1.140092
H -0.406303 -0.184077 2.658266
O 0.171241 0.338846 -1.138811
H -0.288625 0.963845 -0.574909
H -0.468956 -0.320716 -1.413061
6
Structure 624 | Energy: -10.143047 Hartree
O -0.240540 1.843345 0.750621
H 0.582834 1.652956 1.204375
H -0.552560 2.691473 1.072200
O 0.732888 -0.259222 -1.441870
H 1.421390 -0.624459 -0.882714
H -0.067042 -0.213754 -0.914487
6
Structure 625 | Energy: -10.143042 Hartree
O 1.902567 0.939509 -0.431728
H 1.909120 -0.011660 -0.555503
H 2.587843 1.304021 -0.995305
O 0.319728 -0.911432 1.274786
H 0.460903 0.017746 1.082990
H 0.897830 -1.412027 0.695743
6
Structure 626 | Energy: -10.143042 Hartree
O -0.239127 -1.663835 -1.447836
H 0.499679 -1.252882 -0.994658
H -0.599210 -1.012352 -2.052815
O -0.551436 0.665778 1.478325
H -0.041632 0.155753 2.110829
H -1.390488 0.875677 1.893082
6
Structure 627 | Energy: -10.143028 Hartree
O -0.099386 -0.447513 -0.920926
H -1.004981 -0.206355 -1.125442
H -0.113058 -0.921607 -0.087176
O 0.782591 1.250083 1.381981
H 0.973171 0.345604 1.638270
H 1.378446 1.473508 0.664258
6
Structure 628 | Energy: -10.143026 Hartree
O -0.067371 -1.938544 0.814907
H -0.570580 -2.536632 1.370926
H 0.181283 -1.187695 1.357574
O -0.477169 1.089449 -0.772900
H -0.247133 0.252689 -1.181561
H -0.128950 1.074360 0.120747
6
Structure 629 | Energy: -10.143026 Hartree
O -0.534552 1.242369 1.303519
H 0.148053 1.595789 0.729732
H -0.107925 0.636793 1.912910
O 1.319477 -0.415006 -1.584057
H 0.681315 -1.131107 -1.589918
H 0.827496 0.404572 -1.663654
6
Structure 630 | Energy: -10.143024 Hartree
O -1.261808 -1.134461 1.220850
H -0.459023 -1.633627 1.058198
H -1.258704 -0.387529 0.619041
O -0.641015 1.643210 -1.434138
H -0.464841 2.177574 -2.210995
H -1.046977 0.828261 -1.736033
6
Structure 631 | Energy: -10.143021 Hartree
O 0.569827 -1.001098 -1.895313
H 1.045784 -1.823809 -1.766093
H -0.163940 -0.997385 -1.277524
O -1.479088 0.741719 1.116307
H -2.223208 0.697026 1.719943
H -0.834874 1.337861 1.503205
6
Structure 632 | Energy: -10.143016 Hartree
O -0.998622 1.738480 -0.991547
H -1.716405 1.382054 -1.518648
H -1.346214 1.903507 -0.112891
O -0.458025 -0.567581 0.825896
H 0.471137 -0.423190 0.636430
H -0.532634 -1.428679 1.241867
6
Structure 633 | Energy: -10.143014 Hartree
O 1.278260 0.157712 -0.867690
H 1.313673 0.216889 -1.824419
H 1.843332 0.850036 -0.519162
O 1.222359 -0.484078 1.823787
H 0.632882 -1.111125 1.400211
H 2.101102 -0.637392 1.471093
6
Structure 634 | Energy: -10.143014 Hartree
O 0.039349 -1.558253 -1.567378
H 0.234088 -2.478166 -1.377848
H 0.550628 -1.027357 -0.953510
O -0.833930 0.466836 1.431072
H -1.377251 0.323475 0.653680
H -0.073124 0.981611 1.154905
6
Structure 635 | Energy: -10.143013 Hartree
O -2.115787 -0.492697 0.095429
H -1.825294 -0.835797 0.942767
H -1.334008 -0.381568 -0.449146
O 0.158660 1.396530 -1.657297
H -0.304821 1.578877 -2.477066
H 0.834753 0.744606 -1.852184
6
Structure 636 | Energy: -10.143006 Hartree
O -0.818341 -0.132799 -1.270356
H -0.806113 -1.011427 -0.885712
H -1.282016 -0.195717 -2.107695
O 1.180648 0.683180 1.821293
H 1.573683 0.039704 1.228377
H 1.037270 1.485329 1.315242
6
Structure 637 | Energy: -10.142998 Hartree
O 1.047847 1.938550 0.473500
H 0.491334 1.174775 0.309099
H 0.888224 2.217027 1.377415
O 0.214452 -1.357608 -0.095693
H 0.645387 -0.845849 0.591683
H 0.822161 -1.407162 -0.836181
6
Structure 638 | Energy: -10.142998 Hartree
O -1.004571 1.521335 1.513110
H -1.950363 1.414350 1.631931
H -0.714035 0.832351 0.912294
O 1.083526 -1.382538 -0.345925
H 0.937936 -1.089652 0.555800
H 1.996976 -1.187276 -0.564030
6
Structure 639 | Energy: -10.142996 Hartree
O -0.223040 -0.307277 1.896537
H -0.499736 -1.117558 2.328937
H -0.599249 -0.313400 1.014200
O -0.398050 1.354177 -0.791165
H 0.541591 1.341239 -0.598825
H -0.541715 0.778256 -1.544667
6
Structure 640 | Energy: -10.142996 Hartree
O -0.520643 -1.091290 1.575921
H -1.413270 -1.441621 1.599818
H 0.072428 -1.833634 1.444457
O -1.137029 0.472243 -0.563578
H -0.388455 0.910132 -0.153728
H -1.036599 -0.468680 -0.406521
6
Structure 641 | Energy: -10.142995 Hartree
O 0.987645 0.549231 1.631927
H 1.693390 0.048463 1.218114
H 1.220969 1.477243 1.565265
O 0.453452 -1.526468 -0.266434
H -0.459815 -1.440850 0.014102
H 0.515958 -2.328036 -0.789568
6
Structure 642 | Energy: -10.142992 Hartree
O -1.319761 1.470640 -0.165389
H -1.329537 2.402404 0.062220
H -0.556206 1.081076 0.265091
O -0.410848 -1.882313 1.044865
H -0.745324 -1.307840 1.736381
H -1.168489 -2.304083 0.634770
6
Structure 643 | Energy: -10.142992 Hartree
O 1.217357 1.014944 -1.711427
H 0.527559 1.512316 -1.267708
H 0.786915 0.424905 -2.333251
O -0.902908 -0.229971 0.950814
H -1.755261 -0.545951 1.256980
H -0.373444 -0.042480 1.728377
6
Structure 644 | Energy: -10.142989 Hartree
O 0.164720 -0.331814 -2.332734
H 0.624855 0.014583 -1.565681
H -0.478721 -0.968111 -2.014613
O -1.392699 0.422441 1.039800
H -1.845231 0.465774 0.195156
H -1.011844 1.287596 1.202722
6
Structure 645 | Energy: -10.142979 Hartree
O -1.104091 -0.270089 1.376170
H -0.817570 0.378893 2.021783
H -0.547803 -1.043889 1.485103
O -0.043605 0.075836 -2.103217
H -0.586232 -0.713928 -2.059452
H -0.635083 0.829681 -2.058961
6
Structure 646 | Energy: -10.142977 Hartree
O -0.378058 1.955472 -1.022658
H 0.418689 1.572024 -1.394474
H -0.293997 1.915001 -0.067992
O -0.927565 -0.099743 1.708995
H -1.531019 -0.675312 2.182967
H -0.069234 -0.527940 1.706960
6
Structure 647 | Energy: -10.142966 Hartree
O -0.194793 0.720546 -1.601183
H -0.906619 0.228887 -1.186865
H -0.330811 1.646989 -1.393114
O 1.379651 -1.507192 0.438473
H 0.984474 -0.634973 0.382288
H 2.331406 -1.389744 0.417105
6
Structure 648 | Energy: -10.142965 Hartree
O -0.253599 -1.611281 0.976776
H -0.231429 -2.546044 1.190817
H 0.206299 -1.147967 1.679573
O 0.561672 1.429203 -0.174360
H 0.422158 0.643150 -0.706097
H 1.388480 1.822528 -0.460320
6
Structure 649 | Energy: -10.142957 Hartree
O 1.066084 -1.459948 0.854368
H 1.255328 -2.072384 1.567947
H 1.651022 -1.681598 0.127176
O -2.214018 0.615181 -0.252559
H -2.109264 -0.190519 0.257304
H -1.859668 1.333454 0.275274
6
Structure 650 | Energy: -10.142954 Hartree
O 1.362233 -0.954900 -0.523610
H 0.732501 -0.329270 -0.887080
H 0.952182 -1.821475 -0.555161
O -2.008043 0.316414 0.841211
H -1.287469 0.900233 0.596226
H -1.830046 0.003038 1.730143
6
Structure 651 | Energy: -10.142953 Hartree
O -0.004291 0.117150 0.701570
H 0.345614 -0.344245 -0.063131
H -0.137471 1.031788 0.445071
O -1.171853 0.906988 -1.759008
H -0.871125 1.769281 -2.052437
H -1.744293 1.048117 -1.002381
6
Structure 652 | Energy: -10.142950 Hartree
O 1.881247 0.847642 -0.380598
H 1.066591 0.520775 -0.767353
H 2.015324 0.373368 0.442310
O -2.222395 -0.359354 0.411618
H -3.175553 -0.285965 0.332927
H -2.030803 -0.613422 1.316510
6
Structure 653 | Energy: -10.142945 Hartree
O -1.391863 1.019208 1.396887
H -1.498554 0.504724 2.199388
H -1.380265 1.943880 1.651716
O -0.033215 -0.051564 -1.452806
H 0.743692 -0.319895 -0.958335
H -0.293336 0.812105 -1.126461
6
Structure 654 | Energy: -10.142944 Hartree
O -1.647656 1.095693 -0.393823
H -1.041672 1.804984 -0.170717
H -2.171348 0.912822 0.388734
O 0.047787 -0.986453 1.875171
H 0.860029 -1.181050 1.403490
H -0.374637 -1.824997 2.071358
6
Structure 655 | Energy: -10.142943 Hartree
O -0.199710 -1.394568 0.283618
H 0.102055 -2.010200 0.954454
H -0.310714 -1.891925 -0.529035
O 0.478406 1.415173 -1.619743
H 1.186338 0.841868 -1.319344
H -0.296623 0.865198 -1.749922
6
Structure 656 | Energy: -10.142940 Hartree
O 0.966235 -0.616657 -1.121504
H 1.192931 0.194344 -1.580823
H 0.499511 -0.368780 -0.320994
O 0.162839 2.143069 0.705646
H -0.118410 2.916242 0.212505
H -0.591316 1.553149 0.763370
6
Structure 657 | Energy: -10.142938 Hartree
O -0.039790 -0.100848 1.241386
H -0.565351 0.181444 0.490265
H 0.708198 -0.592164 0.896113
O 1.446902 0.890374 -0.810459
H 0.692308 1.450558 -0.618442
H 1.909440 1.281906 -1.553997
6
Structure 658 | Energy: -10.142929 Hartree
O 1.211589 1.429733 1.234682
H 0.502655 1.300870 1.867844
H 0.925002 2.109750 0.621873
O 0.744934 -1.447059 -0.234938
H 0.602249 -0.533289 -0.489405
H 1.627440 -1.687816 -0.523566
6
Structure 659 | Energy: -10.142928 Hartree
O 1.906267 0.058887 -0.302472
H 2.567973 0.437316 -0.884728
H 1.148022 -0.168652 -0.844119
O -1.200441 -1.005508 0.036169
H -1.327998 -0.325669 -0.628387
H -0.865832 -0.573100 0.824299
6
Structure 660 | Energy: -10.142927 Hartree
O 0.969589 -0.535547 -1.370310
H 0.028564 -0.437586 -1.528304
H 1.319737 0.338898 -1.189110
O -0.631666 0.116067 1.379124
H -0.108763 -0.474809 0.833665
H -0.744882 0.931479 0.886809
6
Structure 661 | Energy: -10.142925 Hartree
O 0.896905 -1.696563 -0.967028
H 1.280084 -0.942085 -1.418717
H -0.045823 -1.684679 -1.143703
O -1.593610 0.213220 0.245692
H -1.438756 -0.733298 0.260202
H -2.310643 0.393147 0.856902
6
Structure 662 | Energy: -10.142915 Hartree
O 0.861128 1.517146 0.525712
H 0.149755 0.945369 0.820847
H 0.546687 1.983954 -0.251018
O 0.493915 -2.208461 -0.303899
H 1.113287 -2.907707 -0.085905
H 0.807213 -1.792405 -1.109398
6
Structure 663 | Energy: -10.142911 Hartree
O -1.569437 0.547160 0.479193
H -2.092700 1.339189 0.341456
H -0.647516 0.796874 0.390896
O 1.883098 -1.202083 -0.098881
H 1.514876 -2.086893 -0.139029
H 1.756031 -0.881879 0.796334
6
Structure 664 | Energy: -10.142909 Hartree
O -0.570343 1.127105 1.400202
H -1.485374 0.839528 1.389995
H -0.314487 1.292739 0.490700
O 1.249389 -0.435276 -1.733427
H 1.789277 -1.228035 -1.745276
H 0.902410 -0.341169 -0.844137
6
Structure 665 | Energy: -10.142907 Hartree
O -0.830580 -0.714558 2.037211
H -0.436399 -0.380865 1.228907
H -1.289750 0.017945 2.452773
O 0.543839 1.093926 -1.655009
H -0.329459 1.209927 -2.034458
H 0.894871 0.269330 -1.996923
6
Structure 666 | Energy: -10.142906 Hartree
O -0.090927 1.937004 1.131894
H -0.371144 2.854243 1.116527
H 0.466841 1.797490 0.364092
O -0.531491 -1.609141 -0.656619
H -0.811315 -2.491441 -0.908279
H -0.868457 -1.445315 0.226389
6
Structure 667 | Energy: -10.142893 Hartree
O 0.850193 0.747683 1.004835
H 1.226250 0.769388 1.886989
H 1.453278 1.219690 0.427265
O -0.913138 -1.369689 -1.614913
H -1.086883 -1.054166 -0.725899
H -1.205709 -2.282328 -1.654671
6
Structure 668 | Energy: -10.142887 Hartree
O 0.602376 -1.294625 -1.503867
H 0.451113 -1.478751 -2.433008
H 1.534384 -1.443609 -1.332829
O 0.146882 1.519073 0.539979
H -0.448114 0.857778 0.898807
H 0.984823 1.084550 0.369294
6
Structure 669 | Energy: -10.142881 Hartree
O 0.120138 1.505084 -0.808677
H 0.753849 1.066345 -0.237710
H 0.386864 1.333311 -1.713907
O -0.483033 -1.788315 0.831447
H -1.403820 -1.534961 0.741719
H -0.062542 -1.135930 1.395068
6
Structure 670 | Energy: -10.142876 Hartree
O -0.369920 -0.982196 -0.187454
H -0.042101 -1.479585 0.564360
H -0.510003 -1.606684 -0.901935
O -1.502315 1.374117 0.281930
H -1.231001 1.010330 1.126996
H -1.682854 0.634126 -0.301085
6
Structure 671 | Energy: -10.142875 Hartree
O -0.230575 1.161928 -2.056247
H -0.784728 0.970301 -1.297117
H 0.059104 0.321210 -2.415926
O 0.625569 -1.253991 0.192926
H 0.890865 -1.174935 -0.725473
H 1.376199 -0.990969 0.729080
6
Structure 672 | Energy: -10.142868 Hartree
O 1.465947 0.902561 0.654731
H 1.849646 0.856474 -0.223186
H 0.559489 1.199447 0.553327
O -0.226631 -0.495100 -1.773419
H -0.651853 -0.762926 -2.590452
H -0.916697 -0.191750 -1.180228
6
Structure 673 | Energy: -10.142865 Hartree
O 1.884994 -0.985370 0.235213
H 1.209694 -0.342377 0.460192
H 1.565968 -1.478916 -0.522893
O -0.347676 0.127578 2.218104
H -0.106145 1.031582 2.429118
H -1.268640 0.134811 1.950034
6
Structure 674 | Energy: -10.142864 Hartree
O 1.771248 1.118534 0.334340
H 0.817643 1.060778 0.248380
H 1.955481 1.733663 1.046916
O -0.898156 -0.127581 -2.097205
H -1.781456 -0.491025 -2.185386
H -0.343310 -0.569737 -2.742753
6
Structure 675 | Energy: -10.142861 Hartree
O 1.153055 1.186452 1.357402
H 0.633382 0.619009 1.930147
H 0.737923 2.051170 1.361731
O -1.015534 -0.378474 -0.151890
H -0.201914 -0.488106 -0.647965
H -0.872337 -0.759867 0.716511
6
Structure 676 | Energy: -10.142858 Hartree
O 0.998633 0.037881 -1.478975
H 0.100465 -0.081935 -1.164293
H 1.327117 -0.825866 -1.736133
O -0.184755 0.928643 0.940365
H -0.627980 1.715792 0.617820
H 0.280695 1.173306 1.742602
6
Structure 677 | Energy: -10.142858 Hartree
O 0.660658 -1.968128 0.954839
H -0.274136 -1.776798 0.856664
H 1.074282 -1.807701 0.104386
O -0.331269 1.413956 -0.637113
H -0.855533 1.644183 -1.406678
H 0.428547 1.999306 -0.625560
6
Structure 678 | Energy: -10.142852 Hartree
O 1.987722 0.127215 -0.796735
H 2.061564 -0.664431 -0.260143
H 1.826125 0.860717 -0.200117
O -0.566601 -1.345103 1.682612
H -0.710936 -1.086777 0.770185
H -0.736890 -0.573626 2.226591
6
Structure 679 | Energy: -10.142843 Hartree
O -0.993086 0.627263 -0.593365
H -0.257160 1.195158 -0.356733
H -1.011106 0.569730 -1.550682
O 0.950582 -2.022457 0.114186
H 1.421194 -2.731349 0.556998
H 0.012949 -2.200230 0.210772
6
Structure 680 | Energy: -10.142840 Hartree
O 0.770711 -0.747847 -1.891557
H 0.513774 -0.714932 -2.815130
H 0.652932 -1.652768 -1.596029
O -1.095471 0.718158 1.284584
H -1.504354 -0.122576 1.499220
H -0.260317 0.526059 0.853649
6
Structure 681 | Energy: -10.142836 Hartree
O -1.953740 -0.715206 -0.926746
H -2.203208 -1.167083 -1.735238
H -1.022402 -0.497282 -0.998914
O 0.763858 0.268720 1.815581
H 0.296202 -0.507696 2.129527
H 0.227156 0.664014 1.125812
6
Structure 682 | Energy: -10.142832 Hartree
O 0.888376 -1.714700 0.702578
H 1.075249 -1.119666 1.431344
H 0.385250 -1.219360 0.053276
O -0.719757 0.672715 -2.035339
H -0.907628 1.473890 -2.528199
H 0.227791 0.644959 -1.888813
6
Structure 683 | Energy: -10.142830 Hartree
O -0.304509 1.635718 -1.292330
H -0.473246 1.768683 -2.227174
H -0.543928 0.729959 -1.086489
O -0.627408 -1.228886 0.851866
H -0.613683 -2.074337 0.398973
H 0.271188 -0.893315 0.854284
6
Structure 684 | Energy: -10.142826 Hartree
O -0.356420 0.251256 1.580486
H -0.463735 -0.649354 1.268282
H -0.414444 0.228886 2.537681
O -2.025319 -0.039517 -0.895617
H -1.836191 -0.909868 -1.251716
H -1.184644 0.405308 -0.771179
6
Structure 685 | Energy: -10.142825 Hartree
O 1.310977 -0.424599 0.171368
H 2.261615 -0.393024 0.047369
H 1.061521 0.364054 0.657052
O -1.146179 1.445745 -1.117826
H -1.802547 2.007373 -1.534769
H -1.531082 0.570884 -1.036850
6
Structure 686 | Energy: -10.142823 Hartree
O 1.326496 -0.881012 0.616544
H 0.568647 -1.004187 1.191504
H 1.778210 -0.086678 0.908229
O -0.779428 0.666731 -1.717419
H -0.146311 0.056748 -2.101047
H -0.466636 1.554434 -1.902441
6
Structure 687 | Energy: -10.142823 Hartree
O -0.581983 -0.848891 -1.991925
H -0.876580 -1.050469 -1.101607
H -0.659129 0.100066 -2.108629
O 0.102155 1.675695 1.127260
H 0.539671 2.457681 0.784968
H -0.525961 1.968904 1.790274
6
Structure 688 | Energy: -10.142819 Hartree
O -0.076933 -1.362781 1.793986
H -0.560996 -2.043958 1.323065
H -0.038116 -0.594365 1.221168
O 0.550162 1.246894 -0.808228
H -0.061866 1.007270 -1.506862
H 1.288094 0.635872 -0.855104
6
Structure 689 | Energy: -10.142817 Hartree
O 0.351395 1.333696 -1.314535
H 1.156712 0.892154 -1.591288
H 0.071607 1.895257 -2.040110
O 0.270659 -1.188478 0.101401
H -0.477867 -0.598053 0.207212
H -0.048855 -1.975014 -0.345096
6
Structure 690 | Energy: -10.142816 Hartree
O 0.140673 2.254114 0.147357
H 0.830018 2.451254 0.784558
H -0.677251 2.617757 0.492112
O 0.882772 -1.358968 -0.891822
H 0.990526 -0.484609 -0.512383
H 0.683783 -1.959102 -0.170482
6
Structure 691 | Energy: -10.142811 Hartree
O -0.972959 1.059823 1.310543
H -1.400230 1.021483 0.452606
H -1.562386 0.640387 1.940417
O 0.461490 -0.236011 -0.460833
H 0.928849 0.394875 0.090208
H 0.707329 -0.055652 -1.370295
6
Structure 692 | Energy: -10.142809 Hartree
O -2.038588 -0.966873 -0.283981
H -1.253496 -1.515383 -0.337395
H -2.797285 -1.552862 -0.316957
O 0.444628 0.567517 0.441133
H 0.436776 0.889235 -0.462483
H 0.077996 1.261260 0.992849
6
Structure 693 | Energy: -10.142805 Hartree
O 0.114084 -0.863509 -1.709901
H 0.202304 -1.795942 -1.502846
H -0.216867 -0.802069 -2.608115
O -0.484962 0.828093 0.667672
H -0.339293 0.122379 1.300788
H -0.951342 0.447796 -0.079290
6
Structure 694 | Energy: -10.142797 Hartree
O -0.841584 -1.103417 1.797071
H 0.102574 -1.208837 1.664643
H -1.234839 -1.976824 1.746063
O 1.077459 0.978052 -1.044227
H 0.724784 1.027285 -0.153563
H 0.655118 0.232988 -1.476195
6
Structure 695 | Energy: -10.142797 Hartree
O -1.441019 0.239096 0.840910
H -1.554120 -0.005797 1.761411
H -2.288105 0.561091 0.526497
O 0.863574 -1.079464 -1.856841
H 1.124403 -1.529660 -1.051001
H -0.094632 -1.035693 -1.860362
6
Structure 696 | Energy: -10.142796 Hartree
O -0.597328 -1.094684 1.622756
H 0.040146 -0.954384 0.919884
H -1.411718 -0.662488 1.358057
O 1.390248 0.042012 -1.766860
H 0.734957 0.539206 -2.260295
H 1.399788 -0.848094 -2.124225
6
Structure 697 | Energy: -10.142782 Hartree
O 1.161556 -1.385767 0.604184
H 0.800944 -0.533850 0.857724
H 2.074401 -1.242561 0.346703
O 0.029860 1.612516 -1.356521
H -0.694892 1.856133 -0.777321
H -0.143275 2.011563 -2.211433
6
Structure 698 | Energy: -10.142782 Hartree
O 1.492514 -0.637808 0.716172
H 0.605626 -0.594404 1.078982
H 2.028010 -1.139200 1.334186
O -1.961675 0.117316 -0.825860
H -1.924817 0.487099 -1.710162
H -1.326556 0.597141 -0.290623
6
Structure 699 | Energy: -10.142780 Hartree
O 1.060666 1.657371 0.208125
H 0.561006 0.841170 0.143002
H 1.990703 1.423353 0.189213
O -2.098113 -0.528496 -0.445666
H -2.153686 -0.992567 -1.283303
H -2.773295 -0.896031 0.128037
6
Structure 700 | Energy: -10.142779 Hartree
O -0.921292 -1.328911 -1.172792
H -0.433945 -0.945047 -0.441200
H -0.786317 -2.277913 -1.137195
O -0.910325 0.315572 1.249321
H -0.306535 0.982624 0.916806
H -0.805640 0.287434 2.202389
6
Structure 701 | Energy: -10.142777 Hartree
O -1.022767 1.774598 0.097391
H -1.303727 2.348188 -0.618250
H -1.742627 1.736495 0.730195
O 0.156804 -1.398727 -0.323505
H -0.353423 -1.737228 0.414854
H 0.702656 -0.684860 0.011945
6
Structure 702 | Energy: -10.142773 Hartree
O 0.645228 -0.639024 -0.693252
H 0.289425 -1.333272 -1.251382
H -0.097552 -0.214977 -0.259026
O -0.757271 1.654328 -0.956618
H -1.590479 1.317797 -1.292174
H -0.069887 1.362255 -1.558518
6
Structure 703 | Energy: -10.142773 Hartree
O -2.005232 -0.382424 0.772677
H -1.920792 -0.654463 -0.143266
H -1.669965 0.514143 0.834770
O 1.452969 0.220390 -1.284087
H 1.215238 -0.175369 -2.124887
H 2.351821 -0.050220 -1.086797
6
Structure 704 | Energy: -10.142765 Hartree
O -0.156177 -0.929419 2.116223
H 0.227018 -1.483027 1.433021
H -0.639788 -0.228043 1.675447
O 0.202850 0.181131 -1.942968
H 0.359714 0.554235 -2.812608
H -0.282661 -0.636620 -2.068071
6
Structure 705 | Energy: -10.142760 Hartree
O 0.575674 -2.086191 -0.568424
H 1.213866 -2.676042 -0.162378
H -0.279833 -2.284161 -0.182410
O 0.896202 1.218127 0.984941
H 0.509485 0.866862 1.789398
H 1.323540 0.487995 0.532858
6
Structure 706 | Energy: -10.142759 Hartree
O -0.472625 -0.490889 -1.480379
H -0.226348 -0.467317 -2.407136
H -0.116195 -1.301788 -1.112287
O -0.301937 0.977163 1.737788
H -1.134086 1.122304 2.192266
H -0.407795 0.193651 1.194658
6
Structure 707 | Energy: -10.142756 Hartree
O 0.520350 -1.632406 -0.033610
H 0.780636 -1.021490 0.658574
H 1.151083 -2.355052 -0.026619
O -0.242429 0.345193 -1.804439
H -0.792149 0.817033 -2.433137
H -0.571106 -0.554810 -1.759117
6
Structure 708 | Energy: -10.142748 Hartree
O -0.735084 -1.099507 -1.998905
H -0.635696 -1.589360 -1.180216
H 0.036070 -0.536094 -2.088219
O 0.279365 1.110739 0.111007
H 0.985603 0.652596 0.570811
H 0.209353 1.985720 0.497781
6
Structure 709 | Energy: -10.142733 Hartree
O 1.068097 -1.603667 0.475800
H 1.353847 -0.790358 0.896470
H 0.380252 -1.372534 -0.151525
O -1.230167 -0.566869 0.919367
H -1.136609 -0.827658 1.837693
H -1.683998 -1.280223 0.466319
6
Structure 710 | Energy: -10.142733 Hartree
O 1.916362 1.122080 -0.574890
H 2.040419 1.506572 -1.444869
H 1.534115 0.251407 -0.701010
O -0.812041 -0.520428 0.614137
H -0.893736 0.427259 0.490437
H -1.463916 -0.938056 0.047804
6
Structure 711 | Energy: -10.142731 Hartree
O -1.062149 -1.000723 -0.618902
H -1.175767 -1.680758 -1.285782
H -0.479695 -0.334471 -0.988964
O 0.266290 1.194257 1.655439
H 0.897192 1.674358 1.115482
H 0.062768 0.377287 1.195847
6
Structure 712 | Energy: -10.142730 Hartree
O -0.293204 -0.849564 2.038710
H 0.086923 -0.931020 1.161809
H -0.972248 -1.522448 2.117570
O -1.100528 0.168478 -1.377761
H -1.336011 -0.552638 -1.964811
H -1.918652 0.571215 -1.080163
6
Structure 713 | Energy: -10.142719 Hartree
O 1.268041 -1.524913 1.175627
H 1.337031 -2.464697 1.354886
H 0.675818 -1.153211 1.832285
O -0.959406 0.222270 -0.757556
H -1.028093 0.208764 0.199098
H -0.467384 -0.558839 -1.018074
6
Structure 714 | Energy: -10.142718 Hartree
O -1.705473 -0.309761 -0.440524
H -1.292165 0.481401 -0.791699
H -2.612226 -0.084209 -0.223693
O 1.277487 0.005292 -1.845362
H 1.565751 -0.909447 -1.829743
H 0.749970 0.123392 -2.637742
6
Structure 715 | Energy: -10.142717 Hartree
O 1.761798 0.835775 -1.388107
H 1.551580 0.095850 -0.815041
H 0.980937 1.391047 -1.433054
O -0.000365 -0.261883 1.936927
H -0.760424 -0.519479 1.411530
H -0.324051 0.284153 2.656067
6
Structure 716 | Energy: -10.142707 Hartree
O -0.256932 2.035213 -0.954060
H -0.122090 2.935026 -0.650350
H 0.371454 1.480733 -0.487397
O -0.009562 -1.124094 1.113411
H 0.232866 -0.719378 1.948588
H -0.743282 -0.620151 0.755941
6
Structure 717 | Energy: -10.142702 Hartree
O 1.799105 0.078850 1.525404
H 1.418110 0.214957 2.395119
H 1.071838 0.019975 0.902743
O -0.908989 -1.406323 -0.184895
H -0.861961 -2.361023 -0.265043
H -0.945243 -1.201317 0.751452
6
Structure 718 | Energy: -10.142702 Hartree
O 0.678602 0.081528 2.128399
H 0.213994 -0.712917 2.398738
H 0.621637 0.705077 2.855057
O -1.329116 -1.174674 -0.244600
H -1.174180 -0.834781 0.638890
H -0.545865 -1.665096 -0.501687
6
Structure 719 | Energy: -10.142700 Hartree
O 1.604520 0.769441 0.940739
H 1.685330 0.198831 0.173953
H 1.362738 1.641195 0.621871
O -0.381956 -2.249831 -0.649651
H -0.594290 -2.792846 0.112016
H -0.193851 -1.366880 -0.325459
6
Structure 720 | Energy: -10.142697 Hartree
O 1.493815 -0.703275 -1.140975
H 1.903057 -1.318346 -0.529180
H 1.711736 0.181812 -0.842275
O -0.226981 1.484851 1.075694
H 0.425684 1.264740 1.743276
H -0.349553 0.705317 0.530359
6
Structure 721 | Energy: -10.142696 Hartree
O 0.156527 0.991037 -0.986546
H -0.495740 1.216657 -1.652676
H -0.178518 1.303223 -0.143708
O -1.345708 -0.895226 1.321623
H -0.634885 -0.457094 1.793702
H -1.303079 -0.602962 0.409015
6
Structure 722 | Energy: -10.142690 Hartree
O -1.467832 0.212226 -1.495421
H -1.747699 0.049600 -0.592474
H -1.960744 -0.388215 -2.058092
O 1.358631 -0.718459 0.862970
H 1.323128 -1.332771 0.127139
H 2.074083 -0.104491 0.686166
6
Structure 723 | Energy: -10.142689 Hartree
O 0.095563 -0.131066 -2.318088
H 0.308875 0.049596 -1.400512
H 0.182732 0.694920 -2.797922
O -0.235622 0.935102 1.519493
H 0.491777 0.315829 1.605972
H -0.993271 0.440645 1.200794
6
Structure 724 | Energy: -10.142685 Hartree
O 1.055584 1.696535 -0.627820
H 0.618958 0.899391 -0.321218
H 1.563314 2.043395 0.108379
O -2.157373 -0.162834 0.191137
H -2.527569 -0.991333 -0.119720
H -1.575026 0.164159 -0.497365
6
Structure 725 | Energy: -10.142685 Hartree
O 2.077708 0.539046 0.095127
H 1.864476 0.599290 1.028395
H 1.725193 -0.294172 -0.223577
O -1.331305 -0.588372 -0.699654
H -2.232292 -0.785321 -0.963325
H -1.377993 -0.070142 0.106166
6
Structure 726 | Energy: -10.142675 Hartree
O -1.185359 1.534404 1.205067
H -0.544144 0.930518 0.825264
H -1.305075 1.281442 2.122546
O 1.342198 -1.326659 -0.189327
H 0.580313 -0.865344 -0.545427
H 1.739396 -1.818284 -0.910871
6
Structure 727 | Energy: -10.142673 Hartree
O -0.868624 1.646275 -0.779753
H -0.329706 2.439775 -0.783027
H -0.475754 1.033502 -1.404456
O -0.097197 -0.071533 2.257745
H -0.469098 -0.071528 1.373564
H 0.857454 -0.074709 2.164365
6
Structure 728 | Energy: -10.142661 Hartree
O 0.929149 1.490043 0.563030
H 0.675132 0.699374 0.083026
H 0.281722 2.167343 0.357620
O -0.989765 -1.991265 0.253580
H -1.548383 -2.104813 1.025033
H -1.560781 -2.016133 -0.516751
6
Structure 729 | Energy: -10.142660 Hartree
O -0.354859 0.051941 2.298290
H -0.196741 -0.274537 1.410317
H -1.193523 0.517290 2.284699
O 1.331808 1.224447 0.029317
H 2.116045 1.776177 0.003731
H 0.572050 1.809734 0.012143
6
Structure 730 | Energy: -10.142660 Hartree
O 1.094489 -0.483687 1.300674
H 1.426450 -1.039780 0.593109
H 0.137461 -0.482681 1.235959
O 0.687821 -1.325252 -1.485625
H -0.043506 -1.787030 -1.070885
H 1.302583 -1.991109 -1.799935
6
Structure 731 | Energy: -10.142651 Hartree
O 0.906019 1.833293 0.720890
H 1.639956 2.215771 0.235986
H 0.106252 2.034564 0.231038
O 0.734185 -0.486267 -0.924503
H 0.915040 -0.335586 -1.854382
H 1.191482 0.197906 -0.431679
6
Structure 732 | Energy: -10.142648 Hartree
O 0.782366 -0.728928 0.832747
H 1.577004 -1.128674 0.473806
H 0.132339 -0.706441 0.127728
O 0.133762 1.188156 -1.220668
H -0.095705 1.055037 -2.142466
H 0.928204 1.725315 -1.200418
6
Structure 733 | Energy: -10.142646 Hartree
O 1.524803 -1.492485 -0.265348
H 1.597985 -0.927114 -1.036767
H 1.704681 -0.948260 0.503778
O -0.887967 1.524352 0.319384
H -1.784614 1.558097 0.658459
H -0.929090 1.739924 -0.614386
6
Structure 734 | Energy: -10.142643 Hartree
O 1.015758 -0.299745 0.842021
H 0.928306 -0.263604 1.796553
H 1.497519 -1.101932 0.631087
O -0.733469 0.288489 -2.063660
H -0.986598 1.092710 -1.606231
H 0.215886 0.323873 -2.196177
6
Structure 735 | Energy: -10.142641 Hartree
O 1.782096 -0.495324 -1.003022
H 2.483007 -1.034556 -0.631488
H 1.181204 -0.278154 -0.287581
O -0.552984 1.920786 0.897293
H -0.436500 2.708204 0.362045
H 0.154554 1.910285 1.544879
6
Structure 736 | Energy: -10.142638 Hartree
O 0.279752 -0.007917 0.801335
H 0.163482 -0.846232 0.349898
H -0.151556 0.663514 0.269129
O -2.200641 -0.445941 -0.131929
H -2.337513 -0.395335 -1.079976
H -3.057402 -0.335615 0.285055
6
Structure 737 | Energy: -10.142638 Hartree
O 0.615084 1.764448 -0.896373
H -0.277562 1.454175 -1.060686
H 0.729630 1.809270 0.054921
O 0.850952 -1.641576 1.266787
H 1.712827 -2.059974 1.219867
H 0.194056 -2.339748 1.233160
6
Structure 738 | Energy: -10.142637 Hartree
O 0.652615 0.727137 -2.090471
H 0.573969 -0.080107 -2.602584
H -0.223924 1.112090 -2.030619
O -0.086155 -0.439883 1.646494
H -0.195178 -0.826409 0.775403
H 0.240227 0.453466 1.522035
6
Structure 739 | Energy: -10.142629 Hartree
O -0.847279 0.525458 -1.036850
H 0.032674 0.534842 -1.418531
H -1.463008 0.750766 -1.736997
O -0.022980 -1.794250 0.694748
H 0.447463 -2.170015 -0.051960
H 0.097409 -0.843373 0.656983
6
Structure 740 | Energy: -10.142622 Hartree
O 1.948827 -0.400563 -0.324204
H 1.058934 -0.751011 -0.250986
H 1.937910 0.259177 -1.020419
O 0.621725 1.434305 1.402052
H 1.278328 2.010473 1.005832
H 0.718999 1.504981 2.353699
6
Structure 741 | Energy: -10.142614 Hartree
O 0.543265 1.907190 1.057405
H 1.358294 2.383751 1.226828
H 0.067485 2.390346 0.378962
O -0.694466 -0.514100 -0.295437
H -1.430597 0.090224 -0.409416
H -0.602993 -0.676066 0.645567
6
Structure 742 | Energy: -10.142613 Hartree
O -1.240604 1.767999 0.927293
H -1.542329 1.366894 0.109880
H -1.372017 1.123443 1.625411
O -1.249188 -1.163911 -0.639458
H -0.970188 -0.295145 -0.935250
H -1.441625 -1.682545 -1.423087
6
Structure 743 | Energy: -10.142600 Hartree
O 0.030309 -1.410876 -0.547161
H -0.684274 -1.644002 0.048749
H -0.366066 -1.181727 -1.390054
O 0.182415 2.119187 -0.030236
H 1.134290 2.104241 0.087229
H -0.207879 1.754591 0.766525
6
Structure 744 | Energy: -10.142598 Hartree
O 0.433130 0.749645 -0.455634
H -0.216223 1.436588 -0.292737
H -0.000591 -0.092612 -0.305362
O 0.846933 -1.418783 0.962390
H 1.233885 -1.833911 1.735710
H 1.362233 -1.697187 0.202755
6
Structure 745 | Energy: -10.142594 Hartree
O -2.122024 -0.528842 0.587444
H -1.820852 0.301848 0.214169
H -1.457056 -0.815188 1.216662
O 1.700466 0.832135 -0.589805
H 1.758486 -0.125175 -0.573122
H 2.452625 1.170872 -0.100313
6
Structure 746 | Energy: -10.142590 Hartree
O 1.677917 -0.487390 0.116888
H 1.814989 -1.157536 -0.555572
H 0.863565 -0.706183 0.574110
O -0.491716 2.086297 -0.606276
H -0.307803 2.485026 -1.459082
H -0.000238 2.582517 0.051221
6
Structure 747 | Energy: -10.142585 Hartree
O 1.116521 1.952488 0.361888
H 0.303588 2.277471 0.753822
H 1.404236 1.202154 0.885634
O -0.821669 -0.188298 -0.634222
H 0.022735 -0.108756 -1.082266
H -0.843926 0.482514 0.051054
6
Structure 748 | Energy: -10.142583 Hartree
O 0.974942 1.260174 1.474219
H 0.312667 0.594733 1.277581
H 1.545342 1.328918 0.706099
O -0.731273 -1.961531 -0.575371
H -1.000221 -2.745896 -1.057579
H -0.186177 -1.437961 -1.165992
6
Structure 749 | Energy: -10.142583 Hartree
O -0.587293 -0.692705 1.636849
H -0.939224 -1.102711 0.844305
H -0.906367 -1.200873 2.385211
O -1.613587 0.713746 -0.361429
H -1.843061 1.441172 0.220190
H -1.025040 1.062453 -1.033816
6
Structure 750 | Energy: -10.142580 Hartree
O 1.174917 -1.377355 -0.264840
H 0.913857 -0.470843 -0.438535
H 1.867302 -1.598461 -0.890784
O -1.269703 1.856302 0.365364
H -0.808225 1.524408 1.138003
H -1.289399 2.812756 0.435332
6
Structure 751 | Energy: -10.142571 Hartree
O -0.480863 -2.232594 -0.387042
H -0.626887 -2.606427 0.484171
H 0.243309 -1.608249 -0.310503
O 0.052157 1.299504 1.365592
H 0.599015 1.681540 2.054854
H -0.802965 1.107221 1.755311
6
Structure 752 | Energy: -10.142568 Hartree
O -0.955737 -1.690618 0.504198
H -0.083018 -1.673070 0.106532
H -1.527559 -1.147266 -0.041586
O 1.695410 0.690653 1.256480
H 1.715474 0.850609 2.202049
H 2.427326 0.105427 1.051793
6
Structure 753 | Energy: -10.142568 Hartree
O 0.242587 1.285435 -0.581702
H 0.040896 2.200700 -0.377505
H -0.565193 0.881961 -0.905417
O -1.188840 -1.888576 0.389730
H -0.650131 -2.635645 0.657625
H -1.399004 -1.391127 1.182486
6
Structure 754 | Energy: -10.142567 Hartree
O 1.865730 0.603279 0.854092
H 1.510059 1.384370 1.282440
H 2.132418 -0.004083 1.546970
O -0.149263 -1.202345 -1.333454
H -0.122470 -1.948647 -1.935452
H 0.627788 -1.260562 -0.774088
6
Structure 755 | Energy: -10.142562 Hartree
O -2.118098 -0.946218 -0.026549
H -2.328546 -0.407837 -0.792019
H -1.206519 -1.229567 -0.120510
O 1.326153 -0.018997 -0.823163
H 1.285408 -0.512170 -1.644873
H 1.863385 -0.527854 -0.212807
6
Structure 756 | Energy: -10.142560 Hartree
O -1.200965 -1.642373 -0.092969
H -1.297558 -2.594660 -0.030476
H -0.274979 -1.461536 -0.265995
O -0.111660 0.301609 1.873661
H -0.680063 0.453958 1.116169
H 0.410065 -0.480770 1.684518
6
Structure 757 | Energy: -10.142560 Hartree
O -0.748544 -1.017862 -0.409740
H -0.030133 -0.712021 -0.966906
H -1.274659 -1.625860 -0.932838
O 0.950956 2.053694 0.203043
H 0.607583 1.169469 0.345622
H 1.093113 2.154541 -0.740201
6
Structure 758 | Energy: -10.142553 Hartree
O 1.101381 1.812259 0.789050
H 0.577892 1.180988 0.291515
H 1.614040 2.318090 0.155483
O -0.236254 -1.512469 -0.777518
H -0.567409 -1.022995 -1.533057
H -0.355018 -2.444865 -0.968884
6
Structure 759 | Energy: -10.142550 Hartree
O 1.191636 1.192780 0.788368
H 0.982558 0.261744 0.886060
H 1.977395 1.363839 1.311257
O -1.002754 -0.287146 -2.015541
H -0.709334 0.580693 -2.299881
H -1.945978 -0.336964 -2.182679
6
Structure 760 | Energy: -10.142544 Hartree
O 0.836050 0.989124 1.629022
H 1.749752 0.700505 1.585045
H 0.585902 1.275430 0.748372
O 0.978368 -1.316972 -0.769175
H 1.414046 -1.296557 -1.623490
H 0.033203 -1.326229 -0.932472
6
Structure 761 | Energy: -10.142540 Hartree
O 0.003898 -1.164230 -1.728462
H -0.503623 -0.904321 -0.957128
H 0.360155 -2.037390 -1.553072
O 0.244449 0.302335 1.196568
H -0.611516 0.171216 1.609144
H 0.867298 0.512436 1.895142
6
Structure 762 | Energy: -10.142536 Hartree
O -0.550340 2.169423 -0.027126
H -0.264958 1.440979 0.527863
H 0.237907 2.564474 -0.404872
O 1.281015 -1.108737 0.441533
H 0.424032 -0.687296 0.351784
H 1.239585 -1.940766 -0.033965
6
Structure 763 | Energy: -10.142528 Hartree
O -0.052248 -1.229827 -1.935685
H 0.619661 -1.815199 -1.580773
H -0.424657 -0.744058 -1.197151
O -1.202756 0.249357 1.281297
H -0.504668 -0.244052 1.716391
H -1.922375 -0.362799 1.115458
6
Structure 764 | Energy: -10.142528 Hartree
O 1.617191 0.898754 -0.824864
H 2.170844 0.115561 -0.837625
H 1.522705 1.164915 0.091827
O -0.884761 -1.350350 0.802661
H -1.094517 -2.284052 0.737166
H -0.233733 -1.157264 0.125189
6
Structure 765 | Energy: -10.142528 Hartree
O 0.077337 0.991213 1.142722
H -0.357025 1.707823 0.675939
H -0.547870 0.650816 1.785634
O 0.937189 -1.827354 -0.136012
H 1.488390 -2.545178 0.181781
H 0.581193 -1.380119 0.634271
6
Structure 766 | Energy: -10.142522 Hartree
O 0.626516 -2.136823 0.595295
H -0.278014 -2.388824 0.791272
H 0.787836 -1.296910 1.029590
O -1.824713 0.541126 -0.231147
H -1.759687 0.978730 -1.082242
H -1.473750 1.145007 0.426304
6
Structure 767 | Energy: -10.142516 Hartree
O 1.135710 1.016257 1.068801
H 0.444602 1.606757 1.375012
H 1.819645 1.560325 0.673435
O -1.714250 -0.415546 -0.203923
H -2.131059 -0.199298 -1.040341
H -0.856282 -0.795042 -0.403828
6
Structure 768 | Energy: -10.142512 Hartree
O 0.719590 0.067358 1.593228
H 0.395740 0.061640 0.690358
H 0.671136 -0.833867 1.918092
O -0.742180 -1.272720 -1.279996
H -0.372050 -0.387797 -1.278523
H -0.327552 -1.752849 -1.999473
6
Structure 769 | Energy: -10.142508 Hartree
O -2.015073 1.253322 -0.334677
H -1.095304 1.419850 -0.119317
H -2.035996 0.499723 -0.927756
O 0.520093 -0.629638 0.104584
H -0.412549 -0.528481 -0.095497
H 0.630040 -1.487009 0.520416
6
Structure 770 | Energy: -10.142506 Hartree
O -1.387430 1.744671 -0.513164
H -0.578941 1.436264 -0.099261
H -1.821078 0.978971 -0.894927
O 1.475303 0.036924 -1.072116
H 2.000574 0.731702 -0.670294
H 1.367996 -0.653933 -0.415390
6
Structure 771 | Energy: -10.142501 Hartree
O -0.261253 -2.300927 -0.033633
H -0.598283 -3.011124 -0.583285
H 0.292520 -1.749564 -0.589893
O -1.067884 1.547169 0.123413
H -1.491970 1.068748 0.838502
H -1.740193 2.089794 -0.293297
6
Structure 772 | Energy: -10.142498 Hartree
O 0.268708 -0.461751 -2.135867
H 0.049366 0.465762 -2.244011
H -0.107564 -0.931572 -2.882712
O -0.486765 1.190295 0.323621
H -0.634186 0.725446 1.149618
H 0.410241 1.529445 0.344711
6
Structure 773 | Energy: -10.142496 Hartree
O 0.901765 1.645805 1.109924
H 1.190554 1.675121 0.195688
H 0.403698 0.834096 1.224591
O -0.356355 -1.120084 -1.118171
H -0.873248 -0.538007 -0.557729
H -0.787770 -1.146813 -1.974474
6
Structure 774 | Energy: -10.142486 Hartree
O 2.096847 0.794912 -0.020200
H 1.626590 0.290997 -0.687294
H 2.405037 1.601372 -0.438208
O -0.583173 0.268244 -1.391695
H -0.361526 1.166669 -1.644267
H -1.059785 -0.123876 -2.125977
6
Structure 775 | Energy: -10.142481 Hartree
O 2.180245 -0.345906 0.722713
H 2.298122 -1.297445 0.695032
H 2.392838 -0.007857 -0.149421
O -0.157770 0.753163 -1.364231
H -0.142176 1.702099 -1.503389
H -1.072557 0.501851 -1.222478
6
Structure 776 | Energy: -10.142478 Hartree
O -1.729548 1.222533 0.618575
H -2.355571 1.467295 -0.065729
H -1.099979 1.941848 0.698075
O 0.557217 -1.192289 -0.486577
H 0.297325 -2.005481 -0.049240
H 0.788638 -0.562519 0.198931
6
Structure 777 | Energy: -10.142470 Hartree
O -0.429612 -0.128618 -1.499700
H 0.526876 -0.197829 -1.520363
H -0.775915 -1.014588 -1.376320
O -0.167849 0.379726 2.252455
H -0.547190 -0.365453 2.722451
H -0.884939 0.819976 1.791966
6
Structure 778 | Energy: -10.142468 Hartree
O 1.539933 0.395902 0.519054
H 1.718153 -0.493815 0.830065
H 0.826617 0.336059 -0.119452
O -0.426793 0.307051 2.145553
H -0.159363 1.228094 2.129749
H -0.509605 0.051066 3.066261
6
Structure 779 | Energy: -10.142467 Hartree
O -1.724088 -0.844069 0.737881
H -0.785919 -0.863592 0.539024
H -1.977807 -1.731739 0.998190
O 1.127580 1.115398 -1.665953
H 1.937699 1.542901 -1.381284
H 0.622617 1.764082 -2.160230
6
Structure 780 | Energy: -10.142464 Hartree
O -1.061566 0.313402 1.859150
H -0.393478 -0.331269 2.100279
H -0.639367 0.961320 1.291662
O 1.433638 -0.337937 -0.253116
H 1.225241 -1.047643 0.357601
H 0.617752 -0.094667 -0.694972
6
Structure 781 | Energy: -10.142458 Hartree
O 0.625620 -0.359177 -1.638589
H 0.647475 -0.135925 -0.705976
H 0.881583 0.426980 -2.124933
O -1.016094 0.338485 1.608018
H -0.493559 -0.343317 1.181181
H -1.460026 -0.069246 2.354187
6
Structure 782 | Energy: -10.142449 Hartree
O 1.124842 1.563891 -0.004481
H 1.928908 1.052817 -0.115697
H 1.159804 1.962289 0.867383
O -0.709348 -0.154961 -1.155129
H -0.804506 0.761395 -0.888062
H -1.398564 -0.653180 -0.711453
6
Structure 783 | Energy: -10.142448 Hartree
O -1.739538 -1.262217 0.282009
H -1.766055 -0.382161 -0.098629
H -2.366489 -1.801101 -0.204433
O 0.820364 1.869640 -0.056197
H 1.110662 1.442640 -0.864582
H 1.540426 1.803999 0.574112
6
Structure 784 | Energy: -10.142446 Hartree
O 0.013715 -0.696037 1.581009
H -0.303927 -0.705270 0.675965
H -0.458987 -1.383060 2.054974
O -1.378794 -1.051146 -1.506653
H -0.555603 -1.520825 -1.358851
H -1.213315 -0.123900 -1.325213
6
Structure 785 | Energy: -10.142444 Hartree
O 0.137380 0.976071 -1.498473
H -0.160706 1.444672 -0.716397
H -0.339403 1.340349 -2.246852
O -0.168026 -1.831741 1.222794
H 0.630221 -1.414314 0.893183
H 0.097588 -2.633753 1.677012
6
Structure 786 | Energy: -10.142441 Hartree
O -0.137330 1.344816 -1.603485
H -0.446491 1.676670 -2.448694
H 0.813902 1.466304 -1.581363
O 0.124978 -0.759038 1.312433
H -0.466206 -0.772135 0.557174
H 0.471432 -1.647315 1.417413
6
Structure 787 | Energy: -10.142441 Hartree
O 1.514430 -0.765094 0.630629
H 2.010055 -1.052235 -0.138780
H 0.615055 -1.080818 0.523235
O -0.457553 0.267527 -0.949918
H 0.487669 0.430159 -0.935991
H -0.697353 0.063462 -1.855976
6
Structure 788 | Energy: -10.142438 Hartree
O 0.216268 1.903880 -0.267114
H 0.492703 2.803208 -0.080354
H 0.996786 1.349209 -0.210337
O -0.291348 -1.199857 1.236842
H -0.448045 -2.130379 1.409070
H -0.518101 -1.038768 0.318843
6
Structure 789 | Energy: -10.142427 Hartree
O -1.048015 1.280587 -0.733461
H -0.218813 0.847209 -0.522049
H -1.631008 0.614003 -1.102075
O -1.922684 -1.198552 0.081156
H -1.064540 -1.626661 0.061147
H -2.585917 -1.888561 0.017137
6
Structure 790 | Energy: -10.142426 Hartree
O 1.975576 0.200800 0.196620
H 2.416741 -0.091448 0.996652
H 2.351088 -0.296433 -0.532655
O -1.341611 0.116261 0.878821
H -0.419620 -0.017206 1.107306
H -1.799088 -0.709243 1.050129
6
Structure 791 | Energy: -10.142415 Hartree
O 0.809785 -1.855184 -0.364868
H 0.706400 -0.905766 -0.275404
H 0.634551 -2.074825 -1.282005
O 0.976129 1.223115 1.495110
H 0.528887 1.891335 0.972097
H 1.302775 1.654077 2.287362
6
Structure 792 | Energy: -10.142412 Hartree
O 1.782654 -0.883937 -0.240121
H 1.408359 -0.755902 0.633720
H 2.489557 -0.243773 -0.342929
O -1.025814 1.515283 0.991655
H -1.950132 1.389597 0.768210
H -0.963188 2.330305 1.493556
6
Structure 793 | Energy: -10.142409 Hartree
O -1.155431 -0.808802 1.876376
H -0.480646 -1.235132 2.408348
H -0.841317 0.074571 1.673703
O 1.266350 0.699134 -1.451256
H 1.808970 0.596986 -2.235614
H 1.117840 -0.177935 -1.092394
6
Structure 794 | Energy: -10.142409 Hartree
O -0.689291 -1.089475 1.473191
H -0.351373 -0.870621 0.602558
H -1.642504 -1.164982 1.397192
O -0.036250 0.390310 -1.247562
H -0.348243 -0.468827 -1.538475
H -0.808548 0.944725 -1.120017
6
Structure 795 | Energy: -10.142406 Hartree
O -1.917163 -0.685843 -0.417842
H -1.837576 -0.853174 -1.358986
H -1.086771 -0.943036 -0.012388
O 1.191110 0.053902 1.393786
H 2.026457 0.072338 1.864894
H 1.366707 0.333315 0.493129
6
Structure 796 | Energy: -10.142398 Hartree
O 0.290462 -0.171708 0.925200
H -0.209418 -0.225182 1.742113
H 0.583406 0.736745 0.830392
O 0.275129 -0.463171 -1.873769
H 0.970476 -0.471117 -1.213075
H -0.251100 0.324484 -1.722867
6
Structure 797 | Energy: -10.142391 Hartree
O -1.272038 -0.463850 0.336883
H -0.814336 -0.234842 1.148147
H -2.026093 0.124076 0.260493
O 2.022626 1.095588 -0.314684
H 1.624500 0.242935 -0.128763
H 1.385239 1.767316 -0.064470
6
Structure 798 | Energy: -10.142390 Hartree
O -0.699982 1.297170 -1.780559
H -1.602373 1.494057 -2.039426
H -0.444298 1.948213 -1.124160
O 1.324429 -1.168938 0.038622
H 2.186098 -1.117578 0.456922
H 1.420867 -0.829023 -0.853144
6
Structure 799 | Energy: -10.142388 Hartree
O -1.534552 1.407521 0.169869
H -0.865738 1.021180 -0.398914
H -2.220107 0.747647 0.290992
O 0.387106 -1.960079 1.266793
H 0.965912 -2.252628 0.560050
H 0.679326 -1.085024 1.529424
6
Structure 800 | Energy: -10.142383 Hartree
O -1.607352 -0.714080 0.112187
H -0.728375 -0.889698 0.453717
H -1.619144 -1.001306 -0.802938
O 0.523408 0.365795 -1.933506
H 0.071864 0.616023 -1.125063
H 1.007261 -0.441921 -1.750286
6
Structure 801 | Energy: -10.142377 Hartree
O -0.891591 1.580204 0.569582
H -1.428385 0.842309 0.865303
H 0.022351 1.361765 0.762158
O 1.846696 -1.010054 -1.061905
H 2.689926 -0.654771 -0.774111
H 1.302682 -0.267442 -1.331467
6
Structure 802 | Energy: -10.142376 Hartree
O -0.272220 0.257628 -0.529376
H -0.475836 1.169715 -0.745534
H -0.740040 -0.294704 -1.158791
O -0.554448 -1.834804 1.193492
H -0.423890 -2.298807 2.022795
H 0.295000 -1.472766 0.933773
6
Structure 803 | Energy: -10.142371 Hartree
O -1.111667 -0.409638 0.951011
H -0.769714 -1.053392 1.574497
H -1.180863 -0.847167 0.100205
O -0.330188 0.649499 -2.256062
H -0.508742 0.607048 -1.314572
H 0.106189 -0.169245 -2.499624
6
Structure 804 | Energy: -10.142370 Hartree
O -1.471892 0.232887 1.323132
H -0.559683 0.291630 1.613837
H -1.590791 -0.635995 0.934547
O 1.557253 -1.590762 -0.160820
H 1.827341 -1.868652 -1.038269
H 0.889585 -2.210124 0.140343
6
Structure 805 | Energy: -10.142369 Hartree
O -0.012425 1.429814 0.792748
H -0.247710 0.671020 1.330297
H 0.310964 1.094581 -0.045780
O 0.309563 -1.721907 -1.421833
H 1.180054 -1.541721 -1.782201
H 0.436590 -2.155804 -0.575851
6
Structure 806 | Energy: -10.142356 Hartree
O 0.208548 -1.937616 0.825936
H -0.569565 -1.856358 1.380934
H -0.047203 -2.440266 0.050033
O 0.603145 1.474948 -0.847392
H 1.450712 1.180480 -1.186518
H 0.746646 1.778480 0.051143
6
Structure 807 | Energy: -10.142354 Hartree
O 1.787945 0.325917 -1.009138
H 0.923491 -0.081779 -0.927965
H 2.424756 -0.279395 -0.624222
O -1.418628 -1.380801 0.881074
H -2.336831 -1.566480 1.087264
H -1.411723 -0.730710 0.175792
6
Structure 808 | Energy: -10.142342 Hartree
O 1.007082 -2.070057 0.085367
H 0.713537 -2.983247 0.086629
H 0.974857 -1.762586 -0.822661
O -1.363253 1.108934 -0.080070
H -1.258874 1.806226 -0.730437
H -0.532307 0.631455 -0.039690
6
Structure 809 | Energy: -10.142337 Hartree
O -0.584235 -1.364879 -0.405886
H -0.395640 -0.539357 0.044704
H -1.536528 -1.479813 -0.401418
O 2.257389 0.342005 -0.284889
H 2.012908 -0.237167 -1.009372
H 1.546237 0.308535 0.357941
6
Structure 810 | Energy: -10.142335 Hartree
O 0.013156 0.684144 -2.134773
H -0.292126 0.433688 -3.008936
H 0.111825 -0.123168 -1.626242
O -1.561293 -1.183688 -0.632968
H -1.169813 -1.880187 -0.102194
H -2.286858 -1.574402 -1.123871
6
Structure 811 | Energy: -10.142326 Hartree
O 0.965937 -1.323730 0.067303
H 0.107162 -0.901620 0.000859
H 1.534059 -0.916810 -0.589769
O -0.285471 1.612684 -1.220202
H -0.837089 1.256811 -1.919602
H 0.624950 1.546119 -1.514806
6
Structure 812 | Energy: -10.142325 Hartree
O 0.878606 -0.678851 -1.862578
H 0.629605 -1.450585 -1.350220
H 1.649311 -0.918569 -2.380883
O 0.258248 0.781121 0.622689
H 0.168926 -0.131426 0.340967
H 1.042445 1.134113 0.197812
6
Structure 813 | Energy: -10.142322 Hartree
O -0.818592 1.141860 0.944070
H -0.740850 1.310253 0.002961
H -1.746185 1.228466 1.172457
O -1.044377 -1.399107 -1.068236
H -1.432113 -0.675923 -1.564979
H -1.088242 -1.161728 -0.139896
6
Structure 814 | Energy: -10.142320 Hartree
O 1.673712 0.244140 0.281405
H 2.121182 -0.515708 0.658880
H 1.881864 0.260208 -0.654814
O -1.743430 0.638206 1.166123
H -0.923489 0.782327 1.642583
H -2.461693 0.819368 1.775521
6
Structure 815 | Energy: -10.142317 Hartree
O 0.183991 -1.582677 1.507495
H 0.817304 -1.506287 2.223850
H 0.672657 -1.837007 0.722248
O 0.234594 0.412816 -1.577593
H 0.528612 0.681161 -2.450308
H -0.613732 0.832639 -1.422096
6
Structure 816 | Energy: -10.142316 Hartree
O 0.549058 0.776989 0.307931
H 1.287377 0.695015 -0.298907
H -0.223214 0.419085 -0.134326
O 0.640414 -1.823009 -1.053398
H 0.127527 -1.771087 -0.244486
H 0.041995 -1.643300 -1.781194
6
Structure 817 | Energy: -10.142316 Hartree
O -0.711291 1.327759 -1.297249
H 0.234179 1.475481 -1.231280
H -1.095619 1.565267 -0.451097
O 0.592649 -0.978047 1.120706
H 0.395088 -1.440473 1.937541
H -0.211651 -0.534974 0.843441
6
Structure 818 | Energy: -10.142315 Hartree
O -0.201350 1.636196 0.142002
H 0.262480 2.440503 -0.098910
H 0.271085 1.246052 0.880029
O 0.311791 -1.350271 -1.879002
H -0.575828 -1.046577 -1.679028
H 0.291656 -2.309261 -1.874517
6
Structure 819 | Energy: -10.142315 Hartree
O 1.744637 -0.381440 0.185188
H 2.319255 -0.472062 -0.577496
H 1.569421 0.554719 0.299189
O -0.097794 0.669566 -2.123323
H -0.093912 1.462671 -2.662820
H -0.931850 0.652141 -1.649894
6
Structure 820 | Energy: -10.142307 Hartree
O -1.788336 -0.349598 0.670849
H -1.556818 0.579822 0.619245
H -2.744431 -0.401406 0.728208
O 1.150224 -0.003541 1.372993
H 1.498587 -0.882065 1.208902
H 0.714242 0.284001 0.568427
6
Structure 821 | Energy: -10.142302 Hartree
O -1.602004 -0.591105 -1.061351
H -1.747034 -1.515180 -0.848895
H -0.656771 -0.469658 -1.170325
O 0.843416 1.330816 1.016555
H 0.042290 1.857169 1.051707
H 1.062566 1.208543 0.090752
6
Structure 822 | Energy: -10.142301 Hartree
O -1.277769 0.069234 1.926532
H -0.931616 -0.561818 2.560598
H -0.936942 -0.178019 1.064677
O 0.708544 -0.069501 -1.826400
H 0.876961 -0.327393 -2.734813
H 1.470163 -0.338318 -1.308942
6
Structure 823 | Energy: -10.142300 Hartree
O 1.243041 0.027109 -1.792255
H 0.674276 0.235402 -1.048477
H 1.246344 0.792502 -2.370401
O 0.001664 -0.755531 1.521963
H 0.521494 -0.865928 0.723417
H 0.366370 -0.006252 1.996998
6
Structure 824 | Energy: -10.142290 Hartree
O -0.216234 0.243252 -1.444509
H -1.060354 0.014066 -1.838234
H -0.381037 0.937161 -0.803087
O 0.871922 -0.491248 2.099187
H 0.343952 0.298739 1.967826
H 1.401729 -0.613469 1.308963
6
Structure 825 | Energy: -10.142285 Hartree
O -1.673921 1.048975 -0.927214
H -1.401876 0.675643 -1.767869
H -2.509817 0.641195 -0.692514
O 0.895113 -0.249383 1.537707
H 1.230331 -0.475029 0.667764
H -0.061783 -0.224767 1.475803
6
Structure 826 | Energy: -10.142278 Hartree
O 1.861912 -0.086323 0.890380
H 2.059480 -0.144874 1.827197
H 1.077598 -0.615303 0.731883
O -0.381629 0.226428 -0.404678
H -0.221157 0.930992 -1.035492
H -0.766908 0.627282 0.376964
6
Structure 827 | Energy: -10.142278 Hartree
O 0.920301 -1.279552 -0.101085
H 1.509101 -0.776007 -0.666632
H 0.925027 -2.184226 -0.419884
O 0.389337 0.827480 1.826436
H -0.096996 0.447998 1.091887
H -0.212007 1.409990 2.294575
6
Structure 828 | Energy: -10.142274 Hartree
O 1.246048 0.626068 -1.799460
H 1.449207 -0.281548 -1.564839
H 0.362676 0.812321 -1.475340
O 0.781978 -0.001380 1.589049
H 1.241542 0.094817 2.425490
H 0.480314 -0.910230 1.533566
6
Structure 829 | Energy: -10.142266 Hartree
O 0.303727 0.703736 -2.176020
H 1.149972 1.114608 -2.363478
H -0.269134 1.384241 -1.817087
O -0.537362 -0.852522 1.152311
H -0.763778 -1.322615 0.347429
H -1.359597 -0.642108 1.599238
6
Structure 830 | Energy: -10.142263 Hartree
O 0.757201 0.334247 2.071997
H 1.282187 0.750857 2.758227
H 0.883014 -0.613150 2.153864
O -0.744099 -1.234365 -0.365139
H -0.499173 -0.379258 -0.724151
H -1.486187 -1.556763 -0.880360
6
Structure 831 | Energy: -10.142261 Hartree
O -1.318509 1.240839 0.862832
H -1.817425 1.897581 1.352586
H -0.482320 1.642804 0.619312
O 1.072700 -0.222654 -0.282996
H 0.345120 0.160192 -0.777104
H 1.579016 -0.761149 -0.894351
6
Structure 832 | Energy: -10.142260 Hartree
O 0.030023 0.769963 0.708814
H 0.823397 1.027467 1.182455
H -0.710944 1.198487 1.141740
O 0.214954 -1.726627 0.359718
H -0.691822 -1.516626 0.591547
H 0.512472 -1.056582 -0.258837
6
Structure 833 | Energy: -10.142259 Hartree
O 0.500260 -1.002886 0.112243
H 1.173304 -0.427850 0.481608
H -0.349306 -0.590781 0.281058
O -1.785467 0.031335 -1.510785
H -1.487394 -0.095874 -2.413590
H -1.341748 0.811532 -1.172415
6
Structure 834 | Energy: -10.142257 Hartree
O -1.161740 1.125547 0.461336
H -0.940381 0.260089 0.810719
H -0.343189 1.532296 0.170441
O 1.138983 -1.449425 -1.433701
H 0.398723 -1.544628 -0.831175
H 0.886015 -1.861968 -2.261894
6
Structure 835 | Energy: -10.142257 Hartree
O 1.416284 -0.905000 0.164407
H 2.272726 -1.245297 -0.101662
H 0.835229 -0.972302 -0.595814
O 0.482112 1.317800 -1.557551
H 0.758910 1.473018 -2.462746
H 0.467651 2.168725 -1.115053
6
Structure 836 | Energy: -10.142255 Hartree
O -0.436877 1.007842 0.544324
H -0.200363 1.408336 -0.294575
H -1.332085 0.674428 0.457551
O -1.548274 -1.561834 -0.719741
H -2.287851 -1.035974 -0.408959
H -0.866197 -1.518456 -0.046705
6
Structure 837 | Energy: -10.142253 Hartree
O -0.878632 2.017321 -0.589235
H -0.085274 2.360403 -0.173346
H -1.523873 1.872865 0.105666
O 0.769269 -0.624684 0.766107
H 1.505529 -0.822534 1.348228
H 0.682634 -1.360918 0.157386
6
Structure 838 | Energy: -10.142251 Hartree
O -1.880134 -0.676915 -0.760687
H -2.097499 -0.253080 -1.593275
H -2.684266 -0.706561 -0.238591
O 1.533641 0.174688 0.522859
H 0.597494 0.117145 0.723867
H 1.801759 1.082843 0.676011
6
Structure 839 | Energy: -10.142251 Hartree
O -0.772438 -0.435419 1.489822
H -1.686881 -0.317677 1.225213
H -0.388664 0.438804 1.582252
O -1.206062 0.036698 -1.576592
H -1.795695 -0.303917 -2.252167
H -0.405625 0.327050 -2.018277
6
Structure 840 | Energy: -10.142250 Hartree
O -0.232583 -0.761438 1.077456
H 0.724166 -0.725456 1.135975
H -0.557646 -1.069762 1.925608
O -0.880663 1.243923 -1.581489
H -1.546813 0.903843 -2.182053
H -1.299380 1.353667 -0.725498
6
Structure 841 | Energy: -10.142236 Hartree
O 1.298700 -0.863702 -0.940955
H 2.148246 -1.238154 -1.182083
H 1.457940 0.034792 -0.645247
O -0.562332 2.132083 0.758409
H -0.749253 1.197034 0.862480
H -0.046609 2.231044 -0.044289
6
Structure 842 | Energy: -10.142233 Hartree
O 0.251651 -0.675167 1.597191
H 0.913869 -0.009928 1.794704
H 0.657496 -1.531997 1.742869
O 0.834583 0.561574 -1.766302
H 0.647257 0.058436 -2.561192
H 0.043256 1.059668 -1.552314
6
Structure 843 | Energy: -10.142226 Hartree
O -0.359470 -1.481058 -1.365625
H -1.199909 -1.019944 -1.332136
H -0.549138 -2.420504 -1.326141
O 1.581353 0.347830 0.509740
H 2.195226 0.109510 -0.187720
H 1.431963 -0.438922 1.037746
6
Structure 844 | Energy: -10.142225 Hartree
O -0.704740 0.227932 1.716030
H -0.189357 -0.565255 1.556906
H -1.389375 -0.000183 2.347955
O 1.303586 -0.293972 -1.943086
H 0.394001 -0.591544 -1.878326
H 1.572955 -0.011050 -1.067025
6
Structure 845 | Energy: -10.142219 Hartree
O 0.521791 1.699998 -0.143711
H -0.000670 0.903540 -0.030683
H 0.659841 1.817871 -1.085592
O 0.552758 -0.546248 1.996161
H -0.127130 -0.772540 2.633838
H 1.380749 -0.901038 2.325771
6
Structure 846 | Energy: -10.142218 Hartree
O 0.928180 -0.924736 -1.750750
H 0.188900 -1.220523 -2.285596
H 1.510464 -0.422337 -2.324015
O -0.225928 1.527874 0.330301
H 0.586419 1.097152 0.603539
H -0.040283 1.990838 -0.489021
6
Structure 847 | Energy: -10.142216 Hartree
O -0.158964 1.162487 -0.119638
H -0.879376 0.989956 -0.729003
H -0.119274 2.111826 0.011780
O 0.882868 -1.357189 0.903194
H 1.218170 -1.862318 1.646500
H 1.115495 -0.439169 1.055551
6
Structure 848 | Energy: -10.142213 Hartree
O 0.337456 1.605983 -1.186530
H 0.274468 0.888035 -1.819515
H 1.239129 1.618076 -0.859527
O -0.154057 -2.285820 0.503811
H -0.755591 -2.124765 1.233403
H -0.673904 -2.268246 -0.302128
6
Structure 849 | Energy: -10.142208 Hartree
O -0.130820 -1.149535 1.859924
H 0.593060 -0.538099 1.710823
H -0.048754 -1.850674 1.210494
O -1.342426 0.930706 -0.368296
H -1.572612 0.055416 -0.050541
H -1.025141 0.831901 -1.268105
6
Structure 850 | Energy: -10.142197 Hartree
O 0.704913 1.510045 -0.389148
H -0.068588 0.952879 -0.495676
H 0.392259 2.403952 -0.236609
O 0.782054 -1.058583 1.614785
H 1.481422 -1.709185 1.702477
H 0.948843 -0.372921 2.264506
6
Structure 851 | Energy: -10.142192 Hartree
O -1.185286 1.368634 0.127465
H -0.983787 1.427150 1.063445
H -2.137365 1.284390 0.046594
O 1.249811 -1.648525 -1.014568
H 1.643887 -1.199047 -1.764742
H 1.378220 -1.087083 -0.247507
6
Structure 852 | Energy: -10.142192 Hartree
O 0.579095 -0.163980 -1.342553
H 0.911076 0.303301 -0.573448
H 0.374471 0.494998 -2.008863
O -1.479434 0.491117 1.379822
H -0.938456 0.198978 2.116087
H -2.372229 0.180375 1.542443
6
Structure 853 | Energy: -10.142188 Hartree
O 0.783051 -0.678923 -1.017031
H 1.422741 -0.010734 -0.763249
H 0.020152 -0.573504 -0.445226
O -1.385064 1.295489 -1.145060
H -1.705748 2.001132 -1.710142
H -2.052665 1.144026 -0.473155
6
Structure 854 | Energy: -10.142187 Hartree
O -0.460218 -1.104017 -2.005085
H -0.819143 -1.185010 -1.119252
H -0.293233 -0.172209 -2.159810
O -0.565254 0.569950 -0.029248
H -0.685865 0.558595 0.922283
H 0.327429 0.266730 -0.206065
6
Structure 855 | Energy: -10.142186 Hartree
O 0.801451 -0.887699 -1.644604
H 0.793512 0.071212 -1.667236
H 0.292580 -1.157953 -0.877725
O -0.034929 1.240905 0.778256
H -0.428764 1.093631 1.640400
H 0.436492 0.440003 0.540754
6
Structure 856 | Energy: -10.142185 Hartree
O -0.720700 -0.822563 0.532712
H -1.109434 0.054342 0.535619
H -0.185517 -0.898654 1.325101
O -0.601672 1.597789 -0.806945
H -0.367981 2.479402 -0.509902
H -1.271950 1.695248 -1.486149
6
Structure 857 | Energy: -10.142178 Hartree
O -1.176487 -1.719508 -0.397064
H -1.630674 -2.545412 -0.575062
H -0.293781 -1.940441 -0.093570
O 1.669902 0.116852 0.770543
H 0.748278 0.025404 0.520875
H 1.992883 -0.759160 0.990485
6
Structure 858 | Energy: -10.142176 Hartree
O -0.206401 1.150313 0.792880
H -0.995926 0.930600 1.291339
H 0.027564 0.376921 0.275950
O 1.872404 -0.630764 -0.533652
H 2.776351 -0.793563 -0.810171
H 1.382171 -1.443482 -0.672392
6
Structure 859 | Energy: -10.142176 Hartree
O 0.042662 0.988087 0.982608
H -0.792462 1.214621 0.568680
H 0.456860 1.809378 1.254658
O 0.571619 -2.160661 -0.508131
H 1.445071 -1.911304 -0.199928
H 0.258665 -1.454363 -1.076718
6
Structure 860 | Energy: -10.142173 Hartree
O 0.543695 1.454497 -0.341824
H 1.281901 2.064387 -0.398146
H 0.091723 1.631223 0.485569
O -1.084576 -1.530210 1.279297
H -1.272761 -1.430425 0.344034
H -1.912375 -1.413527 1.749639
6
Structure 861 | Energy: -10.142166 Hartree
O 0.525154 0.944866 0.566409
H 0.319116 0.056799 0.268129
H 0.029043 1.552274 0.014122
O -0.614103 -1.740735 0.403381
H -0.263361 -1.783261 -0.488392
H -1.544374 -1.517919 0.332409
6
Structure 862 | Energy: -10.142163 Hartree
O -0.910177 -1.695609 -0.779858
H -1.616796 -1.429367 -1.371374
H -1.319880 -2.088689 -0.006733
O 0.094015 0.815242 2.104264
H 0.011095 0.569658 3.027790
H 0.666957 0.167939 1.688543
6
Structure 863 | Energy: -10.142156 Hartree
O 0.250196 0.355708 1.479434
H 0.391245 -0.265576 0.762359
H 0.924969 1.033373 1.404991
O 0.512072 -1.427800 -1.809106
H 0.420105 -0.501596 -1.577211
H -0.318578 -1.857730 -1.596340
6
Structure 864 | Energy: -10.142156 Hartree
O -0.807344 -1.678746 -0.467818
H -0.556413 -2.399228 -1.049216
H -1.757918 -1.572908 -0.540604
O 0.068547 0.462638 2.300746
H 0.056682 1.133362 1.615125
H 0.850747 -0.074265 2.159379
6
Structure 865 | Energy: -10.142134 Hartree
O 1.008933 -0.873470 0.991593
H 1.775872 -0.321002 1.154899
H 0.734509 -0.717926 0.085730
O 0.166992 1.241546 -1.963228
H -0.025256 0.312763 -1.820087
H -0.669346 1.683511 -2.122269
6
Structure 866 | Energy: -10.142129 Hartree
O -1.850307 0.443223 -0.406312
H -1.441612 0.554623 0.454295
H -2.365920 -0.364955 -0.373434
O 0.979121 0.678931 -1.350890
H 1.350513 0.084818 -0.695768
H 0.235170 0.227510 -1.754430
6
Structure 867 | Energy: -10.142117 Hartree
O 1.612728 0.568720 0.527140
H 1.148063 -0.100430 0.020771
H 1.779723 1.306384 -0.062823
O -0.646046 -1.941222 -0.746795
H -0.606960 -2.682878 -1.353842
H 0.178433 -1.931566 -0.256662
6
Structure 868 | Energy: -10.142100 Hartree
O 1.987070 0.704298 0.307798
H 1.149250 1.158207 0.197749
H 2.573860 1.019814 -0.382288
O -0.791025 -0.400837 -1.049744
H 0.082562 -0.255240 -1.418167
H -1.332293 -0.781619 -1.744094
6
Structure 869 | Energy: -10.142095 Hartree
O -1.560560 -0.267347 1.682927
H -1.111399 -1.052139 1.362862
H -1.961091 0.160328 0.923479
O 0.460718 0.573384 -1.391348
H 0.660839 0.746655 -0.469385
H -0.428379 0.894420 -1.554229
6
Structure 870 | Energy: -10.142094 Hartree
O 0.263828 -1.088870 -1.727518
H 0.913362 -1.742608 -1.993636
H 0.536675 -0.248760 -2.101499
O -0.308588 0.870735 0.304026
H -0.188723 1.153665 -0.604638
H -1.008377 0.214708 0.307307
6
Structure 871 | Energy: -10.142090 Hartree
O -0.978352 -0.485598 1.795591
H -0.431960 -0.697696 1.036277
H -1.356970 0.381829 1.639676
O 1.214507 0.757522 -1.732153
H 1.212532 1.405047 -1.024485
H 0.762061 1.152648 -2.479987
6
Structure 872 | Energy: -10.142089 Hartree
O 0.068363 -0.506827 1.330171
H 0.175816 -0.671518 2.269009
H 0.877466 -0.095865 1.019442
O -0.729069 1.685564 -1.109511
H -1.236536 1.498454 -0.317327
H -0.056059 2.326094 -0.871045
6
Structure 873 | Energy: -10.142087 Hartree
O 1.595570 -0.169948 -0.501203
H 2.479561 -0.504766 -0.338281
H 0.978312 -0.817241 -0.154657
O -0.911776 -0.253212 -1.753403
H -0.591791 -0.911018 -2.373878
H -0.885541 0.595189 -2.200186
6
Structure 874 | Energy: -10.142086 Hartree
O -1.059798 1.584697 0.750934
H -1.204208 2.211632 0.039467
H -1.860404 1.063451 0.837086
O -0.548378 -0.743973 -1.365718
H -0.009243 -1.269322 -0.771220
H -0.505618 -1.158903 -2.229484
6
Structure 875 | Energy: -10.142083 Hartree
O 0.983334 -1.640713 -0.598643
H 1.604137 -1.176771 -1.163840
H 1.376230 -1.689343 0.275061
O -0.104047 0.581438 1.152260
H -0.805011 0.444173 1.792491
H -0.394257 1.276115 0.557877
6
Structure 876 | Energy: -10.142069 Hartree
O 1.315266 -0.619869 0.695714
H 1.231325 -0.010412 1.431650
H 0.758643 -0.289046 -0.011971
O -0.749842 1.135938 1.132046
H -0.026736 1.686229 0.824823
H -1.562582 1.525454 0.803688
6
Structure 877 | Energy: -10.142061 Hartree
O 1.462599 0.739235 0.148441
H 1.596229 0.997296 1.062571
H 1.241007 1.533574 -0.341470
O -0.312079 -1.951571 -0.109166
H -0.924482 -1.244070 0.101765
H 0.387325 -1.926866 0.546815
6
Structure 878 | Energy: -10.142060 Hartree
O 1.344063 0.944120 -1.493454
H 0.904349 0.095062 -1.569859
H 0.688515 1.620749 -1.673786
O -0.978089 -0.400736 1.394000
H -0.480024 -0.975575 0.809552
H -0.516448 0.439424 1.427265
6
Structure 879 | Energy: -10.142058 Hartree
O -1.685909 -0.691016 1.410900
H -2.260795 -0.193188 1.995502
H -2.103002 -0.705779 0.547241
O -0.155920 1.627682 -0.145980
H 0.301526 1.498000 -0.979055
H 0.510751 1.813073 0.518300
6
Structure 880 | Energy: -10.142054 Hartree
O 1.386838 -0.750661 0.748638
H 1.659358 0.008838 1.267272
H 1.992188 -0.820775 0.007878
O -1.875301 0.587995 -1.121242
H -2.692354 0.540244 -1.621472
H -2.009265 0.093173 -0.310506
6
Structure 881 | Energy: -10.142044 Hartree
O -1.634935 -0.846159 -1.357181
H -1.797124 -0.277223 -0.602136
H -1.503198 -0.277430 -2.118288
O 0.373398 0.352838 0.332422
H 0.967541 0.832119 -0.248415
H 0.714448 0.442597 1.224451
6
Structure 882 | Energy: -10.142044 Hartree
O 0.485586 1.470030 0.913565
H 1.319504 1.073222 0.654318
H 0.277333 2.143806 0.263376
O -1.071650 -0.275118 -1.973106
H -0.479606 0.162965 -1.358571
H -1.867699 0.257116 -2.028982
6
Structure 883 | Energy: -10.142042 Hartree
O 0.471186 0.101040 2.145319
H 0.857936 -0.464656 1.474127
H 0.851464 0.974604 2.034123
O -0.317866 -0.242000 -0.441777
H 0.297740 0.373543 -0.844547
H -1.154865 0.216263 -0.344229
6
Structure 884 | Energy: -10.142038 Hartree
O -0.644790 -0.643828 -1.966597
H 0.197769 -0.672422 -1.509035
H -0.899799 0.278343 -2.034864
O 1.359535 1.091179 1.455301
H 0.767057 1.769299 1.124832
H 2.149086 1.533873 1.772664
6
Structure 885 | Energy: -10.142037 Hartree
O 0.456992 0.799568 2.005840
H -0.254911 0.305974 1.593959
H 1.075458 0.160158 2.364651
O 0.878644 -0.679316 -1.344826
H 1.041812 -1.106992 -0.501881
H 0.727706 0.251068 -1.166807
6
Structure 886 | Energy: -10.142028 Hartree
O -0.258642 -0.913560 -1.201449
H -0.767161 -1.664670 -1.513422
H 0.664687 -1.101245 -1.381249
O 1.050700 0.515921 1.779601
H 1.859687 1.014166 1.911430
H 0.467957 1.057135 1.243331
6
Structure 887 | Energy: -10.142027 Hartree
O -1.505894 -0.670062 1.396743
H -0.938108 -0.311811 0.711643
H -2.024947 -1.371086 0.997694
O 0.469577 1.270066 -1.038731
H 1.027906 1.340035 -1.815558
H -0.397502 0.988027 -1.336582
6
Structure 888 | Energy: -10.142022 Hartree
O 2.247670 0.541317 -0.336660
H 1.501164 1.124532 -0.186076
H 2.868239 0.683191 0.380876
O 0.253050 -1.587740 0.091445
H 0.390781 -1.725224 -0.847818
H 0.413941 -2.426606 0.527915
6
Structure 889 | Energy: -10.142020 Hartree
O 0.414221 -1.137605 1.153252
H 0.972672 -1.597884 0.523680
H -0.477485 -1.144130 0.799828
O 0.509229 1.148071 -1.943276
H 0.519770 1.362380 -1.008371
H -0.232817 0.558520 -2.091208
6
Structure 890 | Energy: -10.142018 Hartree
O -1.690210 -1.488237 -0.054024
H -1.805382 -0.575035 0.215945
H -2.301946 -2.016465 0.462548
O 0.318531 -0.389394 -0.916644
H 0.545200 -0.725147 -0.047174
H -0.062067 -1.117367 -1.411910
6
Structure 891 | Energy: -10.142016 Hartree
O -0.527969 -1.393622 -1.179914
H -1.236558 -1.641196 -1.777153
H -0.911694 -1.304680 -0.305308
O -0.430573 1.700876 0.305603
H 0.497530 1.565188 0.506356
H -0.661288 2.580850 0.609748
6
Structure 892 | Energy: -10.142016 Hartree
O -0.532185 -2.103517 -0.269174
H -0.091554 -1.921168 0.563099
H -0.058157 -1.625261 -0.952299
O -0.449283 1.652156 0.498151
H -0.968755 2.432913 0.699782
H -0.024903 1.375206 1.312576
6
Structure 893 | Energy: -10.142015 Hartree
O 0.529484 -0.942393 1.309217
H 1.257186 -0.928384 0.684446
H 0.903166 -1.108790 2.176837
O -0.640958 1.847766 -0.977329
H -0.625730 1.941393 -0.022819
H -1.412917 2.319112 -1.296703
6
Structure 894 | Energy: -10.142012 Hartree
O 1.907884 -1.234476 -0.079228
H 1.841390 -2.186166 0.020527
H 1.068869 -0.860594 0.197101
O -0.516780 -0.256676 -0.968178
H -0.678094 0.520221 -1.507155
H -1.082302 -0.189348 -0.196337
6
Structure 895 | Energy: -10.142009 Hartree
O 0.760559 -1.283583 1.036353
H 0.784440 -2.204731 0.769891
H 1.598475 -0.892360 0.781535
O 1.335654 0.239093 -1.464054
H 0.690246 0.358275 -2.163576
H 2.123408 0.723468 -1.718833
6
Structure 896 | Energy: -10.142008 Hartree
O -0.999340 0.734412 2.042513
H -0.939164 0.898507 1.099360
H -0.120441 0.499578 2.346619
O -1.456806 -0.281491 -0.561054
H -2.091930 0.436974 -0.583678
H -1.001304 -0.284649 -1.405208
6
Structure 897 | Energy: -10.141999 Hartree
O -0.222734 -1.413657 -1.759620
H 0.546929 -1.969897 -1.624334
H -0.462676 -1.048176 -0.905838
O -0.008350 0.879818 1.351197
H -0.793754 0.717641 1.877434
H -0.281109 0.897398 0.431751
6
Structure 898 | Energy: -10.141997 Hartree
O 0.805732 -1.825202 -0.201265
H 0.183788 -2.055301 0.491790
H 1.479700 -1.269428 0.194933
O -1.371126 0.497638 0.761976
H -1.112120 0.728419 1.656260
H -0.575202 0.498190 0.226634
6
Structure 899 | Energy: -10.141994 Hartree
O 0.501858 0.623834 1.631133
H 1.190301 0.243917 2.180492
H 0.893529 0.815248 0.776706
O -1.067407 -1.905135 -0.172592
H -1.686839 -1.259931 -0.519151
H -1.572291 -2.531739 0.349468
6
Structure 900 | Energy: -10.141993 Hartree
O -0.376440 0.915857 -1.869603
H 0.342543 1.166438 -2.453005
H -0.742118 1.724600 -1.505867
O 1.279039 -0.309486 0.936121
H 0.854379 -0.133329 1.777975
H 0.871125 -1.097392 0.571568
6
Structure 901 | Energy: -10.141982 Hartree
O 0.618712 -0.547761 -0.966145
H 1.508223 -0.391309 -1.289224
H 0.164073 -1.071993 -1.628395
O 0.715172 2.055247 0.826312
H -0.108884 1.564595 0.809602
H 0.575330 2.862431 0.327328
6
Structure 902 | Energy: -10.141979 Hartree
O -0.929276 -0.509227 -1.867177
H -0.254363 -0.146038 -2.443954
H -1.615688 -0.875188 -2.428427
O 0.570787 1.298553 0.791651
H 0.407626 1.024233 -0.112901
H 0.840137 2.218792 0.765211
6
Structure 903 | Energy: -10.141979 Hartree
O -0.499878 -1.001241 -1.212342
H -1.086809 -0.321567 -0.875236
H -0.979106 -1.478643 -1.892429
O -0.689728 0.490642 1.970330
H 0.253484 0.617864 2.089711
H -1.118904 1.317947 2.197184
6
Structure 904 | Energy: -10.141972 Hartree
O -0.702291 -0.344027 -1.259608
H -0.965680 0.213066 -1.994699
H -1.379895 -0.263885 -0.585426
O -0.052419 1.222881 1.833539
H 0.533963 1.914731 2.145927
H -0.261321 1.419402 0.918210
6
Structure 905 | Energy: -10.141967 Hartree
O -0.121222 -2.153614 0.178666
H -0.466769 -1.834404 1.014601
H 0.347947 -1.424547 -0.231739
O 0.872729 0.280104 -2.019880
H 0.728329 -0.638354 -2.255826
H 0.234681 0.502151 -1.338942
6
Structure 906 | Energy: -10.141963 Hartree
O 0.557674 -1.774747 1.296824
H 0.077619 -2.169873 2.027241
H 0.645741 -2.446821 0.618112
O -0.677759 0.007135 -0.307631
H -0.289099 0.582045 0.354569
H 0.021529 -0.237951 -0.916743
6
Structure 907 | Energy: -10.141959 Hartree
O -0.738770 -1.602100 1.390305
H -0.259000 -1.476192 0.569297
H -1.085683 -2.496348 1.382307
O 0.691496 1.247962 -0.056024
H 0.072271 0.530069 0.089839
H 0.186916 1.997143 -0.378847
6
Structure 908 | Energy: -10.141955 Hartree
O 0.741504 -1.006123 -1.468630
H 1.612198 -0.611766 -1.549010
H 0.383831 -1.087976 -2.354892
O -1.648084 0.619648 0.320857
H -1.542106 0.135596 -0.500453
H -1.371123 1.523069 0.155900
6
Structure 909 | Energy: -10.141951 Hartree
O 0.985848 -1.391790 -1.454204
H 0.059425 -1.505780 -1.675186
H 1.473198 -1.361746 -2.279843
O 0.904451 1.225268 0.110611
H 0.831590 1.644329 -0.749137
H 1.746337 0.766091 0.132369
6
Structure 910 | Energy: -10.141951 Hartree
O -0.257250 -0.983552 -1.369437
H 0.332121 -0.231548 -1.284482
H -0.169709 -1.504901 -0.569047
O 0.222921 1.356027 1.822894
H -0.371947 0.610073 1.724042
H 0.033494 1.967066 1.108165
6
Structure 911 | Energy: -10.141951 Hartree
O -0.127449 -1.510380 -0.857354
H -0.765933 -2.224733 -0.903441
H -0.522900 -0.809161 -0.335816
O 0.087714 1.667954 1.052427
H 0.438550 0.919094 0.566413
H -0.239905 1.334668 1.890087
6
Structure 912 | Energy: -10.141934 Hartree
O -1.850099 0.724869 0.022109
H -1.870464 1.530572 -0.498000
H -2.540461 0.151063 -0.315882
O 0.290201 -1.161980 1.266820
H 0.485453 -1.640248 2.075042
H -0.664223 -1.091653 1.201885
6
Structure 913 | Energy: -10.141933 Hartree
O -1.474398 -0.439907 0.886590
H -1.875644 -1.174318 1.355342
H -1.564731 0.335874 1.443453
O 1.091899 1.467593 -0.897076
H 1.617630 0.904648 -1.468730
H 1.123679 1.087533 -0.016944
6
Structure 914 | Energy: -10.141929 Hartree
O -0.085771 1.623876 -0.659807
H -0.391100 2.491830 -0.388667
H -0.167054 1.044021 0.099964
O 0.450027 -0.721718 2.065009
H -0.471463 -0.837558 2.304850
H 0.800357 -0.018096 2.614804
6
Structure 915 | Energy: -10.141925 Hartree
O 0.650238 -0.566119 -0.852571
H 0.128222 -0.600096 -1.656581
H 1.519247 -0.237949 -1.091774
O -0.560855 1.625317 1.594310
H -1.388604 2.077331 1.419371
H -0.125423 1.493109 0.749913
6
Structure 916 | Energy: -10.141916 Hartree
O 0.268821 1.697548 -0.741643
H 0.035685 1.119556 -1.470793
H -0.114495 2.557129 -0.926791
O -0.394350 -0.845602 0.559318
H 0.397504 -0.627977 1.054993
H -0.250042 -0.561803 -0.345515
6
Structure 917 | Energy: -10.141913 Hartree
O -1.388741 1.162902 -1.024619
H -1.454925 0.855409 -1.930794
H -1.448521 2.120048 -1.044365
O -0.050896 -0.098130 1.277155
H 0.334358 -0.426220 0.462279
H -0.902710 -0.526667 1.381348
6
Structure 918 | Energy: -10.141912 Hartree
O 1.366311 0.139438 -1.444393
H 1.261806 0.272522 -0.500225
H 1.897711 -0.650294 -1.562837
O -0.863214 -1.238010 1.481817
H -0.948924 -0.325893 1.766045
H -0.794409 -1.776660 2.272519
6
Structure 919 | Energy: -10.141905 Hartree
O 1.466023 -1.271894 -1.145079
H 0.802622 -1.811786 -1.579247
H 1.443808 -1.490750 -0.211430
O 0.568573 1.226636 1.023903
H 1.081417 1.551844 1.766411
H 0.308712 1.988760 0.502629
6
Structure 920 | Energy: -10.141904 Hartree
O 0.743641 -0.995011 -0.226223
H -0.040185 -1.490572 0.018976
H 0.569483 -0.072456 -0.029621
O -1.735527 -0.451001 -1.476521
H -1.163487 -0.387658 -2.243884
H -1.431066 0.199557 -0.840782
6
Structure 921 | Energy: -10.141900 Hartree
O -0.566754 0.540536 0.133270
H -0.703242 1.438306 -0.175705
H 0.145544 0.566258 0.775190
O 2.245372 -0.142186 -0.085563
H 2.107402 -1.068892 -0.291151
H 2.385613 -0.079091 0.861242
6
Structure 922 | Energy: -10.141895 Hartree
O 1.586644 -1.200817 0.786459
H 1.052819 -1.408298 0.016998
H 0.992135 -0.875463 1.465278
O -0.683445 1.261126 -0.391676
H -0.208546 1.923230 -0.897814
H -0.404758 0.402266 -0.715375
6
Structure 923 | Energy: -10.141895 Hartree
O -1.437241 0.744792 0.105718
H -1.701790 1.610977 -0.210231
H -0.826335 0.381802 -0.538582
O 0.218721 -1.889264 -0.049469
H -0.029452 -2.617733 -0.622033
H 0.861741 -2.226819 0.577166
6
Structure 924 | Energy: -10.141893 Hartree
O -0.153825 -0.839816 -0.945467
H 0.002284 0.088586 -0.761657
H -1.103335 -0.961615 -1.006179
O -0.278215 1.419693 1.397873
H 0.260248 1.889798 0.758229
H -0.668484 2.076408 1.977961
6
Structure 925 | Energy: -10.141892 Hartree
O -1.310638 -0.676363 1.660793
H -2.165585 -0.878348 2.045961
H -0.755373 -0.335387 2.364716
O 0.739427 0.053379 -0.495044
H 0.520811 -0.195389 0.405183
H 1.655366 -0.190276 -0.642612
6
Structure 926 | Energy: -10.141886 Hartree
O -1.839190 -0.857204 -0.669729
H -1.606177 0.002337 -0.313386
H -1.791954 -0.790774 -1.625472
O 0.569424 0.195203 2.055776
H -0.006653 -0.027863 2.789577
H 1.203553 0.838776 2.377928
6
Structure 927 | Energy: -10.141886 Hartree
O 2.059433 0.621164 -0.468304
H 2.729230 -0.056196 -0.355863
H 1.260986 0.304788 -0.041129
O -0.750659 -0.714975 1.687177
H -0.479370 -0.163860 2.423901
H -0.062768 -1.370098 1.554103
6
Structure 928 | Energy: -10.141884 Hartree
O -0.652247 -1.109131 0.494598
H 0.258433 -1.136042 0.194560
H -0.660105 -1.408883 1.405739
O -0.944058 1.562244 -0.282327
H -1.790374 1.113413 -0.233477
H -0.898126 1.989357 -1.139971
6
Structure 929 | Energy: -10.141882 Hartree
O 0.197318 0.038984 -2.014851
H -0.233299 -0.783358 -1.773172
H 0.235250 0.582470 -1.225373
O 1.342252 -0.705102 1.771361
H 2.117003 -0.757737 1.208265
H 1.023868 0.198902 1.732682
6
Structure 930 | Energy: -10.141879 Hartree
O -1.870477 0.088829 0.044631
H -1.658340 -0.058205 -0.879200
H -1.928252 1.037339 0.175332
O 1.193413 -0.105641 -1.307175
H 0.866663 -0.962884 -1.027077
H 0.933768 0.011911 -2.223065
6
Structure 931 | Energy: -10.141876 Hartree
O -0.668298 1.620084 -0.277183
H -0.829414 0.978942 -0.972211
H 0.198376 1.431384 0.088002
O -0.510325 -1.931321 0.144945
H -0.870675 -2.509373 -0.530400
H 0.425746 -2.127892 0.217184
6
Structure 932 | Energy: -10.141875 Hartree
O 0.979041 -0.309974 0.033810
H 0.896027 0.571391 -0.335501
H 0.216898 -0.813534 -0.258859
O -0.300932 0.389607 2.187804
H 0.318298 -0.342304 2.218569
H -1.125205 0.080521 2.568760
6
Structure 933 | Energy: -10.141872 Hartree
O -0.358567 -0.961397 0.479090
H -0.663781 -0.269160 -0.110603
H 0.334790 -1.439962 0.020482
O 0.500031 0.273015 -1.731330
H 0.454215 0.914611 -2.442908
H 0.006262 -0.499533 -2.013197
6
Structure 934 | Energy: -10.141866 Hartree
O -1.723992 0.693378 -0.321799
H -1.269982 -0.149800 -0.376674
H -1.415200 1.131000 0.473956
O 2.001825 -0.311455 -0.547606
H 2.389069 0.275557 -1.199944
H 1.318082 0.182718 -0.091123
6
Structure 935 | Energy: -10.141856 Hartree
O -0.788528 0.486064 1.712705
H 0.099302 0.502830 1.349987
H -0.968723 -0.417041 1.981073
O 1.931800 -0.689617 -1.086763
H 1.469694 0.033814 -0.658751
H 2.082711 -0.430747 -1.997971
6
Structure 936 | Energy: -10.141849 Hartree
O 0.129756 -1.644193 -1.356307
H 0.035700 -0.755763 -1.705494
H -0.484596 -2.204078 -1.835047
O 0.480370 1.538231 0.369848
H 1.194140 1.480961 1.008080
H 0.821491 1.217537 -0.467337
6
Structure 937 | Energy: -10.141845 Hartree
O -0.934096 -0.824585 1.293760
H -1.151046 -1.551307 1.881038
H -0.955915 -0.020662 1.816562
O -1.282682 1.322881 -0.798129
H -2.037329 1.274608 -0.207989
H -0.498795 1.156079 -0.271075
6
Structure 938 | Energy: -10.141843 Hartree
O 0.343866 1.739577 0.137466
H -0.078215 1.901651 -0.708504
H 0.154771 0.830949 0.379807
O 2.139460 -0.509686 -0.662557
H 2.119163 -1.457619 -0.807811
H 2.254338 -0.369034 0.279307
6
Structure 939 | Energy: -10.141842 Hartree
O 0.653284 0.950205 -2.002405
H 0.150138 0.824429 -2.809319
H 0.028706 1.177087 -1.310654
O -0.474251 -1.300667 0.752704
H -1.293148 -1.045569 0.323262
H 0.222861 -0.756617 0.381043
6
Structure 940 | Energy: -10.141825 Hartree
O 0.435263 -1.732780 -0.180884
H 1.269076 -1.258832 -0.166227
H -0.157683 -1.246674 -0.757259
O -1.101772 0.418661 1.856614
H -1.751437 1.028512 2.211727
H -0.530158 0.158610 2.581679
6
Structure 941 | Energy: -10.141822 Hartree
O -1.139479 -0.276121 -1.722953
H -1.860779 -0.303788 -2.354654
H -0.430451 0.230819 -2.123431
O 0.358480 1.221972 1.271425
H 0.454632 0.318305 0.964461
H 1.047180 1.739895 0.850075
6
Structure 942 | Energy: -10.141816 Hartree
O -1.418395 -0.606151 -0.955073
H -1.047930 -1.302686 -0.409472
H -2.317759 -0.861440 -1.169699
O -0.296228 2.137555 0.486812
H -0.325229 1.226708 0.786149
H -1.198317 2.463580 0.481221
6
Structure 943 | Energy: -10.141812 Hartree
O -0.253522 -0.768844 -1.018413
H 0.109610 -0.276929 -0.279331
H 0.006220 -1.685202 -0.904779
O -0.745715 -0.656847 1.996783
H 0.185880 -0.751468 2.204785
H -1.179166 -1.471882 2.257409
6
Structure 944 | Energy: -10.141808 Hartree
O -0.489645 -0.482502 -1.721448
H -0.168301 -1.385076 -1.674706
H 0.277268 0.093354 -1.703386
O -0.181660 0.416982 2.221189
H -0.232439 1.373654 2.269012
H -0.909393 0.067642 2.739316
6
Structure 945 | Energy: -10.141806 Hartree
O -1.826780 1.219723 -0.715050
H -1.521590 0.500176 -0.158996
H -2.784149 1.168715 -0.745603
O 1.526570 -0.859315 0.739317
H 1.480543 -1.702948 0.285167
H 0.972672 -0.244796 0.253877
6
Structure 946 | Energy: -10.141804 Hartree
O 1.121006 -1.298966 1.362504
H 1.851033 -0.836512 1.778776
H 1.209857 -1.175858 0.415381
O -0.695928 1.149600 -1.180310
H -0.088710 1.372557 -0.472027
H -0.889663 0.213248 -1.104161
6
Structure 947 | Energy: -10.141803 Hartree
O 0.852701 -1.496927 0.563180
H 0.442860 -2.353193 0.700749
H 0.379068 -0.864625 1.107198
O -1.631715 0.853521 -0.963803
H -1.499032 1.281796 -0.115827
H -0.987279 1.221287 -1.571700
6
Structure 948 | Energy: -10.141799 Hartree
O 0.274672 1.180372 1.058060
H -0.028391 1.114135 0.150397
H 0.253117 2.108924 1.297679
O 0.898240 -1.023462 -1.972274
H 1.211986 -1.533341 -1.222825
H 0.806495 -0.114741 -1.679190
6
Structure 949 | Energy: -10.141799 Hartree
O 0.353464 1.036009 -0.503680
H -0.499924 0.668522 -0.741939
H 0.659956 0.562625 0.272246
O 0.973361 -1.501956 -0.279735
H 1.619245 -1.504988 0.429429
H 1.267607 -2.138023 -0.934659
6
Structure 950 | Energy: -10.141798 Hartree
O -1.630263 -0.900144 -1.295366
H -2.009406 -0.229243 -1.866530
H -2.086359 -1.723048 -1.482170
O -0.401370 0.793793 0.503650
H 0.451843 0.822177 0.941038
H -0.248784 0.504874 -0.398199
6
Structure 951 | Energy: -10.141794 Hartree
O -0.153732 1.609821 -0.883397
H -0.921716 2.061421 -0.527948
H -0.020546 0.818892 -0.357294
O -1.582040 -0.580255 1.588407
H -0.829441 -0.685056 1.003002
H -2.045130 -1.420028 1.608834
6
Structure 952 | Energy: -10.141786 Hartree
O 0.949919 0.477221 1.997099
H 1.069193 -0.314480 1.468829
H 0.931289 1.221846 1.392716
O -0.927792 0.566064 0.042262
H -0.956772 1.518644 0.151062
H -1.598392 0.333315 -0.602884
6
Structure 953 | Energy: -10.141782 Hartree
O 1.752868 1.489928 -0.333666
H 1.744278 2.059083 -1.105725
H 0.914245 1.609120 0.116441
O -0.832547 0.041988 -1.601379
H -0.442284 0.350192 -0.781140
H -1.208505 -0.823567 -1.429454
6
Structure 954 | Energy: -10.141776 Hartree
O -0.866514 1.710157 0.315703
H -0.338332 1.024437 0.729100
H -1.766416 1.382356 0.262647
O -0.703555 -1.602498 -0.692389
H -0.753394 -0.840573 -1.272969
H -1.330633 -1.458954 0.019128
6
Structure 955 | Energy: -10.141774 Hartree
O -0.089237 -0.376022 1.521224
H 0.613790 0.108290 1.958581
H -0.554749 -0.872967 2.196824
O 0.350184 2.313593 -0.270086
H 0.709807 2.379631 0.616705
H 0.667010 1.489231 -0.644435
6
Structure 956 | Energy: -10.141768 Hartree
O 0.719449 -0.792992 1.067802
H 1.333128 -1.503299 0.870450
H 0.698662 -0.692337 2.021494
O 0.114365 2.088949 -0.445840
H -0.261870 1.829428 -1.289157
H -0.509277 1.829652 0.235279
6
Structure 957 | Energy: -10.141767 Hartree
O 1.630058 -0.118897 -0.546640
H 2.106303 0.663722 -0.262414
H 1.874079 -0.831313 0.047505
O -0.041572 1.807727 1.244613
H 0.401128 2.598120 0.929362
H -0.973875 1.903757 1.040461
6
Structure 958 | Energy: -10.141762 Hartree
O -1.615507 0.712784 1.291816
H -1.441283 -0.200157 1.529028
H -2.169114 0.702066 0.508556
O 0.972419 -1.301995 -0.325499
H 1.669545 -1.734133 0.171854
H 0.895107 -1.761289 -1.164045
6
Structure 959 | Energy: -10.141758 Hartree
O 1.193304 0.664110 -0.341935
H 1.503709 0.629557 0.565006
H 0.289538 0.984814 -0.320821
O -1.310523 -0.737487 0.555143
H -0.662282 -1.438280 0.648735
H -1.130337 -0.090542 1.240040
6
Structure 960 | Energy: -10.141758 Hartree
O 1.155788 0.597526 -0.383875
H 0.319745 0.462451 -0.834289
H 1.636795 -0.231435 -0.423185
O -1.241285 -0.565148 0.441827
H -2.161261 -0.318410 0.328468
H -1.217017 -1.513367 0.584585
6
Structure 961 | Energy: -10.141753 Hartree
O 1.779711 -1.168805 -0.758151
H 1.064983 -1.629361 -0.314149
H 1.597143 -0.229497 -0.691369
O -0.517052 -0.329002 -1.501434
H 0.153814 -0.833369 -1.965806
H -0.381666 0.594583 -1.722226
6
Structure 962 | Energy: -10.141752 Hartree
O -1.017102 0.545406 -0.843423
H -1.014080 0.941774 0.030058
H -0.103098 0.471047 -1.124773
O -0.632439 -0.774811 2.095472
H -0.790317 0.110494 2.429234
H -0.672517 -0.728836 1.138201
6
Structure 963 | Energy: -10.141751 Hartree
O 0.016647 -1.877715 1.015538
H -0.899286 -1.671001 1.211552
H 0.376854 -2.327104 1.782604
O -0.112214 0.298193 -1.583731
H -0.658560 -0.417278 -1.252528
H -0.219338 1.038683 -0.983492
6
Structure 964 | Energy: -10.141749 Hartree
O 0.394744 -0.318546 1.944623
H -0.540507 -0.198799 2.120840
H 0.668553 0.395921 1.366128
O -0.681303 0.559085 -1.378910
H -0.576013 -0.093741 -0.684057
H -1.307832 1.212656 -1.062059
6
Structure 965 | Energy: -10.141744 Hartree
O -0.565517 -1.503459 0.566709
H -1.039579 -1.085437 1.288241
H 0.304401 -1.101211 0.527599
O 1.430860 0.846091 -1.400982
H 0.931340 1.230583 -0.677980
H 1.449155 1.492829 -2.109137
6
Structure 966 | Energy: -10.141742 Hartree
O -0.722289 0.368638 -0.478975
H -0.628302 -0.578454 -0.359514
H 0.157735 0.748410 -0.441281
O 1.092703 0.844490 1.648577
H 1.900065 1.358938 1.708557
H 1.277067 -0.018356 2.024866
6
Structure 967 | Energy: -10.141739 Hartree
O -0.948377 -0.791611 -2.000390
H -0.264447 -0.139679 -1.835132
H -1.577825 -0.732058 -1.279045
O 1.487810 0.618145 0.017919
H 1.811971 0.379362 0.888545
H 0.535374 0.710214 0.084832
6
Structure 968 | Energy: -10.141734 Hartree
O -1.433564 0.895001 0.118449
H -0.959284 0.734194 -0.699651
H -1.219524 0.176502 0.716811
O 1.657473 -0.279071 -1.490711
H 0.791455 -0.477510 -1.852265
H 2.206652 0.021448 -2.217470
6
Structure 969 | Energy: -10.141728 Hartree
O 1.831140 0.206483 1.278555
H 1.169179 0.817135 0.948406
H 1.929316 0.374533 2.217817
O 0.632189 -0.312172 -1.267271
H -0.069074 -0.863217 -1.620352
H 1.442767 -0.562387 -1.714980
6
Structure 970 | Energy: -10.141725 Hartree
O 0.196324 0.843622 -1.224607
H -0.391627 0.754323 -1.977219
H -0.323989 1.190518 -0.497264
O -2.257473 -0.545864 0.128011
H -2.691334 0.242228 -0.204798
H -1.595797 -0.800221 -0.518190
6
Structure 971 | Energy: -10.141713 Hartree
O 0.129201 0.818237 1.553147
H 0.718896 1.405282 1.075943
H -0.122043 0.116083 0.949867
O 0.979124 -2.011440 -0.713933
H 0.721048 -1.567694 -1.524225
H 0.175569 -2.320441 -0.290961
6
Structure 972 | Energy: -10.141707 Hartree
O -0.350373 -1.501675 1.433052
H -1.257375 -1.567543 1.127940
H -0.295782 -0.727401 1.996623
O 0.019710 1.634228 -0.584401
H 0.558952 1.797083 0.191991
H 0.351135 2.200289 -1.284272
6
Structure 973 | Energy: -10.141706 Hartree
O -0.190490 0.071891 -1.833681
H -1.010999 0.471620 -2.128754
H -0.209549 0.059013 -0.874743
O 0.834863 -1.792862 1.192135
H 0.785946 -2.336973 1.980575
H 1.310137 -0.993636 1.427595
6
Structure 974 | Energy: -10.141705 Hartree
O 0.167306 -1.568191 1.090575
H -0.071302 -2.101404 0.329762
H -0.265450 -1.953949 1.854777
O 0.999812 0.989321 -0.720223
H 0.880569 1.215087 -1.644830
H 0.729700 0.075084 -0.613934
6
Structure 975 | Energy: -10.141703 Hartree
O 0.146281 -1.853202 -0.062543
H 1.088189 -1.722819 0.063536
H -0.258178 -1.862071 0.807184
O -2.202619 0.437333 0.397205
H -2.311845 1.292798 -0.022718
H -3.005595 -0.062326 0.237023
6
Structure 976 | Energy: -10.141696 Hartree
O 0.332806 -0.084339 -1.569002
H 0.686798 -0.746308 -0.971864
H 1.041274 0.533280 -1.760603
O -0.513045 0.474840 2.236685
H -1.465614 0.457864 2.125270
H -0.182265 -0.389902 1.985900
6
Structure 977 | Energy: -10.141689 Hartree
O 0.556356 -1.675448 0.473909
H 1.220718 -1.768297 1.159539
H 0.743328 -2.337698 -0.194340
O 0.669595 0.523121 -2.075871
H 1.627491 0.530103 -2.125606
H 0.404463 -0.364923 -1.828545
6
Structure 978 | Energy: -10.141684 Hartree
O 1.591094 -0.191636 -0.593452
H 1.672395 0.653408 -0.146936
H 1.853057 -0.869869 0.032220
O -1.595305 1.600435 0.325513
H -2.149315 2.059821 0.959646
H -1.896938 0.690518 0.291491
6
Structure 979 | Energy: -10.141678 Hartree
O 0.751548 -1.157672 1.919343
H -0.057479 -1.329892 1.433647
H 0.734987 -0.234902 2.180710
O 1.480362 0.705586 -1.068907
H 1.124148 0.863952 -1.945331
H 1.004213 -0.040588 -0.699322
6
Structure 980 | Energy: -10.141678 Hartree
O -0.586651 0.106778 -0.038604
H -0.479574 0.481514 -0.915070
H 0.279163 0.097702 0.374160
O 1.477472 -1.034612 -0.998751
H 1.633184 -1.914831 -0.650820
H 2.235810 -0.804537 -1.539193
6
Structure 981 | Energy: -10.141670 Hartree
O 1.499927 -0.644089 -1.538468
H 2.055062 -1.406203 -1.714801
H 1.825988 -0.235106 -0.734411
O -0.761779 1.474635 0.309560
H -1.159278 1.761566 1.134031
H -1.468634 1.137733 -0.244463
6
Structure 982 | Energy: -10.141669 Hartree
O 1.229770 -0.542621 0.795557
H 1.975117 -0.803551 1.340039
H 1.398695 -0.866584 -0.091350
O -0.371988 0.977125 -0.585780
H -0.910392 1.548414 -0.034566
H 0.532629 1.054024 -0.276194
6
Structure 983 | Energy: -10.141668 Hartree
O -1.118207 2.045025 0.454187
H -0.197460 1.869272 0.657713
H -1.628640 1.302727 0.783644
O 1.386029 -0.178748 -1.459731
H 2.299148 -0.121561 -1.747880
H 1.223825 -1.090309 -1.209063
6
Structure 984 | Energy: -10.141663 Hartree
O -0.094890 0.284830 -0.842720
H 0.022024 0.435416 0.097355
H 0.490973 -0.433158 -1.090405
O -0.917565 -1.344597 1.529404
H -0.162222 -1.179144 2.097003
H -1.427993 -2.048821 1.933903
6
Structure 985 | Energy: -10.141662 Hartree
O -0.409611 -0.280228 -1.947256
H -0.966640 0.222474 -2.544830
H 0.430339 -0.417439 -2.389690
O -0.140933 0.706874 0.678242
H -0.045031 -0.206306 0.400767
H 0.020817 0.735076 1.623297
6
Structure 986 | Energy: -10.141659 Hartree
O 0.103468 -2.147759 0.179531
H 0.759121 -1.669676 -0.331977
H -0.231337 -1.545025 0.846395
O -0.758413 0.033457 -0.976694
H -0.172638 -0.148876 -1.714061
H -1.565919 0.402383 -1.339897
6
Structure 987 | Energy: -10.141650 Hartree
O 1.555633 -0.641539 0.623238
H 1.101881 0.047803 0.134358
H 0.902900 -1.307921 0.846766
O -1.561579 1.099769 0.338933
H -1.876097 1.342015 -0.534270
H -1.551458 0.141555 0.381493
6
Structure 988 | Energy: -10.141647 Hartree
O 1.414971 1.063240 0.108023
H 0.952769 0.370978 0.584707
H 1.056793 1.901513 0.406516
O -0.725697 -2.120518 -0.161937
H -0.612075 -1.896485 -1.087673
H 0.001945 -1.720707 0.318456
6
Structure 989 | Energy: -10.141642 Hartree
O 0.721328 0.300300 -0.907891
H 0.753533 -0.504786 -1.428358
H -0.070980 0.774712 -1.167259
O 0.647950 -1.641686 0.905567
H 1.441758 -1.155853 1.137781
H 0.374158 -2.128041 1.685685
6
Structure 990 | Energy: -10.141634 Hartree
O -0.556008 -0.879361 -1.976249
H -0.172020 -0.326923 -2.659953
H -1.270507 -0.380216 -1.575705
O 1.287373 0.567854 1.571028
H 2.223173 0.645990 1.375426
H 0.819224 0.592604 0.734182
6
Structure 991 | Energy: -10.141632 Hartree
O 1.588408 -0.934558 -0.722531
H 0.875515 -1.358632 -0.240835
H 1.488524 0.011893 -0.602760
O -0.095768 1.420274 0.716255
H -0.146372 0.496249 0.463856
H -0.682130 1.542613 1.465455
6
Structure 992 | Energy: -10.141629 Hartree
O 1.831992 -1.362503 -0.378794
H 2.456141 -1.775470 0.221192
H 1.840084 -0.421379 -0.193561
O -0.461603 0.601204 1.502610
H -0.350015 0.761041 0.563415
H -0.651916 1.446571 1.913978
6
Structure 993 | Energy: -10.141628 Hartree
O 0.583629 1.281491 0.488600
H 1.296095 0.959668 -0.067195
H 0.254060 2.088784 0.088908
O -1.275559 -0.048203 -1.913159
H -0.764164 -0.527575 -2.567961
H -2.031833 -0.593719 -1.688326
6
Structure 994 | Energy: -10.141619 Hartree
O -2.159131 -0.880714 -0.265211
H -2.576967 -0.188229 0.250505
H -1.992169 -0.522520 -1.139231
O -0.424170 1.011216 1.391913
H 0.487449 0.771296 1.569325
H -0.507623 1.952317 1.557603
6
Structure 995 | Energy: -10.141613 Hartree
O 0.096076 2.055318 0.410920
H 0.356045 2.943829 0.159824
H -0.618235 2.137103 1.045871
O 0.612597 -1.784827 -0.301770
H 0.893215 -1.162933 0.372463
H 1.106653 -2.595374 -0.163891
6
Structure 996 | Energy: -10.141609 Hartree
O -1.544720 -1.309401 -0.941020
H -0.637766 -1.106744 -0.703423
H -1.515551 -1.972261 -1.633736
O 1.112796 0.083051 1.390900
H 0.836450 0.152662 2.306801
H 0.441455 -0.423256 0.929334
6
Structure 997 | Energy: -10.141604 Hartree
O -0.866577 -1.342671 -0.670327
H -1.359595 -1.623085 -1.443882
H -1.168314 -0.460307 -0.445651
O -0.750395 1.939214 0.953913
H -1.317972 2.283875 0.261704
H -0.033407 1.467982 0.525010
6
Structure 998 | Energy: -10.141600 Hartree
O 2.079454 -0.600892 0.561532
H 1.248761 -1.048833 0.732949
H 2.474968 -0.400589 1.412142
O -0.281945 0.760157 -0.445007
H 0.315078 0.238014 -0.984467
H -0.894693 0.150981 -0.028434
6
Structure 999 | Energy: -10.141598 Hartree
O 0.946346 0.433968 0.550820
H 0.994445 -0.369213 1.073001
H 0.627805 0.188038 -0.319893
O 0.350912 -2.236370 0.501989
H -0.508941 -2.125574 0.912434
H 0.307295 -1.826128 -0.363971
6
Structure 1000 | Energy: -10.141589 Hartree
O 1.508716 0.657354 -0.610351
H 1.212213 0.394259 0.263121
H 1.392323 1.607235 -0.675685
O -1.900910 -0.273606 0.132897
H -1.019738 -0.602527 -0.055342
H -1.955401 -0.133366 1.080236
6
Structure 1001 | Energy: -10.141588 Hartree
O 0.112879 -0.645294 1.047573
H -0.811511 -0.404803 1.135629
H 0.199350 -1.148563 0.235580
O -1.066813 0.987970 -1.683022
H -0.357613 1.509697 -1.302331
H -0.970367 0.092939 -1.351804
6
Structure 1002 | Energy: -10.141588 Hartree
O 0.085545 0.649583 0.807604
H 0.975592 0.468735 1.116145
H 0.155686 0.954264 -0.099226
O -1.835270 0.094302 -0.988704
H -2.043053 -0.606491 -1.609835
H -2.559810 0.142425 -0.361955
6
Structure 1003 | Energy: -10.141587 Hartree
O 0.756079 0.698436 1.917797
H 0.215820 0.074939 2.407140
H 0.442611 1.578325 2.136025
O -0.226950 -1.322024 -0.606542
H 0.680178 -1.608486 -0.483475
H -0.657318 -1.365898 0.249581
6
Structure 1004 | Energy: -10.141586 Hartree
O -0.404739 2.280918 -0.429461
H 0.030267 1.431972 -0.328734
H -0.414525 2.485668 -1.366516
O -1.359985 -0.157792 0.508415
H -1.384227 -0.926537 -0.064761
H -2.175425 -0.154248 1.013522
6
Structure 1005 | Energy: -10.141577 Hartree
O -1.595962 -0.615097 -1.421151
H -1.332829 -0.800411 -0.517544
H -2.330006 0.001167 -1.382542
O 1.147002 0.840628 0.504267
H 0.890513 0.593893 1.395009
H 0.945607 0.096005 -0.065877
6
Structure 1006 | Energy: -10.141577 Hartree
O 0.921006 0.596101 1.697930
H 0.921635 -0.340299 1.489987
H 0.612977 0.686132 2.601867
O -0.123601 -0.364286 -1.824017
H -0.828463 -0.821246 -1.360936
H 0.618283 -0.299693 -1.219431
6
Structure 1007 | Energy: -10.141576 Hartree
O 1.898725 -0.926475 -0.733012
H 1.683709 -1.463969 0.031812
H 2.805625 -0.632348 -0.627596
O -0.250275 0.341235 1.585356
H -0.058509 0.406657 2.522924
H 0.119985 1.119717 1.164689
6
Structure 1008 | Energy: -10.141573 Hartree
O 0.300660 1.505096 0.218108
H 1.146603 1.232729 -0.142839
H 0.468752 2.237539 0.814231
O 0.183554 -2.270360 -0.040261
H -0.123719 -3.083152 -0.446511
H -0.369307 -2.109583 0.726931
6
Structure 1009 | Energy: -10.141567 Hartree
O -1.137359 0.780266 1.401133
H -1.275433 0.360226 0.549905
H -0.559947 0.207813 1.910037
O 1.229041 -1.825934 -0.738518
H 1.490368 -2.013767 -1.642130
H 0.270501 -1.847392 -0.709735
6
Structure 1010 | Energy: -10.141565 Hartree
O -0.841248 1.089741 -0.812008
H -0.721766 2.040612 -0.771350
H -0.003300 0.687755 -0.574645
O -0.180915 -1.790934 1.063698
H -0.573016 -2.459140 1.629246
H -0.133050 -0.979804 1.573468
6
Structure 1011 | Energy: -10.141564 Hartree
O 1.697305 0.694085 -1.035611
H 2.241720 1.217071 -1.627375
H 2.190921 0.581048 -0.220960
O -0.724559 -1.102971 0.364336
H -0.834831 -2.021237 0.109945
H -1.187987 -0.570642 -0.285239
6
Structure 1012 | Energy: -10.141562 Hartree
O 1.162925 0.885479 1.727284
H 1.838054 0.612238 2.351485
H 1.597872 1.033964 0.885344
O -0.222103 -0.079332 -1.766827
H -0.624439 -0.949578 -1.737090
H -0.514743 0.341352 -2.577676
6
Structure 1013 | Energy: -10.141551 Hartree
O 0.289857 0.717689 -1.400903
H 0.421444 1.556977 -0.955521
H 1.128525 0.471104 -1.795774
O -2.195957 -0.464807 0.597928
H -2.140925 -0.899959 -0.255126
H -2.129644 -1.146586 1.269396
6
Structure 1014 | Energy: -10.141549 Hartree
O -1.527815 1.119697 -0.154946
H -1.153901 0.338046 -0.566401
H -0.847746 1.498621 0.405423
O 1.622117 -0.342828 -0.941535
H 2.355083 0.085362 -1.388191
H 1.045246 0.350001 -0.613974
6
Structure 1015 | Energy: -10.141547 Hartree
O 0.748635 -1.047960 1.603748
H 1.498459 -1.010109 2.200755
H 0.481361 -0.144096 1.425745
O 0.013257 0.941108 -0.570998
H 0.288549 1.067532 -1.481118
H 0.086676 1.790503 -0.131423
6
Structure 1016 | Energy: -10.141546 Hartree
O -1.744219 -0.174898 -1.179962
H -0.795292 -0.193019 -1.318866
H -1.902585 -0.425274 -0.267645
O 0.594114 0.381230 1.178213
H 0.031837 -0.392288 1.103362
H 0.102840 1.043121 1.668762
6
Structure 1017 | Energy: -10.141545 Hartree
O -0.181828 1.168633 -1.034050
H -0.215087 1.250736 -1.989162
H 0.245929 0.333359 -0.835476
O -1.336245 -0.506637 1.496156
H -1.045796 -0.197072 0.635983
H -1.770010 -1.351640 1.362346
6
Structure 1018 | Energy: -10.141543 Hartree
O -0.529402 -1.060211 -0.820837
H -0.151417 -0.245819 -1.158445
H -0.351531 -1.086736 0.121367
O -0.287003 2.033208 0.910366
H -0.735349 1.206713 1.100048
H -0.465684 2.249280 -0.006953
6
Structure 1019 | Energy: -10.141543 Hartree
O -0.067759 -0.819131 0.490011
H -0.043081 -1.366065 1.277628
H -0.988668 -0.723725 0.239181
O 0.194504 1.800331 -0.863293
H 0.581989 2.677106 -0.828524
H 0.026504 1.527954 0.040961
6
Structure 1020 | Energy: -10.141542 Hartree
O -0.618636 1.443507 -1.584826
H -0.280004 1.032548 -2.382652
H -0.240643 2.323766 -1.536299
O 0.508415 -0.571818 1.186838
H -0.329574 -0.304667 1.569580
H 0.407945 -1.477437 0.887090
6
Structure 1021 | Energy: -10.141538 Hartree
O 1.305392 0.415788 -0.394273
H 1.830573 -0.346777 -0.644804
H 0.691132 0.127326 0.283639
O -1.458895 -1.126521 0.755204
H -0.637880 -1.492894 0.420849
H -1.592475 -0.283225 0.318057
6
Structure 1022 | Energy: -10.141532 Hartree
O 0.498096 -1.522779 -0.812173
H -0.355652 -1.249245 -1.153318
H 1.063358 -0.747834 -0.806755
O -1.645773 0.759301 1.332444
H -1.508608 -0.107012 0.944146
H -0.858267 1.277681 1.155800
6
Structure 1023 | Energy: -10.141529 Hartree
O 0.069421 1.504702 -0.888670
H -0.671068 0.903406 -0.787658
H 0.430246 1.366007 -1.766543
O 1.589048 -0.965321 0.370346
H 1.853091 -1.564655 -0.330487
H 2.303946 -0.337354 0.491448
6
Structure 1024 | Energy: -10.141527 Hartree
O 1.665413 1.332586 -0.680701
H 0.905515 1.096778 -1.216457
H 2.412409 0.828930 -1.009972
O 1.098599 -0.151895 1.380969
H 1.799013 0.498917 1.458107
H 0.650855 0.010009 0.548263
6
Structure 1025 | Energy: -10.141524 Hartree
O 0.247882 -0.755689 -0.979938
H 0.986942 -1.348981 -1.127862
H 0.397971 0.024517 -1.517378
O -2.143293 0.862450 0.197794
H -2.315004 0.109487 -0.371107
H -1.782433 1.559037 -0.354144
6
Structure 1026 | Energy: -10.141523 Hartree
O -1.568522 0.132455 1.286194
H -0.834170 -0.318120 1.707851
H -1.879120 -0.433195 0.576505
O 2.004536 -0.005668 -0.898200
H 2.957952 -0.110954 -0.897582
H 1.681787 -0.345316 -1.735194
6
Structure 1027 | Energy: -10.141519 Hartree
O -1.419460 1.077057 -0.877442
H -0.545153 0.873034 -1.215154
H -1.311271 1.380761 0.025968
O 1.098340 -1.250753 1.591074
H 0.849064 -1.850151 2.297241
H 0.925404 -0.359504 1.900680
6
Structure 1028 | Energy: -10.141517 Hartree
O -0.032755 -0.036140 -1.092925
H -0.551816 -0.504874 -1.749394
H -0.345890 0.870393 -1.077571
O 0.233977 0.351560 1.985210
H 1.078383 0.091918 2.358911
H 0.414908 0.982031 1.285312
6
Structure 1029 | Energy: -10.141515 Hartree
O 1.583609 -0.720869 -1.489364
H 1.743085 -1.663369 -1.569040
H 1.787207 -0.473769 -0.585163
O -0.325781 1.086459 1.825196
H 0.313967 0.671365 1.243382
H -1.094118 1.303730 1.293652
6
Structure 1030 | Energy: -10.141512 Hartree
O 1.964510 0.708325 0.930800
H 2.061307 0.893338 -0.005409
H 2.049033 -0.240540 1.043055
O 0.129778 -0.186545 -1.226249
H -0.119023 0.461073 -1.888652
H 0.574043 -0.903635 -1.682865
6
Structure 1031 | Energy: -10.141507 Hartree
O 0.691724 1.235431 -0.662044
H 1.184794 0.944210 0.107474
H 1.208942 1.922019 -1.087689
O 0.131365 -1.651679 1.469006
H -0.625489 -1.089005 1.293916
H 0.796155 -1.108541 1.896960
6
Structure 1032 | Energy: -10.141502 Hartree
O -1.004956 -0.997161 0.991836
H -1.764438 -1.398155 0.564662
H -0.397491 -0.730284 0.299122
O 2.083731 0.230614 -0.185891
H 1.565887 0.927509 0.221861
H 1.835567 0.197001 -1.111835
6
Structure 1033 | Energy: -10.141502 Hartree
O -1.268039 1.204310 -0.805231
H -0.784212 0.683025 -1.448861
H -2.105876 1.444155 -1.205974
O 1.541255 -1.451935 0.687477
H 2.461243 -1.497968 0.419912
H 1.521784 -1.094396 1.577350
6
Structure 1034 | Energy: -10.141498 Hartree
O -1.887888 0.276127 -0.958535
H -2.496300 0.347447 -1.696663
H -2.394511 -0.022238 -0.200642
O 0.864141 0.292479 -1.440770
H 0.234301 -0.143902 -0.863742
H 1.722473 -0.102116 -1.274491
6
Structure 1035 | Energy: -10.141498 Hartree
O -0.741395 0.272404 1.673625
H -0.176317 -0.500476 1.615080
H -0.841376 0.619159 0.784887
O 1.940276 1.145892 0.063000
H 1.476399 0.533704 0.637570
H 1.383637 1.920920 -0.034846
6
Structure 1036 | Energy: -10.141498 Hartree
O -1.314984 0.790847 1.368973
H -1.852629 0.070028 1.035140
H -1.857603 1.289032 1.983356
O 1.170075 -0.324435 -0.935071
H 2.043737 -0.641426 -1.172388
H 0.993356 -0.621749 -0.040385
6
Structure 1037 | Energy: -10.141495 Hartree
O 0.637768 -1.738443 -0.233047
H 0.433309 -0.815758 -0.068929
H 0.533936 -1.889269 -1.174621
O -1.239344 0.599561 1.911528
H -0.614195 0.911746 1.254401
H -0.907211 -0.236214 2.245081
6
Structure 1038 | Energy: -10.141473 Hartree
O -2.242155 -0.300636 -0.003921
H -1.564206 -0.640542 -0.591232
H -2.997266 -0.066520 -0.547141
O 0.735626 0.325566 1.455036
H 0.270251 -0.268118 2.047533
H 0.761716 -0.095615 0.593634
6
Structure 1039 | Energy: -10.141468 Hartree
O -1.376148 -1.073385 0.851084
H -0.856510 -1.458333 0.142651
H -1.586331 -1.779582 1.465250
O -0.721559 1.186878 -1.821892
H -0.081640 1.047578 -1.121045
H -0.525248 2.036743 -2.220991
6
Structure 1040 | Energy: -10.141463 Hartree
O -2.326228 0.373481 -0.027650
H -1.743760 -0.364005 0.164526
H -2.212455 1.015999 0.675428
O 1.505855 -0.219988 -1.065521
H 1.271320 0.650298 -0.737372
H 0.691637 -0.719441 -1.153184
6
Structure 1041 | Energy: -10.141463 Hartree
O 0.359922 -0.773434 1.215643
H 0.764013 -0.204458 0.557569
H 1.059401 -1.307077 1.597802
O -1.541221 1.415628 -0.817934
H -2.482889 1.328927 -0.978656
H -1.104950 0.708563 -1.297323
6
Structure 1042 | Energy: -10.141461 Hartree
O 0.030547 -2.029994 0.851057
H 0.483680 -2.827208 0.569623
H -0.734752 -2.303150 1.360758
O 0.903448 0.472743 -1.216948
H 1.456099 -0.045636 -1.805122
H 0.041316 0.052890 -1.193731
6
Structure 1043 | Energy: -10.141458 Hartree
O 0.749134 -1.102423 -0.456667
H 1.335655 -1.858682 -0.392234
H -0.073003 -1.342981 -0.025026
O -0.949872 1.799493 0.438311
H -0.468135 1.217142 1.028975
H -1.514661 1.247728 -0.106350
6
Structure 1044 | Energy: -10.141457 Hartree
O -0.568003 0.759006 0.580541
H 0.044991 1.495142 0.629820
H -1.048269 0.844094 -0.245410
O 1.362105 -0.345923 -0.474115
H 2.242095 -0.726504 -0.503503
H 1.051735 -0.417505 0.430670
6
Structure 1045 | Energy: -10.141454 Hartree
O -0.370425 1.216251 -1.227775
H -0.596384 0.308913 -1.441706
H -1.095324 1.575580 -0.712513
O 0.308144 -1.606003 1.560968
H 1.237537 -1.820713 1.662048
H 0.046807 -1.882713 0.680501
6
Structure 1046 | Energy: -10.141454 Hartree
O -0.499349 -0.377091 1.124850
H -0.791269 -1.178954 0.686804
H 0.334194 -0.122063 0.724527
O -0.736216 0.101891 -1.806284
H -1.362699 -0.355268 -2.370740
H 0.094287 0.149470 -2.283870
6
Structure 1047 | Energy: -10.141452 Hartree
O 0.674730 -1.641512 -1.228867
H 0.527107 -1.994127 -0.349119
H 1.596798 -1.793850 -1.444910
O 0.832161 1.607983 0.217378
H 0.633682 0.718769 0.517366
H 1.642867 1.561206 -0.293167
6
Structure 1048 | Energy: -10.141448 Hartree
O -0.002631 -0.164015 -1.844502
H 0.052630 0.671790 -1.377102
H 0.438066 -0.821889 -1.303135
O -0.375475 0.304177 2.076381
H -0.361094 -0.337012 1.363109
H -1.039586 0.960076 1.855378
6
Structure 1049 | Energy: -10.141446 Hartree
O 0.987099 -0.213819 1.412149
H 0.028497 -0.208264 1.445898
H 1.303622 -0.095554 2.309878
O 0.302328 -0.007354 -2.047935
H -0.248269 -0.624257 -1.561765
H 0.273536 0.829195 -1.579485
6
Structure 1050 | Energy: -10.141436 Hartree
O -1.897073 1.329704 -0.226213
H -2.552951 1.037792 0.409946
H -1.341326 0.574408 -0.428116
O 0.999606 -0.097455 0.959712
H 1.211090 -0.922849 0.519160
H 0.780426 -0.308981 1.869275
6
Structure 1051 | Energy: -10.141431 Hartree
O -0.126178 1.085873 -1.433899
H -0.595361 1.835239 -1.061872
H -0.677991 0.312152 -1.303708
O 0.104845 -1.916532 0.227252
H -0.737428 -1.560484 -0.062392
H 0.755516 -1.217857 0.134690
6
Structure 1052 | Energy: -10.141423 Hartree
O -1.292041 1.679642 -0.164838
H -0.428326 1.361881 -0.435230
H -1.150544 2.353034 0.503453
O 1.792895 -0.867420 0.929463
H 1.015111 -0.623447 0.423877
H 2.422131 -1.250850 0.315353
6
Structure 1053 | Energy: -10.141422 Hartree
O 0.236085 0.655024 -2.051464
H 0.947076 1.104524 -1.590456
H -0.525675 1.237748 -2.035837
O 0.392327 -0.443712 1.651305
H 0.741486 -0.326985 0.765557
H -0.036371 0.378076 1.898228
6
Structure 1054 | Energy: -10.141414 Hartree
O 0.125241 -1.201510 1.898111
H -0.689549 -1.699547 1.988455
H 0.410073 -1.285866 0.986055
O -1.428942 0.447542 -1.405476
H -2.315512 0.673412 -1.117267
H -0.968137 0.082687 -0.647434
6
Structure 1055 | Energy: -10.141410 Hartree
O 0.269765 1.570070 -1.529351
H 1.078905 1.093115 -1.334694
H 0.496399 2.499974 -1.592651
O -0.385910 -1.347358 0.981151
H -1.324860 -1.166548 0.905190
H -0.278568 -2.008353 1.667920
6
Structure 1056 | Energy: -10.141402 Hartree
O -0.772520 -1.039399 -1.528608
H -0.133762 -1.239628 -0.841598
H -0.851659 -1.820752 -2.079349
O 0.930769 1.352194 1.399387
H 1.086665 2.191941 0.962801
H 1.587397 1.266625 2.093365
6
Structure 1057 | Energy: -10.141390 Hartree
O 0.076843 1.850442 -0.108120
H -0.706217 1.898426 0.443787
H 0.639952 2.588596 0.132977
O -0.813603 -0.920851 0.679060
H -0.050508 -1.221264 0.181541
H -0.799416 -1.375985 1.523299
6
Structure 1058 | Energy: -10.141376 Hartree
O -1.090474 -0.865857 -0.277837
H -1.178187 -1.684240 -0.770423
H -1.008640 -0.156316 -0.918107
O 0.832494 1.812348 0.184913
H 0.951163 1.546863 -0.729157
H -0.074509 1.611256 0.423652
6
Structure 1059 | Energy: -10.141370 Hartree
O -0.457301 -1.621612 1.092402
H 0.148560 -0.927122 1.358302
H -1.330848 -1.229646 1.034360
O 0.012411 0.975101 -2.061984
H 0.932765 1.084811 -2.308966
H -0.002091 0.564663 -1.195141
6
Structure 1060 | Energy: -10.141370 Hartree
O 0.881854 -0.739286 0.562251
H 1.555540 -0.065315 0.452725
H 0.432177 -0.559514 1.390239
O -0.097955 1.505119 -0.294860
H -0.560312 1.031930 -0.989414
H 0.727386 1.821430 -0.667483
6
Structure 1061 | Energy: -10.141362 Hartree
O 0.030478 -0.263679 -2.178088
H 0.873960 0.151685 -1.988098
H -0.526376 0.399708 -2.590304
O -0.820825 0.245778 1.736980
H 0.126939 0.105145 1.691677
H -1.179973 -0.425227 2.320806
6
Structure 1062 | Energy: -10.141352 Hartree
O 1.203623 0.900904 1.055655
H 1.277178 0.918700 0.099434
H 0.268361 0.901717 1.268668
O -0.612302 -0.083899 -2.034681
H -0.352836 -0.045870 -1.112012
H -1.295426 -0.753010 -2.110307
6
Structure 1063 | Energy: -10.141346 Hartree
O 1.076073 -1.787147 0.686111
H 1.538104 -1.886503 1.520822
H 0.308249 -1.236162 0.850284
O -0.881308 0.227087 -1.449246
H -1.350439 0.677890 -0.744420
H -0.632938 -0.637895 -1.117272
6
Structure 1064 | Energy: -10.141343 Hartree
O -1.119227 -0.424324 -0.671202
H -0.196084 -0.269003 -0.461994
H -1.184818 -0.504217 -1.624830
O 0.891526 1.421761 1.187874
H 0.590619 1.468569 2.097462
H 1.088112 0.501758 1.000697
6
Structure 1065 | Energy: -10.141334 Hartree
O 1.495474 -1.508500 -0.009272
H 0.855234 -1.766596 -0.675280
H 1.254150 -0.630194 0.291450
O -0.369659 0.416941 2.258967
H -1.059175 -0.214641 2.045049
H -0.464259 1.156167 1.655076
6
Structure 1066 | Energy: -10.141334 Hartree
O 0.164675 -0.638073 0.450194
H -0.447112 0.090405 0.573173
H -0.356332 -1.442273 0.406536
O 0.912788 2.058732 -0.435403
H 0.483626 2.717587 0.113976
H 1.773712 1.884569 -0.049960
6
Structure 1067 | Energy: -10.141334 Hartree
O 0.785468 1.671607 1.180972
H 1.613708 1.507185 0.725924
H 0.756316 2.607659 1.388452
O 0.673653 -1.379465 -0.468173
H 0.031223 -1.627557 0.199525
H 1.119198 -2.182256 -0.745850
6
Structure 1068 | Energy: -10.141327 Hartree
O 0.171959 -2.024223 -0.098179
H -0.774130 -2.054836 -0.253308
H 0.319425 -2.290636 0.811419
O 0.728153 0.094814 1.373998
H 1.309351 -0.539538 0.949860
H 1.208849 0.469525 2.114680
6
Structure 1069 | Energy: -10.141323 Hartree
O -2.022614 0.405039 0.064750
H -2.685369 0.338269 -0.625456
H -1.549684 1.227910 -0.074215
O 0.410027 0.358761 1.609223
H 0.710204 1.029746 0.992976
H 0.158325 -0.409222 1.092564
6
Structure 1070 | Energy: -10.141320 Hartree
O 0.615177 -0.457224 -0.262692
H 0.467983 0.430969 -0.593650
H 1.521025 -0.497263 0.050242
O -1.675672 -0.319014 -1.403541
H -1.904908 -1.248634 -1.345713
H -1.658776 0.025593 -0.508528
6
Structure 1071 | Energy: -10.141320 Hartree
O 1.500073 -0.282933 -1.186760
H 0.698555 -0.231862 -1.711209
H 1.419212 0.361512 -0.480897
O -0.955633 1.853387 0.567809
H -1.834337 1.572468 0.830585
H -0.730452 1.372000 -0.230719
6
Structure 1072 | Energy: -10.141311 Hartree
O -1.162651 0.592348 1.465259
H -0.434277 1.120996 1.133465
H -1.537595 1.062554 2.212531
O 0.301538 -0.676881 -0.362049
H 0.074943 -0.243384 -1.187169
H -0.256348 -1.453518 -0.286648
6
Structure 1073 | Energy: -10.141308 Hartree
O -1.120690 -1.211775 0.703787
H -1.601980 -1.485904 -0.079347
H -0.186167 -1.251207 0.491177
O 0.996555 1.772506 -1.076880
H 1.495364 1.241839 -0.452645
H 1.588587 2.449092 -1.411272
6
Structure 1074 | Energy: -10.141306 Hartree
O -0.101402 2.221199 0.367603
H -1.023373 2.013753 0.531985
H -0.080776 3.004133 -0.186183
O 0.803717 -0.477169 -1.347113
H 0.934105 0.397607 -1.718400
H 1.657832 -0.913687 -1.341777
6
Structure 1075 | Energy: -10.141299 Hartree
O 0.904899 -0.963027 -0.740585
H 1.831295 -0.750091 -0.869170
H 0.410225 -0.146451 -0.833285
O -1.185717 0.213805 1.415612
H -1.608324 1.053689 1.605572
H -0.764873 -0.081969 2.225239
6
Structure 1076 | Energy: -10.141292 Hartree
O -0.910829 -0.896785 -2.015590
H -1.205239 -0.084509 -1.598917
H -0.715110 -1.521098 -1.314150
O 1.020684 1.223501 0.890012
H 1.882965 1.061610 0.502262
H 0.534840 0.397078 0.857327
6
Structure 1077 | Energy: -10.141288 Hartree
O 0.695607 0.145125 1.390831
H 0.889142 -0.788835 1.289098
H 0.204097 0.245957 2.208353
O -1.541975 -0.608710 -1.345449
H -2.305052 -0.954674 -1.812472
H -1.843085 0.136740 -0.822261
6
Structure 1078 | Energy: -10.141285 Hartree
O -1.921657 -0.070019 -0.668278
H -2.546322 -0.771438 -0.862935
H -2.031096 0.159197 0.256694
O 0.598269 1.154188 0.479822
H 1.470942 1.264834 0.097350
H 0.466123 0.214344 0.618816
6
Structure 1079 | Energy: -10.141280 Hartree
O -0.707969 1.581578 -0.292054
H -1.067738 2.438264 -0.053848
H -1.413243 0.939309 -0.191208
O 1.599138 -0.536358 1.442648
H 0.942952 0.082725 1.768597
H 2.440265 -0.290212 1.832527
6
Structure 1080 | Energy: -10.141277 Hartree
O -0.412734 -1.469817 -1.570221
H -0.623596 -0.550841 -1.746589
H -0.244165 -1.889929 -2.415905
O 0.435239 0.684125 1.358290
H 1.350784 0.445491 1.200431
H 0.303466 0.691864 2.308376
6
Structure 1081 | Energy: -10.141277 Hartree
O 2.034227 0.404280 -0.998579
H 2.770384 -0.205171 -1.080604
H 1.597378 0.438516 -1.851856
O -0.346290 0.261666 -0.338596
H 0.340993 0.499472 0.286845
H -1.188315 0.386713 0.103496
6
Structure 1082 | Energy: -10.141277 Hartree
O -0.016104 -1.386637 -0.216778
H 0.668614 -1.772301 -0.766788
H -0.438422 -0.696046 -0.731386
O -0.150430 0.887309 2.042652
H -0.497960 0.754075 1.158594
H -0.856413 0.683280 2.659132
6
Structure 1083 | Energy: -10.141273 Hartree
O 1.021035 -0.428506 1.569602
H 1.364984 -1.093597 0.970070
H 1.767835 -0.065547 2.049854
O -0.549801 0.041855 -1.471947
H -1.493043 -0.082361 -1.349666
H -0.422949 0.924730 -1.824833
6
Structure 1084 | Energy: -10.141273 Hartree
O 1.519067 -0.061450 1.549644
H 2.225170 -0.083574 0.900788
H 1.288890 -0.970809 1.750084
O 0.107231 0.909235 -1.557450
H 0.455671 1.718755 -1.936072
H -0.838902 0.906075 -1.715281
6
Structure 1085 | Energy: -10.141263 Hartree
O 0.905802 -1.371313 0.613227
H 0.954316 -2.063013 -0.049558
H 0.226001 -1.625893 1.240245
O -0.323996 1.116996 -1.734499
H -0.511309 0.443323 -1.077866
H -1.101669 1.195771 -2.290472
6
Structure 1086 | Energy: -10.141258 Hartree
O 1.278527 1.451447 -1.022191
H 1.140309 2.277339 -0.554340
H 1.968535 0.973829 -0.557584
O -1.417261 -1.355026 0.337901
H -1.887587 -0.569587 0.051605
H -2.075389 -1.992767 0.621169
6
Structure 1087 | Energy: -10.141257 Hartree
O -1.340235 0.107620 1.243893
H -1.914601 0.746494 0.817243
H -1.890707 -0.433417 1.813410
O 0.180059 -0.861125 -1.498215
H 0.472684 -0.124452 -2.038372
H 0.885920 -1.057406 -0.879085
6
Structure 1088 | Energy: -10.141256 Hartree
O -1.399824 -0.858077 -1.627786
H -1.956996 -1.237846 -0.945568
H -0.676364 -0.408899 -1.186270
O 0.704424 0.791263 1.568183
H 1.299586 0.623167 2.301404
H 0.663989 -0.011868 1.045274
6
Structure 1089 | Energy: -10.141254 Hartree
O 1.250403 -1.154069 -1.473343
H 1.874041 -1.697561 -0.987772
H 0.680614 -1.747365 -1.966731
O -1.428552 0.071535 0.335651
H -2.091482 0.208911 -0.343862
H -1.048430 0.928412 0.539018
6
Structure 1090 | Energy: -10.141244 Hartree
O -0.393311 1.371746 0.224231
H -0.645243 2.160752 0.708054
H 0.330573 0.963727 0.703400
O -0.643478 -1.580486 -1.174569
H -0.020970 -0.984402 -1.595586
H -1.078052 -2.075991 -1.871497
6
Structure 1091 | Energy: -10.141242 Hartree
O -0.646980 -0.270908 -1.075660
H 0.244729 -0.563616 -0.877510
H -0.772582 -0.363398 -2.022106
O 0.532430 2.000569 1.084819
H 0.148897 1.816305 1.944492
H 0.783846 1.158844 0.699622
6
Structure 1092 | Energy: -10.141241 Hartree
O -1.653279 0.155641 -1.116205
H -1.772229 -0.074106 -0.192542
H -0.855263 0.684391 -1.176902
O 1.205505 -1.226931 1.372967
H 1.582888 -0.503410 1.877136
H 0.378097 -1.466153 1.795172
6
Structure 1093 | Energy: -10.141235 Hartree
O 0.667822 0.902033 0.559140
H 1.584772 0.643321 0.447973
H 0.172768 0.108734 0.772890
O -1.479481 -1.760975 0.386431
H -2.412651 -1.685539 0.595215
H -0.991119 -1.492045 1.166986
6
Structure 1094 | Energy: -10.141234 Hartree
O 2.015639 0.749186 0.594185
H 2.118789 0.841967 -0.354939
H 2.317706 -0.130667 0.828075
O -0.281670 -1.606180 -0.627771
H -0.378004 -0.977920 -1.346169
H -0.320174 -2.484480 -1.011432
6
Structure 1095 | Energy: -10.141216 Hartree
O 2.032906 0.807072 -0.070954
H 2.262890 1.564622 -0.612536
H 1.280965 1.060858 0.467812
O -0.746846 -1.231462 0.122374
H -1.249703 -0.554374 0.579292
H -0.010520 -1.469510 0.689160
6
Structure 1096 | Energy: -10.141215 Hartree
O 0.149713 1.499493 -0.695348
H 0.708653 1.347735 -1.459966
H -0.072972 0.640445 -0.331289
O 0.842700 -2.107066 -0.660022
H 0.110606 -1.786490 -1.190455
H 0.636459 -1.911967 0.256214
6
Structure 1097 | Energy: -10.141207 Hartree
O 0.144084 0.038961 2.333440
H -0.303696 -0.174814 1.512538
H 0.751071 0.757923 2.147026
O 0.603957 -1.670430 -0.781197
H 0.083385 -1.799457 0.014067
H 0.020944 -1.296465 -1.444774
6
Structure 1098 | Energy: -10.141206 Hartree
O -1.953860 0.391629 -0.462890
H -1.493355 -0.216580 0.118576
H -1.305573 0.745128 -1.075142
O 0.963335 -0.641142 0.705304
H 0.500970 -1.036149 1.447110
H 0.485275 0.154595 0.463749
6
Structure 1099 | Energy: -10.141204 Hartree
O 0.985575 -1.354887 0.371619
H 1.601649 -2.028794 0.665536
H 0.103361 -1.662155 0.589279
O 0.233181 1.199543 0.848444
H -0.543344 0.664062 0.674215
H 0.857818 0.647986 1.323524
6
Structure 1100 | Energy: -10.141202 Hartree
O -0.592139 -1.516388 -1.232150
H -0.868413 -1.268321 -0.347717
H -0.975328 -0.879558 -1.838536
O 1.256222 0.342318 1.728165
H 0.838579 1.205431 1.754566
H 1.547315 0.140224 2.619518
6
Structure 1101 | Energy: -10.141201 Hartree
O -1.239303 -1.016937 0.590178
H -1.814514 -1.248551 1.322006
H -1.795388 -0.665799 -0.108078
O 0.354308 2.083317 0.137517
H 1.160497 1.635831 0.401907
H 0.601575 2.959907 -0.163377
6
Structure 1102 | Energy: -10.141199 Hartree
O -0.193064 -1.064898 -1.132357
H -0.478190 -1.976138 -1.224185
H -0.508890 -0.589389 -1.903223
O 0.237658 1.746374 0.990223
H 1.183966 1.671398 0.852503
H 0.038577 1.326446 1.829339
6
Structure 1103 | Energy: -10.141197 Hartree
O -0.133308 -0.544189 -2.064008
H -0.039066 -1.406621 -2.473174
H -0.097302 -0.674845 -1.114417
O 1.120095 1.324694 1.629390
H 0.870228 0.729009 2.338483
H 0.349904 1.438093 1.069003
6
Structure 1104 | Energy: -10.141197 Hartree
O -0.511656 0.906196 -0.186703
H -0.136806 0.025004 -0.131256
H -1.438275 0.836189 0.051136
O 1.483041 0.083699 -1.337894
H 1.831395 -0.356366 -2.115763
H 1.389604 1.013256 -1.555340
6
Structure 1105 | Energy: -10.141190 Hartree
O 1.574478 -0.851546 0.006478
H 2.228245 -1.354988 0.495580
H 0.830216 -0.706172 0.593872
O -1.751716 1.094397 -0.857476
H -1.141310 1.752020 -1.196627
H -1.936750 1.322717 0.055607
6
Structure 1106 | Energy: -10.141190 Hartree
O 0.921765 1.100039 1.637424
H 0.380650 1.102473 2.429431
H 1.798886 0.808251 1.893569
O -0.238233 -0.888043 -0.698815
H -0.131669 -0.604792 -1.609035
H 0.640669 -0.992478 -0.329070
6
Structure 1107 | Energy: -10.141184 Hartree
O 0.849151 -1.194924 -1.693625
H 0.566019 -1.108831 -2.606045
H 1.807500 -1.154521 -1.688578
O -1.003308 0.372630 0.806231
H -0.852227 -0.540584 1.057829
H -0.379572 0.909841 1.298619
6
Structure 1108 | Energy: -10.141174 Hartree
O -1.061749 -1.686686 0.231790
H -1.696905 -1.198169 -0.295481
H -1.041260 -2.583742 -0.107269
O 1.139831 1.056274 -0.756136
H 2.034833 0.831105 -0.494682
H 0.871215 1.811087 -0.228698
6
Structure 1109 | Energy: -10.141158 Hartree
O 0.810684 0.087658 -0.573815
H -0.000250 0.597070 -0.519296
H 1.211854 0.282310 -1.423087
O -0.981360 -1.367996 -1.501212
H -1.470999 -2.120558 -1.163585
H -0.073832 -1.652414 -1.626060
6
Structure 1110 | Energy: -10.141157 Hartree
O -1.963370 -0.678397 1.093020
H -2.132851 -0.217186 0.269219
H -1.178108 -1.213595 0.962576
O 0.089087 1.639878 -1.399721
H 0.130497 1.367626 -0.480889
H -0.837705 1.672452 -1.644841
6
Structure 1111 | Energy: -10.141148 Hartree
O 0.773287 -1.704131 1.209684
H 0.473475 -2.103848 2.028479
H 0.696494 -0.753578 1.312840
O -0.192778 1.711407 -0.870056
H -0.901946 1.779025 -1.512392
H -0.428807 2.269567 -0.126526
6
Structure 1112 | Energy: -10.141147 Hartree
O -1.872377 0.784132 0.397789
H -1.604489 0.306331 -0.389630
H -1.768568 0.187146 1.141376
O -0.122499 -1.476141 -0.625801
H -0.287687 -1.109890 0.245210
H -0.779836 -2.158269 -0.776459
6
Structure 1113 | Energy: -10.141146 Hartree
O -1.865960 0.745194 0.745605
H -1.454120 0.837497 1.606972
H -1.809248 -0.180674 0.501386
O 1.785288 -0.894420 -0.769698
H 1.926349 -1.083049 0.160145
H 2.639377 -0.947486 -1.203061
6
Structure 1114 | Energy: -10.141145 Hartree
O 0.127912 -0.778307 0.884646
H 1.067249 -0.747650 1.076457
H -0.015751 -1.513197 0.285157
O -0.543034 1.998271 -0.497311
H -0.883672 2.582459 0.182966
H -1.291407 1.525020 -0.866172
6
Structure 1115 | Energy: -10.141141 Hartree
O 1.419830 -0.194499 0.740476
H 1.732157 -0.978618 1.196212
H 1.988467 -0.062941 -0.020730
O -0.463098 1.994882 -0.793333
H -0.943168 1.204922 -0.537241
H -1.106872 2.622920 -1.126815
6
Structure 1116 | Energy: -10.141137 Hartree
O -1.300887 1.247162 0.408662
H -2.166909 1.175519 0.002511
H -0.696154 1.562925 -0.265640
O -0.146756 -0.326056 -1.972647
H 0.316744 0.369472 -2.443280
H -0.483703 -0.938028 -2.629949
6
Structure 1117 | Energy: -10.141134 Hartree
O -0.595063 2.128759 -0.091404
H -1.030742 1.915163 -0.918837
H -1.203918 2.665310 0.419967
O 0.947963 -0.519830 0.089423
H 1.664602 -0.696304 0.702101
H 1.295454 0.053484 -0.596616
6
Structure 1118 | Energy: -10.141134 Hartree
O 1.398871 -0.929452 -1.444598
H 1.231746 -1.584106 -2.125467
H 0.690101 -0.284747 -1.490333
O 0.027662 0.685558 1.356855
H 0.566862 1.332790 0.898115
H -0.390886 1.135354 2.093463
6
Structure 1119 | Energy: -10.141128 Hartree
O 0.794442 -1.793881 0.218916
H 1.678839 -1.739405 0.586286
H 0.280759 -1.083673 0.608565
O -2.149469 0.513556 -0.502209
H -1.206345 0.442583 -0.342308
H -2.546044 -0.318409 -0.236408
6
Structure 1120 | Energy: -10.141126 Hartree
O 0.874267 -0.847328 -1.912034
H 1.000865 0.014232 -2.314244
H 0.029882 -0.827255 -1.457390
O 0.235079 0.902528 0.640254
H 0.032047 1.350309 -0.183371
H 0.709804 1.526252 1.193149
6
Structure 1121 | Energy: -10.141121 Hartree
O -1.323157 1.660044 1.073634
H -0.541922 1.290276 0.657665
H -1.227473 1.534677 2.019794
O 0.961657 -0.925574 -1.627960
H 1.570082 -0.478176 -1.036571
H 0.580027 -0.257863 -2.201203
6
Structure 1122 | Energy: -10.141116 Hartree
O 0.139123 2.250877 -0.404224
H -0.506925 1.544044 -0.348584
H 0.495468 2.380012 0.476930
O 1.101128 -0.631076 1.449473
H 0.203506 -0.346478 1.266808
H 1.110125 -1.589175 1.404158
6
Structure 1123 | Energy: -10.141115 Hartree
O -2.110271 0.768412 -0.298453
H -1.216383 0.907958 -0.617166
H -2.197082 -0.165117 -0.095776
O 0.465317 -0.943440 1.646374
H 0.935018 -1.287800 0.884216
H -0.215268 -1.580508 1.872285
6
Structure 1124 | Energy: -10.141114 Hartree
O -1.400720 0.249247 -1.502265
H -0.749198 0.950209 -1.567517
H -1.399165 -0.056258 -0.593004
O 1.285205 0.952947 -0.298125
H 0.740203 1.665548 0.041376
H 0.881556 0.128829 -0.018869
6
Structure 1125 | Energy: -10.141112 Hartree
O -0.469625 1.404046 -0.447246
H -0.652853 1.126000 0.452312
H -1.236493 1.890567 -0.755955
O 1.306761 -0.140321 1.857447
H 1.157703 0.689179 2.315484
H 2.149894 -0.483971 2.159307
6
Structure 1126 | Energy: -10.141112 Hartree
O -1.167282 1.804471 -0.442855
H -1.917821 1.209148 -0.491519
H -1.456182 2.587763 0.029458
O 0.760223 -0.844327 1.121976
H 1.174700 -1.526790 1.653521
H 1.411757 -0.153038 0.988896
6
Structure 1127 | Energy: -10.141109 Hartree
O 0.164425 -1.379397 0.276917
H 0.152288 -0.793234 -0.482262
H 0.590252 -2.193283 0.000601
O 0.067623 1.439069 -1.815384
H -0.189778 0.709073 -2.381898
H 0.985307 1.639534 -2.009696
6
Structure 1128 | Energy: -10.141104 Hartree
O 0.890208 -1.465282 1.638684
H 1.427532 -0.754976 1.994822
H 0.158326 -1.059969 1.169471
O -0.208767 0.846631 -1.320430
H 0.068753 0.038658 -0.884254
H -1.165419 0.820247 -1.385306
6
Structure 1129 | Energy: -10.141102 Hartree
O 1.515656 0.452216 1.154241
H 2.325144 0.871273 0.855566
H 0.840849 1.132847 1.192546
O -0.815492 -0.822624 -1.171566
H -0.788885 -0.036417 -0.622697
H -1.413878 -1.442890 -0.750504
6
Structure 1130 | Energy: -10.141095 Hartree
O -0.704136 -0.598506 -1.456584
H 0.068811 -0.467591 -2.009305
H -0.398005 -0.657214 -0.549430
O 0.417437 0.690467 1.994161
H -0.436889 0.387540 2.307927
H 0.368738 0.736148 1.037276
6
Structure 1131 | Energy: -10.141092 Hartree
O -0.173714 -0.813653 -1.464893
H 0.434630 -0.564533 -2.163422
H 0.353869 -1.046116 -0.698272
O -0.173895 1.846180 1.068472
H 0.543820 2.415611 0.784359
H -0.887337 2.414760 1.364793
6
Structure 1132 | Energy: -10.141090 Hartree
O 0.850051 -0.909565 -0.048067
H 0.647826 -0.536306 0.812089
H 1.796516 -0.825015 -0.179004
O -1.248301 0.850158 0.382792
H -1.795669 0.490406 1.083544
H -1.828141 1.056872 -0.352833
6
Structure 1133 | Energy: -10.141071 Hartree
O -0.079365 0.827452 -1.874613
H -0.157509 0.224519 -1.132689
H 0.659101 0.527183 -2.408091
O -0.594670 -1.474547 0.367519
H 0.076975 -0.867642 0.684766
H -0.212432 -1.964575 -0.363135
6
Structure 1134 | Energy: -10.141070 Hartree
O 0.654443 -1.262953 -1.632623
H 0.304155 -1.896878 -2.261529
H 1.585204 -1.463302 -1.515854
O 0.050076 0.115452 1.158692
H 0.077041 -0.779240 0.813893
H 0.171611 0.057648 2.108416
6
Structure 1135 | Energy: -10.141065 Hartree
O -1.144350 0.462219 -1.727622
H -1.346573 0.436841 -0.790313
H -0.269039 0.843725 -1.819135
O 0.306341 -1.265260 0.339793
H 1.189758 -1.507323 0.055069
H 0.398482 -0.558702 0.981956
6
Structure 1136 | Energy: -10.141060 Hartree
O 1.105403 -0.947892 -0.733289
H 0.767833 -1.035722 -1.626832
H 1.939534 -1.420125 -0.697069
O -1.888767 0.043564 0.437598
H -1.268404 0.598071 -0.039643
H -2.525100 -0.285082 -0.200493
6
Structure 1137 | Energy: -10.141054 Hartree
O -1.168690 -0.001404 0.736057
H -1.179418 0.759690 0.152356
H -1.151794 -0.784160 0.181894
O 1.405707 0.639446 -1.084038
H 2.109610 1.254834 -1.298296
H 0.914987 0.476685 -1.891993
6
Structure 1138 | Energy: -10.141053 Hartree
O -0.424560 0.942994 1.584694
H -1.346838 1.199928 1.643624
H -0.262830 0.303383 2.280993
O -0.077434 -0.535492 -0.888936
H 0.837422 -0.763502 -1.065394
H -0.260851 -0.780060 0.020258
6
Structure 1139 | Energy: -10.141049 Hartree
O 0.090918 -0.677623 1.436817
H -0.111475 0.252893 1.321656
H -0.704149 -1.169823 1.223046
O 1.393921 -1.049114 -1.366226
H 1.376679 -1.281192 -2.296780
H 0.984397 -1.771266 -0.885731
6
Structure 1140 | Energy: -10.141048 Hartree
O -0.276840 -0.643643 -2.158420
H -0.390762 -0.142706 -1.348377
H 0.538161 -1.142027 -2.071956
O 0.213929 0.257346 1.451285
H -0.713433 0.501156 1.425927
H 0.632889 0.653636 0.684790
6
Structure 1141 | Energy: -10.141037 Hartree
O 0.090534 1.166225 1.546164
H -0.099854 1.237260 0.608724
H 1.028342 0.984169 1.632554
O 1.257036 -0.447281 -1.304529
H 1.664442 -1.112346 -0.746143
H 1.540168 0.409348 -0.978782
6
Structure 1142 | Energy: -10.141025 Hartree
O 0.222125 1.392926 0.545645
H 0.888229 0.748744 0.793481
H -0.634003 0.979054 0.671521
O -0.697831 -0.256557 -2.172695
H -0.487318 -1.181701 -2.031697
H -0.559506 -0.072480 -3.103860
6
Structure 1143 | Energy: -10.141023 Hartree
O 0.809094 1.614282 -0.175315
H 0.508278 1.790082 -1.069010
H 0.195710 0.987122 0.212655
O 0.021152 -1.783549 0.716841
H -0.319443 -1.124366 0.108927
H 0.926422 -1.540869 0.921000
6
Structure 1144 | Energy: -10.141021 Hartree
O 0.222094 0.829261 1.641566
H 0.164412 -0.128103 1.656209
H -0.040265 1.116256 0.764701
O -1.078564 -1.191353 -1.036359
H -2.007868 -0.953937 -1.047103
H -0.579959 -0.381643 -0.910458
6
Structure 1145 | Energy: -10.141014 Hartree
O -0.585124 1.366843 1.211482
H -0.480323 1.626142 2.129015
H -1.188552 0.621415 1.194112
O 0.165585 -0.529937 -2.231575
H 0.722903 -0.152710 -2.915083
H 0.733077 -1.044268 -1.654077
6
Structure 1146 | Energy: -10.141011 Hartree
O 0.265235 -1.713904 1.355964
H -0.109622 -2.589439 1.241913
H 0.418890 -1.354391 0.480046
O -0.690944 0.252968 -1.371541
H 0.250091 0.216142 -1.553706
H -1.122155 -0.348486 -1.981784
6
Structure 1147 | Energy: -10.141002 Hartree
O -1.101096 -1.431229 -0.094220
H -1.824541 -0.912009 -0.450764
H -1.390947 -1.779200 0.751353
O 0.871508 2.091267 0.073831
H 1.252747 2.029148 -0.804170
H 1.491137 2.580532 0.618595
6
Structure 1148 | Energy: -10.141001 Hartree
O -1.623263 1.677261 -0.149795
H -1.031559 1.037185 -0.550139
H -1.157003 2.514979 -0.119446
O 1.824293 -0.654702 0.038820
H 2.499655 -0.069775 0.387867
H 1.715328 -0.440562 -0.889813
6
Structure 1149 | Energy: -10.141001 Hartree
O 0.860278 1.575883 0.254010
H 1.386667 1.457209 1.047053
H 1.051428 0.836986 -0.327009
O -1.220515 -1.910954 -0.069260
H -0.420785 -2.399199 0.136009
H -1.942647 -2.341632 0.392400
6
Structure 1150 | Energy: -10.141001 Hartree
O 1.422180 -0.602082 -1.262863
H 1.135921 0.189221 -0.802449
H 2.345762 -0.479529 -1.491045
O -0.779309 0.675974 0.048238
H -1.357591 0.414001 0.767298
H -0.579053 1.606208 0.169272
6
Structure 1151 | Energy: -10.140998 Hartree
O 0.429292 0.570233 0.680358
H -0.431365 0.278977 0.987807
H 0.659326 1.355059 1.181581
O -0.460594 -0.992007 -1.966072
H 0.483526 -0.955465 -2.131570
H -0.753261 -1.878833 -2.185098
6
Structure 1152 | Energy: -10.140993 Hartree
O 0.219964 -1.044270 1.967288
H -0.475433 -1.531218 1.520757
H 0.971234 -1.634705 2.051373
O -0.657965 1.736155 -0.102317
H -0.841478 1.951871 -1.018765
H 0.113652 1.166400 -0.093628
6
Structure 1153 | Energy: -10.140991 Hartree
O 1.309630 -0.351299 0.970614
H 0.590845 -0.397319 0.337119
H 0.987900 -0.725879 1.792971
O -1.924281 1.019527 -0.913570
H -1.570037 1.901296 -1.044273
H -1.447619 0.627904 -0.179054
6
Structure 1154 | Energy: -10.140990 Hartree
O 0.397500 0.312289 0.918898
H 0.593464 -0.033968 1.791704
H 1.225243 0.616530 0.541577
O 0.076577 1.256194 -1.894912
H 0.350240 1.552872 -1.024752
H -0.502393 1.930444 -2.255838
6
Structure 1155 | Energy: -10.140988 Hartree
O -0.864169 -0.938794 -1.417471
H -1.221054 -1.827430 -1.362288
H -1.086348 -0.596870 -2.285696
O 0.441067 1.251219 1.119374
H 0.783396 0.440544 1.501086
H 1.075249 1.546001 0.462864
6
Structure 1156 | Energy: -10.140987 Hartree
O 1.506916 -1.433770 -0.682204
H 2.153177 -0.727982 -0.747755
H 1.636815 -1.859859 0.167305
O -1.310779 0.179969 0.211395
H -2.074508 -0.203550 0.646963
H -1.588042 0.443551 -0.668229
6
Structure 1157 | Energy: -10.140985 Hartree
O 1.445235 -0.497119 0.668501
H 0.628285 -0.630941 0.183970
H 1.645546 -1.319290 1.120166
O 0.367735 1.607707 -0.893447
H 0.386254 2.264512 -0.194626
H 0.179097 2.069747 -1.712607
6
Structure 1158 | Energy: -10.140979 Hartree
O 0.697387 -0.373952 -1.694867
H 0.200896 -0.180122 -0.897363
H 0.565708 0.360937 -2.297104
O -1.089128 1.903407 0.849570
H -0.384599 1.303316 0.597346
H -1.387349 1.640434 1.722495
6
Structure 1159 | Energy: -10.140979 Hartree
O -0.466147 0.062487 -0.587603
H -0.773774 -0.372999 -1.384976
H 0.167734 0.730739 -0.855417
O -0.658716 0.959287 1.963289
H -0.005190 0.287508 1.759075
H -1.277006 0.573753 2.587123
6
Structure 1160 | Energy: -10.140977 Hartree
O -1.046431 -1.045512 1.178017
H -0.905347 -1.647407 0.444597
H -0.182216 -0.765815 1.486224
O -0.616837 1.722625 -0.586870
H 0.007688 1.994054 0.088692
H -1.173652 2.479538 -0.779558
6
Structure 1161 | Energy: -10.140968 Hartree
O 0.972019 0.358169 1.448528
H 0.625627 0.833169 0.690589
H 0.745228 -0.566552 1.332135
O -2.052176 -0.213843 -1.078706
H -2.114058 -0.130115 -0.125162
H -1.440954 0.459468 -1.383907
6
Structure 1162 | Energy: -10.140958 Hartree
O 0.346636 -0.997515 -0.517745
H 0.035890 -0.549545 0.271461
H 1.277643 -0.788192 -0.615222
O 0.791824 1.992888 -0.257134
H 0.743144 2.941916 -0.126500
H 1.461515 1.657635 0.342206
6
Structure 1163 | Energy: -10.140957 Hartree
O 0.194329 1.630476 1.687361
H -0.465385 1.177332 2.216062
H 0.677007 0.960137 1.199757
O 0.000095 -1.625973 -0.512109
H 0.494658 -2.408550 -0.763241
H 0.099442 -1.519256 0.435958
6
Structure 1164 | Energy: -10.140946 Hartree
O -1.683442 -0.007450 0.239288
H -1.149389 -0.516344 0.852396
H -2.202445 -0.631923 -0.271358
O 1.704775 0.234830 -1.510093
H 2.086291 -0.176570 -0.732094
H 0.858980 -0.188628 -1.669473
6
Structure 1165 | Energy: -10.140942 Hartree
O -0.726424 1.716918 -1.234231
H 0.122010 1.858490 -0.809727
H -1.330488 2.377217 -0.888974
O 0.744570 -0.545434 1.084297
H 1.181520 -0.141523 1.836639
H 0.757604 -1.494329 1.223999
6
Structure 1166 | Energy: -10.140941 Hartree
O -0.188256 -2.062277 -0.676069
H -0.226721 -2.940516 -0.292270
H -0.939407 -1.571157 -0.337448
O 0.027293 1.281751 0.531358
H 0.706629 1.519231 1.165545
H -0.220552 0.372074 0.707850
6
Structure 1167 | Energy: -10.140940 Hartree
O 0.823733 1.906469 0.902210
H 0.181620 1.219207 0.713934
H 0.400654 2.747961 0.720586
O -1.400873 -0.250689 -1.142119
H -0.813968 -1.003221 -1.045547
H -1.598836 0.070178 -0.260108
6
Structure 1168 | Energy: -10.140932 Hartree
O 0.736481 -1.412387 -0.733418
H 0.017883 -1.457705 -0.099660
H 1.548891 -1.588349 -0.254754
O -1.362294 1.365223 1.025622
H -0.786454 1.660494 1.733656
H -0.922288 0.633836 0.587951
6
Structure 1169 | Energy: -10.140931 Hartree
O 0.854745 -0.100427 -0.843528
H 0.052423 0.425082 -0.857846
H 1.464929 0.329114 -0.240816
O -1.012513 -1.443311 0.972528
H -0.129700 -1.785649 1.125934
H -1.190795 -0.798934 1.660337
6
Structure 1170 | Energy: -10.140928 Hartree
O -0.789111 0.435699 1.484057
H -0.678505 -0.223201 2.172318
H -0.011435 0.996983 1.500547
O 0.335805 -1.367225 -1.377017
H 0.646561 -1.714272 -2.215514
H -0.357086 -1.953266 -1.066301
6
Structure 1171 | Energy: -10.140927 Hartree
O -0.035543 0.700013 1.104192
H 0.286579 1.240134 1.828480
H -0.599454 1.256715 0.563656
O 1.229289 -1.609567 -0.722981
H 1.700449 -1.865869 0.072258
H 0.432263 -2.141623 -0.764869
6
Structure 1172 | Energy: -10.140926 Hartree
O -0.239430 -1.260954 -1.366452
H 0.111215 -0.385637 -1.542390
H 0.328978 -1.890087 -1.815000
O 0.454259 1.024491 0.025957
H 1.158667 1.673323 -0.028022
H -0.365656 1.477527 -0.180406
6
Structure 1173 | Energy: -10.140921 Hartree
O 1.222961 0.628903 1.714925
H 0.611447 1.338196 1.922388
H 2.042750 0.816616 2.176229
O -1.265494 -0.367681 -0.986603
H -0.507900 0.215594 -1.063603
H -1.847640 -0.176105 -1.724500
6
Structure 1174 | Energy: -10.140921 Hartree
O -0.591414 1.121228 -0.773660
H -0.614027 1.816287 -0.113002
H -1.500321 0.882716 -0.966253
O 1.388020 -0.857704 1.569641
H 1.419184 -1.320055 2.409491
H 0.547509 -1.070420 1.159299
6
Structure 1175 | Energy: -10.140920 Hartree
O -1.548984 -1.146814 0.985560
H -2.223709 -1.457867 1.592255
H -1.878492 -0.340797 0.583252
O 0.069345 0.244547 -1.576996
H 0.580237 -0.029023 -2.341350
H 0.559718 0.945947 -1.143799
6
Structure 1176 | Energy: -10.140915 Hartree
O 1.060465 2.017883 0.362977
H 1.355697 2.077203 1.273694
H 0.164428 1.675794 0.376555
O 0.213070 -0.452875 -1.018946
H 0.415582 -1.302526 -1.415391
H -0.476886 -0.049241 -1.549162
6
Structure 1177 | Energy: -10.140914 Hartree
O 0.806798 0.796809 -0.730003
H 0.686646 0.467581 0.162891
H -0.013709 0.642756 -1.202365
O -1.273053 -0.704710 1.761726
H -1.430311 -1.302354 1.028119
H -1.191391 0.178367 1.396221
6
Structure 1178 | Energy: -10.140908 Hartree
O -0.144974 -1.086104 -1.927615
H -0.372232 -0.866432 -2.833255
H 0.741655 -1.451989 -1.937997
O 0.972291 0.465766 1.137418
H 0.957593 1.320385 0.702104
H 1.425961 -0.143564 0.551766
6
Structure 1179 | Energy: -10.140902 Hartree
O -0.590517 -0.217519 1.666341
H -0.405498 -0.460795 2.575555
H -0.815129 0.715016 1.661893
O -0.071280 1.336568 -1.614324
H -0.669376 0.655004 -1.927115
H -0.595908 2.123656 -1.455121
6
Structure 1180 | Energy: -10.140901 Hartree
O -1.582888 -0.467304 1.367702
H -1.892995 -0.671008 2.252249
H -2.353160 -0.435534 0.796946
O 0.714310 0.480283 -0.138471
H 0.339921 0.891457 0.643101
H 1.642319 0.720998 -0.169192
6
Structure 1181 | Energy: -10.140898 Hartree
O 1.636565 -0.147556 1.651519
H 0.734438 0.048510 1.391115
H 1.812938 -1.056851 1.402188
O 0.547178 0.760150 -1.219753
H -0.044110 0.078674 -0.894089
H 0.773202 1.320042 -0.474419
6
Structure 1182 | Energy: -10.140891 Hartree
O 1.967319 0.869752 0.225944
H 1.817230 1.547096 0.888336
H 1.872385 0.020452 0.661568
O -0.950639 -0.622062 -0.349640
H -0.932816 -1.179858 0.430509
H -0.384816 -1.033416 -1.005933
6
Structure 1183 | Energy: -10.140890 Hartree
O -0.893248 0.636892 -0.383015
H -0.942705 0.544117 -1.336447
H -0.382777 1.428271 -0.200726
O 1.169127 -0.350453 1.171129
H 1.326748 0.513622 0.785619
H 0.307433 -0.321051 1.591494
6
Structure 1184 | Energy: -10.140889 Hartree
O 1.571531 -1.700892 0.075295
H 1.782890 -1.700785 -0.860341
H 0.648687 -1.452700 0.158063
O -1.814524 0.141923 -0.223398
H -0.929468 -0.033703 -0.548849
H -2.082886 0.992965 -0.575247
6
Structure 1185 | Energy: -10.140879 Hartree
O -1.127085 -0.888277 -0.449670
H -1.158320 0.052082 -0.636311
H -1.143211 -1.345853 -1.292554
O 1.484813 0.631233 0.965661
H 1.979511 0.079381 1.574612
H 1.354178 1.479818 1.393359
6
Structure 1186 | Energy: -10.140873 Hartree
O 0.719917 0.944305 1.551616
H 1.273768 1.402697 0.916626
H 1.209389 0.176561 1.853404
O -0.064624 -0.503452 -1.706611
H -0.852991 -0.998716 -1.937433
H 0.587171 -0.672446 -2.389760
6
Structure 1187 | Energy: -10.140867 Hartree
O -0.330922 2.204059 -0.713135
H -0.338730 2.210325 -1.672294
H -1.072720 1.667696 -0.426533
O -0.986528 -1.361507 0.145422
H -1.824228 -1.766080 -0.088386
H -0.639689 -0.947940 -0.647518
6
Structure 1188 | Energy: -10.140866 Hartree
O 1.297571 -1.276519 -0.683178
H 1.245363 -2.191059 -0.398611
H 0.804954 -1.205620 -1.503173
O -1.156497 0.287633 1.393718
H -0.642300 -0.235089 2.012144
H -1.533058 -0.319162 0.753335
6
Structure 1189 | Energy: -10.140862 Hartree
O 0.197996 2.209348 0.777977
H -0.686556 2.225213 1.148653
H 0.766473 1.776597 1.418017
O -1.193734 -0.365057 -0.288404
H -1.400116 -0.846386 0.515223
H -0.269703 -0.527942 -0.487711
6
Structure 1190 | Energy: -10.140859 Hartree
O 1.520334 0.002398 1.077366
H 1.776752 -0.369290 1.923642
H 0.572399 0.146278 1.105822
O -0.876455 1.497436 -1.639683
H -1.625846 1.586262 -1.047559
H -0.497723 0.628923 -1.490230
6
Structure 1191 | Energy: -10.140858 Hartree
O 1.104600 -0.241512 -0.082990
H 0.434739 0.161388 0.472927
H 1.931953 0.209167 0.097194
O -0.176355 2.172487 -0.639161
H -0.436863 3.031490 -0.301024
H 0.769275 2.204150 -0.796863
6
Structure 1192 | Energy: -10.140858 Hartree
O 1.136258 0.419159 -0.646331
H 0.722755 -0.250891 -0.098486
H 2.058902 0.467262 -0.388446
O -1.756608 -0.567577 1.320287
H -2.577036 -1.039954 1.165863
H -1.144801 -1.185653 1.724962
6
Structure 1193 | Energy: -10.140857 Hartree
O -1.218754 1.181248 -0.141146
H -0.657547 1.691902 0.445680
H -0.745708 0.374990 -0.356241
O 1.515318 -0.691161 1.433218
H 0.948275 -1.189655 0.841567
H 2.017194 -0.076232 0.894636
6
Structure 1194 | Energy: -10.140851 Hartree
O 1.291993 -1.420377 0.075258
H 1.901329 -1.646447 -0.630212
H 0.422595 -1.327489 -0.319215
O -1.385056 1.152410 -0.237839
H -2.092153 0.735042 0.258050
H -1.643302 1.145196 -1.161606
6
Structure 1195 | Energy: -10.140850 Hartree
O 1.094970 1.132086 -0.427446
H 0.968123 0.336401 -0.947911
H 0.243762 1.569983 -0.365944
O -2.184406 -0.633163 0.293212
H -1.700606 0.148513 0.019337
H -2.577902 -0.439313 1.146248
6
Structure 1196 | Energy: -10.140840 Hartree
O -0.172602 -1.349578 -1.561025
H -0.309818 -2.193946 -1.127089
H 0.623531 -1.428246 -2.090246
O 0.014386 1.421858 0.142821
H 0.755161 1.978200 0.391463
H -0.055406 1.452372 -0.813362
6
Structure 1197 | Energy: -10.140836 Hartree
O -0.341717 1.842878 0.641539
H -0.829801 1.050275 0.409934
H -0.478188 2.477132 -0.064993
O 2.164395 -0.756814 -0.099159
H 2.744536 -1.193368 0.527693
H 1.270598 -1.049327 0.089657
6
Structure 1198 | Energy: -10.140835 Hartree
O -1.236076 -0.317543 -1.781221
H -0.615052 0.382056 -1.569147
H -0.838487 -1.144596 -1.501941
O 0.616462 0.973724 1.689094
H -0.246075 0.965251 1.269515
H 1.269647 1.073114 0.993710
6
Structure 1199 | Energy: -10.140833 Hartree
O 1.150695 -0.355474 1.671719
H 1.641136 -0.736965 0.940954
H 0.438928 0.165554 1.294879
O -1.511385 -0.385037 0.866937
H -1.370764 0.168869 0.096546
H -2.459317 -0.470858 0.985882
6
Structure 1200 | Energy: -10.140832 Hartree
O 0.186413 -1.752478 -0.308181
H 0.028840 -2.108613 0.568417
H -0.543471 -2.032548 -0.863987
O 0.498062 1.264364 1.330862
H 0.171407 1.576590 2.176970
H 0.822885 0.371648 1.463663
6
Structure 1201 | Energy: -10.140830 Hartree
O -0.185814 1.006470 0.967930
H 0.638914 1.046370 1.456108
H -0.648828 1.831803 1.124563
O 0.818337 -1.195865 -1.212266
H 0.603977 -0.508581 -1.846126
H 1.498809 -0.846360 -0.633568
6
Structure 1202 | Energy: -10.140828 Hartree
O -0.286277 0.475309 1.121708
H 0.014156 0.962888 0.352232
H -0.856035 1.060815 1.624351
O 0.486264 -0.254312 -2.151905
H 0.778676 -0.515800 -3.027238
H -0.329066 0.239194 -2.260421
6
Structure 1203 | Energy: -10.140820 Hartree
O 0.615873 1.874177 1.123584
H 0.108183 1.511004 0.395268
H 1.484510 1.468322 1.094562
O 0.061849 -1.137680 0.011749
H 0.829663 -0.586977 -0.153405
H 0.061854 -1.831187 -0.650924
6
Structure 1204 | Energy: -10.140818 Hartree
O -0.957175 0.825584 0.023491
H -1.184835 1.511000 0.654730
H -0.019969 0.910488 -0.162326
O 0.942039 -1.616088 -1.437843
H 1.673180 -1.576603 -0.818197
H 0.503238 -0.763457 -1.414139
6
Structure 1205 | Energy: -10.140817 Hartree
O -2.228069 0.480552 0.028731
H -1.353130 0.699633 0.355184
H -2.125280 0.170030 -0.872990
O -0.081598 -1.887547 1.005871
H -0.550692 -1.834233 1.840853
H 0.033958 -0.990235 0.687177
6
Structure 1206 | Energy: -10.140816 Hartree
O 0.768581 -1.239639 -1.305070
H 0.803747 -0.596783 -2.016116
H 0.452595 -0.781845 -0.523617
O 0.884207 0.228921 2.031098
H 0.463073 1.044478 1.752532
H 1.391317 -0.098010 1.285415
6
Structure 1207 | Energy: -10.140809 Hartree
O -0.246579 1.558622 -1.194689
H 0.105499 1.537929 -2.086709
H -1.172808 1.799188 -1.260402
O -0.702472 -0.602398 1.244943
H -0.627901 -0.785996 0.306424
H -1.634813 -0.486964 1.438601
6
Structure 1208 | Energy: -10.140798 Hartree
O -1.311752 -0.844153 -0.802502
H -1.397272 -0.283404 -1.576022
H -1.955812 -0.541225 -0.159452
O 0.024377 2.202467 0.096440
H 0.688861 2.704752 0.572106
H -0.755934 2.756223 0.028934
6
Structure 1209 | Energy: -10.140791 Hartree
O -0.861360 -0.076331 1.875523
H -0.231636 -0.790374 1.992464
H -1.698628 -0.473663 1.628137
O 1.230119 0.193760 -1.244791
H 0.695291 -0.238095 -0.575802
H 1.938039 -0.410671 -1.476307
6
Structure 1210 | Energy: -10.140787 Hartree
O 0.495953 -0.340288 2.232187
H 1.047057 0.110375 2.875050
H 0.392920 0.249807 1.483012
O 0.900918 0.162022 -1.661781
H 1.093796 0.818454 -0.989485
H 0.337711 -0.501158 -1.257953
6
Structure 1211 | Energy: -10.140784 Hartree
O 0.083108 -0.134892 -2.274967
H 0.764081 0.523713 -2.425307
H -0.240385 -0.009962 -1.380632
O -0.970243 1.154661 1.540258
H -0.960175 1.660607 0.725393
H -1.386975 0.312666 1.346693
6
Structure 1212 | Energy: -10.140780 Hartree
O 1.551544 0.185237 -1.694224
H 1.607472 -0.368918 -0.913282
H 2.036154 -0.258753 -2.392878
O -0.355457 -1.136974 1.058412
H -0.534154 -1.805784 1.722375
H -0.194147 -1.594287 0.230805
6
Structure 1213 | Energy: -10.140778 Hartree
O -0.420934 1.304070 1.867578
H -0.806530 0.897418 1.089095
H 0.402209 1.714523 1.595450
O 1.552273 -0.323126 -1.139963
H 1.048108 0.441502 -1.425005
H 0.975197 -0.854018 -0.587492
6
Structure 1214 | Energy: -10.140770 Hartree
O -0.278950 -0.853744 -0.108789
H 0.372295 -0.169707 -0.276294
H -0.659081 -1.097397 -0.955089
O -1.417679 0.952318 1.100025
H -1.133587 0.150257 1.542831
H -2.375487 0.927589 1.054408
6
Structure 1215 | Energy: -10.140767 Hartree
O -1.842202 -0.771220 -0.878322
H -2.520296 -0.537592 -1.515262
H -1.628961 -1.696119 -1.016818
O 0.213602 0.389547 0.447543
H 0.171524 1.087825 1.103838
H -0.204126 0.722838 -0.349017
6
Structure 1216 | Energy: -10.140761 Hartree
O -1.280919 -0.200697 -1.352707
H -0.634514 -0.400259 -2.032723
H -0.895272 0.466147 -0.781143
O 1.599588 0.449724 1.103545
H 1.097993 -0.359386 1.221147
H 1.419881 0.769038 0.217073
6
Structure 1217 | Energy: -10.140760 Hartree
O -1.999388 -0.018819 -0.752148
H -2.454524 0.521761 -0.103526
H -2.221885 -0.933173 -0.566293
O 1.077743 1.253652 0.511665
H 1.777376 1.624110 1.053292
H 1.497231 0.779768 -0.209135
6
Structure 1218 | Energy: -10.140757 Hartree
O -1.777545 1.101342 0.394226
H -2.357438 1.363958 -0.323299
H -1.157667 1.819525 0.535837
O 0.662273 0.093686 1.711698
H 1.597867 -0.108764 1.773045
H 0.439209 0.126174 0.779349
6
Structure 1219 | Energy: -10.140751 Hartree
O 1.798327 0.285777 -0.150681
H 1.195220 -0.172128 -0.739469
H 2.281313 -0.383607 0.337929
O -1.221526 -0.405569 1.501230
H -1.603861 -1.279819 1.403283
H -0.329756 -0.521304 1.835055
6
Structure 1220 | Energy: -10.140743 Hartree
O 0.207308 0.060720 1.941707
H 0.888423 -0.471585 1.525992
H 0.037974 -0.319137 2.806071
O 0.830892 -0.114180 -0.446460
H 0.701872 0.637924 -1.027649
H -0.020254 -0.544971 -0.346172
6
Structure 1221 | Energy: -10.140743 Hartree
O -1.030638 -0.515270 0.963028
H -1.573377 -0.396951 1.745026
H -1.112571 -1.433094 0.696612
O -0.406168 2.043896 -0.631476
H -0.076039 2.937953 -0.739935
H 0.313268 1.516215 -0.279265
6
Structure 1222 | Energy: -10.140741 Hartree
O -0.697364 0.129826 2.153782
H -0.287019 0.911203 2.529486
H -1.116208 -0.345285 2.874150
O 0.310722 -1.315883 -0.670019
H 0.342292 -1.678844 0.217309
H 0.060989 -2.029641 -1.260164
6
Structure 1223 | Energy: -10.140739 Hartree
O -0.273774 2.137911 -0.444415
H 0.421931 1.782788 0.112333
H -1.019290 2.337610 0.125161
O -1.427423 -0.706567 0.635676
H -0.548881 -0.548687 0.986853
H -1.653344 -1.617355 0.834453
6
Structure 1224 | Energy: -10.140734 Hartree
O -0.584849 -1.384229 -1.567045
H -0.921005 -2.176473 -1.990641
H -1.289261 -0.733333 -1.582180
O 0.070809 1.280667 0.797646
H 0.033204 1.708272 -0.060158
H 0.830151 1.639628 1.260933
6
Structure 1225 | Energy: -10.140704 Hartree
O -1.108107 -1.434555 0.322512
H -0.421680 -0.777824 0.455211
H -1.928643 -1.057055 0.645474
O 0.527330 1.074333 -1.990252
H 0.071191 1.104440 -1.146974
H 1.046407 0.267820 -2.003791
6
Structure 1226 | Energy: -10.140703 Hartree
O -0.400026 0.770191 1.347948
H 0.470527 0.369528 1.306806
H -0.282487 1.716382 1.243080
O -0.246125 -1.372925 -1.784882
H -0.703544 -2.180195 -1.541634
H 0.420721 -1.608512 -2.432881
6
Structure 1227 | Energy: -10.140702 Hartree
O 0.122545 -0.559484 -1.861676
H -0.019134 0.373898 -1.691937
H -0.228786 -1.041352 -1.110369
O -1.709548 0.229216 1.497455
H -0.957329 0.016102 0.941724
H -1.687253 -0.368669 2.247205
6
Structure 1228 | Energy: -10.140698 Hartree
O 0.735224 -1.168400 -1.126236
H 1.410499 -0.613070 -0.731650
H 0.385687 -1.728456 -0.430354
O -0.799090 0.481413 1.759852
H 0.047048 0.213737 2.123840
H -1.480990 0.058473 2.285421
6
Structure 1229 | Energy: -10.140695 Hartree
O 1.368789 -0.646117 -1.330016
H 0.500203 -1.001975 -1.527528
H 1.912549 -1.375891 -1.026954
O -0.484895 1.223375 0.679439
H -0.372049 2.119946 1.001174
H -1.013832 1.272651 -0.119238
6
Structure 1230 | Energy: -10.140694 Hartree
O 0.399112 1.490333 -0.548476
H 0.063836 1.310753 -1.429059
H 0.155747 2.392147 -0.330311
O 0.356378 -0.709404 2.107987
H -0.287985 -0.607789 1.404739
H 0.318258 -1.622807 2.398381
6
Structure 1231 | Energy: -10.140685 Hartree
O -2.073968 0.005255 -1.005087
H -1.778012 0.324274 -1.859911
H -1.553134 0.456280 -0.337704
O 0.960568 0.461944 -1.131942
H 1.723992 0.306903 -1.691615
H 0.244741 0.750566 -1.701483
6
Structure 1232 | Energy: -10.140684 Hartree
O -1.614611 -1.389299 -0.757533
H -2.280347 -0.878051 -1.221760
H -1.889315 -2.307824 -0.788227
O 1.457729 0.408191 0.530472
H 0.888478 0.017960 1.196625
H 2.362401 0.202292 0.773910
6
Structure 1233 | Energy: -10.140680 Hartree
O 0.735819 1.757326 0.023460
H 1.471839 1.840249 0.632955
H 0.939322 2.297279 -0.742783
O 1.286088 -0.770212 -1.055129
H 1.402331 -1.617647 -0.621044
H 0.411871 -0.770813 -1.449885
6
Structure 1234 | Energy: -10.140679 Hartree
O 0.399212 -0.549867 0.645720
H 0.477949 -0.765549 1.577046
H -0.443076 -0.106518 0.527046
O -0.737820 0.309910 -1.804605
H -1.331129 0.272446 -2.557378
H -0.233509 1.122307 -1.880560
6
Structure 1235 | Energy: -10.140678 Hartree
O 1.859167 0.070890 0.403665
H 2.323411 -0.138132 1.216606
H 1.080971 -0.488841 0.368990
O -1.236380 0.190579 0.961009
H -0.526901 0.369525 1.581256
H -1.567480 -0.688718 1.154131
6
Structure 1236 | Energy: -10.140678 Hartree
O -1.325051 0.204920 -0.365654
H -0.925193 0.629677 0.395779
H -1.480832 -0.711826 -0.130283
O 0.572216 0.912296 -1.848172
H 0.386944 0.065000 -1.438474
H -0.161568 1.111574 -2.432926
6
Structure 1237 | Energy: -10.140676 Hartree
O 1.051512 1.013368 -0.556410
H 0.486685 0.260539 -0.371193
H 1.210781 1.023090 -1.502258
O -1.580139 -1.059445 0.950124
H -1.004956 -1.482112 0.309340
H -2.239100 -1.706077 1.210365
6
Structure 1238 | Energy: -10.140666 Hartree
O 1.112690 -1.397093 0.912496
H 1.334192 -0.690736 1.522482
H 1.938489 -1.761009 0.587362
O -1.015967 0.519857 -0.752687
H -0.144414 0.539975 -0.352591
H -0.943970 0.940593 -1.611690
6
Structure 1239 | Energy: -10.140659 Hartree
O -0.264664 -0.904612 0.634989
H -0.260956 0.053728 0.594278
H -1.180652 -1.182806 0.695521
O 1.298378 0.802797 -1.411731
H 1.248909 1.719590 -1.689456
H 1.725824 0.788756 -0.553139
6
Structure 1240 | Energy: -10.140655 Hartree
O -0.382803 0.035029 1.986385
H -0.140619 0.950332 1.832589
H -1.335123 0.008080 2.097975
O 1.427933 -1.722362 -0.036969
H 1.842529 -1.535237 0.807531
H 2.090527 -2.136886 -0.593051
6
Structure 1241 | Energy: -10.140649 Hartree
O 0.789070 -1.675404 1.155142
H 0.037468 -1.810340 0.574647
H 0.975645 -2.515780 1.578284
O -1.027163 1.299763 -0.798149
H -1.457440 0.503579 -0.480284
H -1.267699 2.010530 -0.200621
6
Structure 1242 | Energy: -10.140648 Hartree
O 0.064106 1.576919 0.373935
H 0.891174 1.272781 0.752807
H -0.506310 1.829352 1.102628
O 0.089694 -2.271874 -0.338641
H -0.781327 -1.968604 -0.075135
H 0.497357 -2.669941 0.433008
6
Structure 1243 | Energy: -10.140646 Hartree
O -1.064182 -1.657636 0.331732
H -1.051080 -2.078920 1.193378
H -0.389844 -2.082122 -0.202282
O -0.172998 0.439952 -0.985795
H -0.235088 0.124497 -0.082069
H 0.559605 1.058117 -1.021182
6
Structure 1244 | Energy: -10.140644 Hartree
O -0.132687 0.779150 -1.532122
H 0.815754 0.759871 -1.390085
H -0.396751 -0.101200 -1.806612
O 1.431734 -1.153148 1.083424
H 2.069246 -1.257568 0.374366
H 0.559896 -1.150575 0.683449
6
Structure 1245 | Energy: -10.140643 Hartree
O 2.163524 0.151363 0.625768
H 1.613653 0.725739 1.162256
H 1.737601 -0.707750 0.601135
O -0.608905 -1.096395 -0.431809
H 0.248829 -1.485074 -0.614316
H -0.452944 -0.251207 -0.005873
6
Structure 1246 | Energy: -10.140643 Hartree
O -2.108767 -0.877330 0.578377
H -1.292697 -0.453613 0.851472
H -1.874253 -1.724290 0.193991
O 1.853768 0.069312 -0.285188
H 1.116865 -0.535241 -0.392786
H 2.618149 -0.455461 -0.039375
6
Structure 1247 | Energy: -10.140640 Hartree
O -1.075438 0.672570 -0.729810
H -1.477244 1.270046 -1.363576
H -1.439601 -0.199959 -0.891585
O -0.588651 -0.447806 1.782824
H -0.688027 0.161649 2.516838
H 0.349505 -0.515337 1.594703
6
Structure 1248 | Energy: -10.140638 Hartree
O -0.967482 0.826305 0.382756
H -0.453939 1.576008 0.689845
H -1.237997 1.016956 -0.517558
O 1.216986 -0.953975 -0.772154
H 1.304791 -1.605117 -0.073304
H 2.011219 -0.416246 -0.760806
6
Structure 1249 | Energy: -10.140618 Hartree
O 0.877924 -0.916624 1.898271
H 0.302284 -0.380753 1.349120
H 0.475274 -1.784290 1.969816
O -0.766167 1.373492 -1.337798
H 0.126975 1.290622 -0.997921
H -1.221653 0.552156 -1.142789
6
Structure 1250 | Energy: -10.140611 Hartree
O -1.547711 -0.313262 -0.298961
H -1.369115 -1.223037 -0.544927
H -1.943406 0.114536 -1.060870
O 1.404518 0.212204 1.809260
H 1.554676 -0.240935 2.641249
H 1.233027 -0.459858 1.146682
6
Structure 1251 | Energy: -10.140608 Hartree
O -0.472507 -0.705036 -0.040833
H 0.425339 -0.983990 -0.230946
H -0.751509 -0.135726 -0.760649
O -1.118846 1.599745 1.258285
H -1.291254 1.820263 0.340824
H -1.719583 0.891374 1.497896
6
Structure 1252 | Energy: -10.140605 Hartree
O 0.638679 -1.718051 -0.015778
H 0.453766 -0.778595 -0.073354
H 1.257215 -1.842045 0.706808
O -0.944628 1.965662 0.636847
H -0.618039 1.595917 1.459475
H -0.180039 2.218380 0.115669
6
Structure 1253 | Energy: -10.140605 Hartree
O 0.964826 1.991642 -0.655210
H 1.694953 1.419854 -0.900281
H 0.473098 1.543970 0.036080
O -0.993370 -1.035682 0.306473
H -0.382125 -0.520177 0.836304
H -1.880085 -0.760074 0.547024
6
Structure 1254 | Energy: -10.140605 Hartree
O 0.231960 1.015504 -0.726596
H 0.351915 1.963850 -0.806197
H 0.068912 0.826562 0.199583
O -0.743053 -1.434593 -0.335991
H -0.687021 -1.079612 0.553355
H -0.002644 -1.078589 -0.831111
6
Structure 1255 | Energy: -10.140584 Hartree
O 0.457708 -0.064032 -2.229553
H -0.151000 -0.804761 -2.259265
H 0.486834 0.315189 -3.110140
O 0.629171 0.046466 1.650276
H 1.185580 -0.716725 1.817717
H 1.168291 0.827323 1.790635
6
Structure 1256 | Energy: -10.140573 Hartree
O 1.379854 1.068104 0.997278
H 0.472944 0.845010 1.215978
H 1.502122 1.996440 1.205448
O -1.729717 -0.034449 -0.536395
H -1.210078 -0.833010 -0.647587
H -1.605891 0.261457 0.367594
6
Structure 1257 | Energy: -10.140572 Hartree
O 1.168677 1.850050 0.292243
H 1.296383 0.902180 0.219300
H 0.233245 2.021138 0.166596
O -0.129301 -1.392226 -1.591500
H 0.595271 -1.418374 -2.219511
H 0.236911 -1.124763 -0.746254
6
Structure 1258 | Energy: -10.140568 Hartree
O 1.976665 0.783113 -1.085967
H 1.603928 -0.085645 -0.923441
H 1.315158 1.292134 -1.558615
O -1.653835 -1.062677 0.587459
H -1.531599 -1.417222 -0.295402
H -1.611758 -0.106903 0.518082
6
Structure 1259 | Energy: -10.140562 Hartree
O -1.221879 -1.299089 0.729778
H -2.074284 -1.718303 0.596544
H -1.040467 -0.770291 -0.049679
O 1.810807 1.224283 -0.055736
H 2.318203 0.666498 -0.648621
H 1.898108 2.126310 -0.370081
6
Structure 1260 | Energy: -10.140561 Hartree
O -1.727925 1.024560 0.179053
H -2.456309 1.416835 -0.306399
H -1.121657 0.656507 -0.466755
O 1.124527 -1.054486 -0.273678
H 0.626403 -1.109997 -1.091528
H 1.302945 -1.952692 0.011773
6
Structure 1261 | Energy: -10.140549 Hartree
O 1.258038 1.133683 -0.987656
H 1.203293 0.302767 -1.463753
H 2.146674 1.473339 -1.110336
O -1.442452 0.589537 -0.567863
H -1.750301 1.396690 -0.150947
H -1.386611 0.759984 -1.510157
6
Structure 1262 | Energy: -10.140540 Hartree
O -0.809765 1.183236 -1.369875
H -1.419418 1.862782 -1.075550
H -0.254581 1.573884 -2.047559
O -0.719034 -1.572621 0.466379
H 0.146319 -1.356644 0.113386
H -0.725541 -1.303427 1.387020
6
Structure 1263 | Energy: -10.140519 Hartree
O 1.014430 0.453879 -1.469310
H 0.668499 0.457472 -0.574657
H 1.708539 1.114785 -1.508125
O -0.942130 -0.954278 1.651542
H -0.479960 -1.488616 1.002721
H -0.528414 -0.088875 1.653484
6
Structure 1264 | Energy: -10.140518 Hartree
O -1.654511 -0.403425 1.135820
H -2.528232 -0.782223 1.020890
H -1.418399 0.022062 0.309198
O 0.689887 -0.229723 0.300533
H 1.578158 -0.589802 0.263038
H 0.667492 0.396064 1.027153
6
Structure 1265 | Energy: -10.140510 Hartree
O 1.421775 -1.218897 1.210203
H 1.877346 -0.501524 1.655081
H 1.807522 -1.301456 0.335861
O 0.179036 1.088339 -1.075773
H 1.102523 1.322367 -1.187532
H -0.219950 1.762712 -0.522492
6
Structure 1266 | Energy: -10.140508 Hartree
O 1.206496 -0.464425 -0.604681
H 0.667190 -1.091932 -0.119426
H 1.055743 0.399623 -0.216372
O -0.476626 0.357843 1.678193
H 0.401848 0.088234 1.953296
H -0.778113 -0.278506 1.026845
6
Structure 1267 | Energy: -10.140505 Hartree
O 0.197049 1.686588 -0.298962
H -0.275012 1.829306 -1.121686
H 0.541206 2.536644 -0.017798
O -1.235950 -1.854705 0.368863
H -0.748745 -1.588640 -0.413396
H -1.654525 -2.694729 0.170767
6
Structure 1268 | Energy: -10.140498 Hartree
O 1.544793 -0.946788 -0.612566
H 2.272002 -0.626540 -0.075263
H 1.177490 -0.190052 -1.073576
O 0.517433 0.434737 1.513625
H -0.097774 1.100307 1.827671
H 1.113891 0.234985 2.237797
6
Structure 1269 | Energy: -10.140498 Hartree
O 1.713497 0.956344 -0.801932
H 2.423396 1.081480 -0.169105
H 0.901009 0.858131 -0.301623
O -1.867105 -0.551775 1.030303
H -0.998980 -0.746273 1.388937
H -2.163256 0.267505 1.431753
6
Structure 1270 | Energy: -10.140487 Hartree
O 0.862717 1.475557 -0.139002
H 1.533220 1.599637 0.535620
H 0.995383 0.602799 -0.514215
O -1.421642 -1.361188 0.049373
H -0.905118 -2.132677 0.290403
H -1.804230 -1.533639 -0.813167
6
Structure 1271 | Energy: -10.140484 Hartree
O 1.962429 -0.849933 -0.621323
H 2.341634 -0.194654 -0.032342
H 1.542644 -0.375447 -1.341555
O -1.012381 0.462424 1.589568
H -0.964977 1.291322 1.109184
H -0.129848 0.270478 1.912648
6
Structure 1272 | Energy: -10.140484 Hartree
O -1.093592 0.304351 0.271830
H -1.265083 -0.602161 0.534342
H -1.624173 0.479507 -0.507846
O 1.638495 -0.194883 -1.124726
H 2.067116 -0.554822 -1.903709
H 1.295730 0.668829 -1.362637
6
Structure 1273 | Energy: -10.140483 Hartree
O 0.553000 -0.442269 -1.789726
H 0.474290 0.436963 -1.414436
H 1.480072 -0.685505 -1.751447
O -1.014598 0.938148 0.417268
H -0.949889 0.021682 0.692932
H -0.120468 1.279773 0.354725
6
Structure 1274 | Energy: -10.140482 Hartree
O -0.130436 -0.868565 -1.034013
H -0.967799 -0.729661 -0.587229
H -0.318308 -1.334649 -1.851057
O 1.458962 0.804278 1.415902
H 1.825812 -0.077494 1.326526
H 1.245561 0.930578 2.342506
6
Structure 1275 | Energy: -10.140482 Hartree
O 1.065008 1.217868 -1.594409
H 1.697236 1.028369 -0.898374
H 0.378904 1.768872 -1.212640
O 0.642466 -0.834248 1.404223
H 0.140022 -0.035290 1.233041
H 1.166958 -0.676712 2.191737
6
Structure 1276 | Energy: -10.140475 Hartree
O 1.026559 -1.215314 0.415382
H 1.643818 -1.907506 0.170541
H 1.542414 -0.483115 0.758703
O -1.749099 0.967111 -0.446710
H -1.885327 1.424040 -1.279023
H -2.311145 0.189847 -0.454060
6
Structure 1277 | Energy: -10.140473 Hartree
O 0.172918 0.669057 -0.784605
H -0.476161 0.834956 -1.471089
H 0.657233 -0.119741 -1.036255
O 1.714751 -0.284103 1.354084
H 2.440180 -0.911643 1.348296
H 1.901274 0.371924 0.679602
6
Structure 1278 | Energy: -10.140472 Hartree
O 1.745381 -0.362995 -0.571578
H 1.410320 0.530603 -0.668029
H 1.138168 -0.833585 0.002816
O -1.902331 -0.078898 -1.167371
H -2.234911 -0.286114 -0.291849
H -0.945898 -0.141637 -1.130113
6
Structure 1279 | Energy: -10.140472 Hartree
O -1.061062 -1.001457 -1.291655
H -1.788012 -1.085968 -0.671585
H -0.767050 -1.888670 -1.507297
O 1.350987 0.534183 0.237817
H 2.200329 0.946947 0.406137
H 1.510307 -0.222093 -0.330295
6
Structure 1280 | Energy: -10.140471 Hartree
O -0.005701 -1.309129 1.557531
H 0.354980 -2.197503 1.585584
H 0.258552 -0.921562 0.720839
O -0.203981 1.597285 -0.629406
H -1.052561 1.495742 -0.193874
H 0.161020 0.718302 -0.748782
6
Structure 1281 | Energy: -10.140470 Hartree
O -0.852110 -0.008705 -0.186045
H -1.556381 0.601952 0.040200
H -0.298631 -0.104630 0.591483
O 1.569145 0.515926 -1.134569
H 1.382426 1.299853 -1.654838
H 1.782850 -0.188721 -1.749297
6
Structure 1282 | Energy: -10.140469 Hartree
O -0.977546 -1.373284 0.120054
H -0.798037 -1.616454 1.030400
H -1.570472 -2.036108 -0.239380
O 1.277154 1.306505 -0.894843
H 0.966775 2.214046 -0.905875
H 1.296801 1.024136 0.021656
6
Structure 1283 | Energy: -10.140468 Hartree
O 1.051413 0.204574 -1.761563
H 1.164093 -0.735888 -1.610166
H 0.136364 0.416055 -1.566493
O -0.706415 -1.367667 0.804479
H -0.890182 -1.977673 0.087394
H -1.076335 -0.518095 0.556540
6
Structure 1284 | Energy: -10.140467 Hartree
O -0.703972 -1.223274 0.812926
H 0.196343 -1.515692 0.967883
H -1.286669 -1.893334 1.175657
O -1.083518 1.194150 -1.706053
H -0.239432 0.868380 -2.024613
H -1.756913 0.581819 -2.008835
6
Structure 1285 | Energy: -10.140465 Hartree
O -0.988364 -0.698429 -0.939815
H -1.333398 -0.176875 -0.212479
H -1.140324 -1.620860 -0.725058
O 1.175606 1.658140 0.727262
H 2.118119 1.487430 0.778400
H 0.940272 2.184558 1.493806
6
Structure 1286 | Energy: -10.140457 Hartree
O -1.838963 0.212386 0.045996
H -1.190937 0.890650 0.246259
H -2.390171 0.107600 0.823993
O 0.792877 -0.425700 -1.865657
H 0.174895 0.097194 -2.380212
H 1.254612 0.176394 -1.278824
6
Structure 1287 | Energy: -10.140449 Hartree
O -0.622212 1.157931 -0.732651
H -0.263367 1.491759 0.091894
H -1.200875 0.424713 -0.514406
O 1.150492 -1.745665 0.179328
H 1.929250 -1.344178 0.569754
H 0.552487 -1.962542 0.897272
6
Structure 1288 | Energy: -10.140443 Hartree
O 0.740965 -0.736761 -1.859255
H 0.988240 -1.457016 -1.276011
H -0.205396 -0.609553 -1.768098
O 0.345170 1.419149 0.717981
H 1.177995 1.610495 1.153730
H 0.091835 0.528422 0.968011
6
Structure 1289 | Energy: -10.140438 Hartree
O 1.046318 0.966304 -0.990059
H 0.240048 1.450553 -0.801596
H 1.378347 0.631397 -0.154784
O 0.795107 -1.115593 1.604002
H 1.019385 -0.248596 1.947663
H 1.125789 -1.158912 0.704635
6
Structure 1290 | Energy: -10.140437 Hartree
O -1.377749 -0.946284 -0.418431
H -0.705128 -1.629887 -0.399592
H -1.304962 -0.453503 0.401300
O 0.060363 1.185896 0.059927
H 0.992671 1.350662 0.214013
H -0.402621 2.012668 0.208866
6
Structure 1291 | Energy: -10.140432 Hartree
O 0.951642 1.149824 1.049334
H 1.099760 0.421926 1.656221
H 0.003584 1.229185 0.926949
O -0.571221 -1.073615 -1.661646
H -0.433370 -0.420865 -0.972442
H -1.391231 -1.529239 -1.461448
6
Structure 1292 | Energy: -10.140426 Hartree
O 0.302375 -0.433511 1.196973
H 0.769015 -1.267505 1.114593
H 0.924015 0.206162 1.549779
O -1.965417 0.929836 -0.119658
H -2.112798 -0.014973 -0.044154
H -1.852739 1.126156 -1.051779
6
Structure 1293 | Energy: -10.140422 Hartree
O 1.347784 -0.457017 -0.988061
H 1.696492 -0.470987 -0.094588
H 0.525454 -0.950775 -0.979790
O -0.769143 2.104465 0.635941
H -0.627197 1.163747 0.758366
H -1.548797 2.204930 0.086275
6
Structure 1294 | Energy: -10.140413 Hartree
O -1.268985 -0.987203 0.215820
H -1.541809 -1.717597 0.774549
H -1.732223 -1.079748 -0.619007
O 1.322502 0.548641 -1.711260
H 1.643608 1.129810 -2.403518
H 1.773066 0.795665 -0.901285
6
Structure 1295 | Energy: -10.140399 Hartree
O 0.266350 -0.949375 -1.533166
H 0.469406 -1.798137 -1.135100
H 0.997385 -0.360693 -1.335349
O -1.218517 0.071261 1.720772
H -0.468044 -0.487064 1.933257
H -0.874503 0.861319 1.299405
6
Structure 1296 | Energy: -10.140399 Hartree
O 0.037417 -1.016013 -1.328395
H 0.161049 -0.158610 -0.916497
H 0.754833 -1.579583 -1.032094
O 0.969166 1.364677 1.182519
H 1.302208 1.726325 0.358879
H 0.242631 0.778442 0.962147
6
Structure 1297 | Energy: -10.140398 Hartree
O 0.095661 -1.738716 0.618120
H -0.652809 -2.016826 0.086581
H 0.285264 -2.448345 1.235023
O 2.278402 0.028105 -0.564064
H 2.708897 0.856581 -0.344089
H 1.377835 0.235433 -0.821127
6
Structure 1298 | Energy: -10.140398 Hartree
O -1.102356 -0.160370 0.772144
H -0.420481 -0.674823 0.335716
H -1.710733 -0.781212 1.177760
O 0.502572 0.152405 -1.706581
H -0.003613 -0.515270 -2.173566
H 1.306973 0.301019 -2.207521
6
Structure 1299 | Energy: -10.140398 Hartree
O -0.172861 1.164411 -1.764551
H -0.561517 1.962967 -1.402142
H 0.629506 1.421735 -2.222897
O 1.266476 -0.740043 0.721391
H 1.960717 -0.640740 1.375805
H 0.647689 -0.018849 0.852043
6
Structure 1300 | Energy: -10.140397 Hartree
O -1.333615 -0.256394 -0.719413
H -0.854714 0.405714 -1.221760
H -2.176000 0.129565 -0.471391
O 1.942082 0.684501 1.032108
H 2.194771 1.546107 0.694661
H 1.204256 0.818873 1.630143
6
Structure 1301 | Energy: -10.140389 Hartree
O -1.181589 0.187894 -1.482206
H -0.857414 1.086311 -1.570773
H -0.820418 -0.317737 -2.212948
O 1.648219 -0.039126 1.623783
H 1.795136 -0.898795 1.224444
H 2.502991 0.389958 1.696858
6
Structure 1302 | Energy: -10.140387 Hartree
O 0.055854 -0.674161 -0.786767
H 0.919147 -0.800098 -0.388080
H 0.198791 -0.443135 -1.706706
O 0.527765 1.200631 1.594947
H 0.799854 0.457409 2.136865
H 0.809347 1.015500 0.696879
6
Structure 1303 | Energy: -10.140374 Hartree
O -0.308213 1.796534 1.498141
H -0.194592 1.192631 0.761611
H -0.881105 2.505188 1.198648
O -0.224587 -1.888520 -0.567545
H -0.365484 -1.397774 0.244491
H -0.273338 -1.260596 -1.291024
6
Structure 1304 | Energy: -10.140369 Hartree
O 0.430930 -0.372534 -1.516849
H 0.765924 -0.881664 -0.776139
H -0.068009 -0.974347 -2.072701
O -0.685405 0.427409 1.849454
H -0.188900 0.715209 2.618051
H -1.425043 -0.093759 2.167899
6
Structure 1305 | Energy: -10.140365 Hartree
O 0.561661 -0.656138 -2.108816
H 1.110233 -0.743976 -1.326870
H 1.144657 -0.688148 -2.869856
O -0.387573 1.000369 1.087699
H -1.265620 0.911038 1.463387
H 0.209087 0.485513 1.634516
6
Structure 1306 | Energy: -10.140356 Hartree
O -0.964814 0.000297 0.937286
H -0.692994 0.904007 1.109065
H -0.750296 -0.514115 1.717961
O 1.821572 -0.527139 -0.860374
H 2.086553 -1.422173 -1.081249
H 2.108227 0.039554 -1.579245
6
Structure 1307 | Energy: -10.140350 Hartree
O -0.410561 -1.800820 -1.301488
H -0.210780 -1.633068 -2.224544
H 0.253100 -1.345229 -0.779874
O -0.528034 1.205005 1.124564
H -0.016805 1.076506 0.323178
H -1.013107 2.026323 1.023426
6
Structure 1308 | Energy: -10.140348 Hartree
O 1.232673 -0.586307 -1.918688
H 0.689395 -0.584125 -1.128163
H 1.602330 -1.467027 -2.006879
O -1.095104 0.738889 1.328899
H -0.203184 1.060880 1.473427
H -1.036203 -0.208508 1.190851
6
Structure 1309 | Energy: -10.140347 Hartree
O 1.241854 -0.417576 -0.974444
H 1.469437 0.424717 -1.372984
H 1.350913 -0.321884 -0.026267
O -1.884531 -0.573200 -0.953645
H -1.692895 -0.636681 -1.891372
H -2.605303 0.051604 -0.852675
6
Structure 1310 | Energy: -10.140342 Hartree
O -1.882537 0.166550 1.272342
H -2.099115 -0.700479 1.620827
H -1.035357 0.090942 0.828880
O 1.947764 -0.882800 -0.211739
H 1.764966 -1.043913 0.716008
H 1.202801 -1.222800 -0.711257
6
Structure 1311 | Energy: -10.140328 Hartree
O -0.190278 -1.474839 -0.591189
H -0.164004 -0.680367 -0.054337
H -0.896596 -1.362498 -1.230397
O 1.919662 -0.283071 -1.299653
H 2.033112 0.165009 -0.459152
H 2.084442 -1.215900 -1.148771
6
Structure 1312 | Energy: -10.140326 Hartree
O 2.176858 -0.885191 0.102010
H 2.433815 -1.799515 -0.032422
H 1.536585 -0.667133 -0.578130
O -1.115885 0.668796 -1.602793
H -0.193516 0.786113 -1.838502
H -1.494992 0.055609 -2.235539
6
Structure 1313 | Energy: -10.140320 Hartree
O -0.481337 1.704383 -1.251152
H -1.181024 2.360526 -1.251069
H -0.846978 0.899271 -1.622896
O -0.071152 -0.359733 1.002587
H 0.767889 -0.511867 1.441853
H -0.041544 -0.825350 0.164487
6
Structure 1314 | Energy: -10.140319 Hartree
O 1.919109 0.540594 -0.089927
H 1.174320 1.002588 -0.479718
H 1.585823 -0.284679 0.267755
O -1.420970 0.391308 -0.841198
H -1.083987 0.654129 0.017555
H -0.663033 0.209067 -1.400132
6
Structure 1315 | Energy: -10.140312 Hartree
O 0.306687 1.990171 0.567071
H 0.983861 1.924271 1.243221
H -0.084317 1.119569 0.470850
O 1.581027 -1.602453 -0.355856
H 2.510829 -1.615745 -0.120526
H 1.095093 -1.321889 0.422115
6
Structure 1316 | Energy: -10.140311 Hartree
O -0.622569 -0.722983 1.469339
H -0.510830 -1.566260 1.026073
H -1.563100 -0.599125 1.611295
O 0.407007 0.608165 -2.206444
H 0.404061 -0.345961 -2.305046
H -0.499663 0.880583 -2.052084
6
Structure 1317 | Energy: -10.140310 Hartree
O -0.276910 0.907913 1.475574
H 0.023768 1.806904 1.328967
H -0.223762 0.449889 0.634456
O 1.907644 -1.112862 -0.504261
H 2.387175 -1.563638 -1.202070
H 1.632964 -0.262181 -0.852084
6
Structure 1318 | Energy: -10.140303 Hartree
O -0.013434 -0.309454 -0.924462
H -0.413271 0.300266 -1.547726
H 0.783073 0.107642 -0.590248
O -1.622546 1.471012 0.412324
H -0.949739 1.526457 1.093753
H -2.290690 2.127566 0.618741
6
Structure 1319 | Energy: -10.140303 Hartree
O 0.870945 -1.748401 1.306596
H 0.717621 -2.548842 0.800759
H 1.563360 -1.257947 0.859262
O -0.209531 0.430119 -0.872297
H -1.129535 0.444911 -1.143335
H 0.284582 -0.007807 -1.568114
6
Structure 1320 | Energy: -10.140293 Hartree
O 0.798074 0.429819 0.781049
H 1.662842 0.539747 1.181273
H 0.541725 1.280883 0.420403
O -0.410506 -0.527639 -1.410476
H 0.547327 -0.562778 -1.372943
H -0.716984 -1.400060 -1.665508
6
Structure 1321 | Energy: -10.140292 Hartree
O 0.949847 -1.093403 1.219653
H 0.999009 -1.175868 0.265259
H 1.257802 -1.921764 1.592577
O 1.218789 1.776184 -0.887684
H 0.877259 0.895420 -0.721252
H 0.764253 2.115638 -1.661154
6
Structure 1322 | Energy: -10.140287 Hartree
O 1.292171 1.365917 0.839178
H 2.024148 0.962741 0.368280
H 1.623127 2.170326 1.243510
O -0.390006 -0.599571 -1.562130
H 0.515310 -0.485919 -1.858057
H -0.881147 0.173551 -1.847000
6
Structure 1323 | Energy: -10.140282 Hartree
O 0.957031 1.863843 0.494518
H 1.298432 2.056554 -0.380921
H 1.655466 1.421217 0.980689
O -0.024718 -0.674860 -0.089976
H -0.975492 -0.623081 -0.205881
H 0.151966 -1.430411 0.473952
6
Structure 1324 | Energy: -10.140280 Hartree
O 0.880401 -1.938318 0.142533
H 0.893985 -2.278249 1.039387
H 1.206917 -1.036987 0.175414
O -0.066110 0.728295 -1.608847
H -0.584486 1.532110 -1.536352
H 0.791013 0.973973 -1.962500
6
Structure 1325 | Energy: -10.140279 Hartree
O 2.252606 0.006674 -0.423343
H 2.936175 0.448638 0.084089
H 1.446104 0.042824 0.094671
O -0.568514 0.883760 -0.794369
H -0.693577 0.585827 0.108782
H -1.014968 0.255324 -1.365189
6
Structure 1326 | Energy: -10.140274 Hartree
O -1.899604 -1.284900 0.009420
H -1.696593 -0.613029 0.663225
H -2.700102 -1.009583 -0.441683
O -0.373870 1.373099 -0.317147
H 0.063294 0.631536 0.106006
H -1.126425 1.608546 0.229034
6
Structure 1327 | Energy: -10.140269 Hartree
O 1.218534 0.903929 1.052380
H 0.698858 1.299209 0.349687
H 1.874091 0.339573 0.637845
O -0.057403 -1.464404 -1.681618
H 0.236234 -0.701481 -1.179808
H -0.576292 -1.136891 -2.418895
6
Structure 1328 | Energy: -10.140267 Hartree
O 0.977944 1.844754 -0.409432
H 0.268586 1.748909 0.229090
H 1.799905 1.660299 0.049313
O -1.621225 -0.344223 0.158285
H -1.907146 0.544067 0.380269
H -0.668278 -0.370762 0.264469
6
Structure 1329 | Energy: -10.140263 Hartree
O -0.767058 -0.430121 -0.679951
H -1.046192 -1.006513 0.034152
H -1.263588 -0.683901 -1.460428
O 0.994619 0.790092 1.556084
H 1.580586 1.054808 0.844287
H 1.498695 0.223004 2.142945
6
Structure 1330 | Energy: -10.140257 Hartree
O 0.904539 0.784380 -1.694633
H 1.101123 1.431830 -2.374522
H 1.741009 0.508397 -1.314841
O -0.741881 -0.908384 1.934090
H -1.418062 -0.741974 2.593768
H -0.818871 -1.828516 1.674250
6
Structure 1331 | Energy: -10.140255 Hartree
O 0.213050 -1.611982 -0.049593
H 0.416630 -1.040151 -0.792325
H -0.599090 -2.075868 -0.262501
O 0.363417 0.284930 2.176879
H 0.677389 0.972029 2.767984
H 0.519076 -0.556169 2.610941
6
Structure 1332 | Energy: -10.140248 Hartree
O -0.284982 -0.440433 1.471340
H -0.225931 -1.278150 1.007844
H 0.188782 -0.539959 2.299430
O 1.771232 0.762151 -0.571877
H 2.726673 0.800608 -0.647643
H 1.438352 1.648912 -0.723316
6
Structure 1333 | Energy: -10.140234 Hartree
O -2.236827 -0.335655 -0.434372
H -1.482504 -0.927456 -0.405130
H -2.707452 -0.515457 -1.250628
O 0.600017 1.294363 0.092834
H 1.492258 0.963850 -0.028639
H -0.000276 0.605510 -0.199088
6
Structure 1334 | Energy: -10.140233 Hartree
O -0.634264 0.795872 -0.661630
H -0.519810 1.500174 -1.302680
H -1.550921 0.516949 -0.706704
O 1.823001 0.833834 -0.732897
H 1.706093 0.549639 0.175758
H 1.815650 0.046048 -1.280096
6
Structure 1335 | Energy: -10.140231 Hartree
O 0.953153 1.972353 0.147001
H 1.368068 1.811861 0.996809
H 1.594606 1.746471 -0.529465
O -0.792698 -1.906602 -0.068603
H -0.567297 -2.749699 0.329479
H 0.013403 -1.543686 -0.440869
6
Structure 1336 | Energy: -10.140230 Hartree
O -1.230014 -0.635184 1.686915
H -1.480601 -0.533393 0.766626
H -0.810595 0.183338 1.959311
O 0.784842 1.760340 -0.587972
H 0.997406 2.664016 -0.346571
H -0.064700 1.553315 -0.193627
6
Structure 1337 | Energy: -10.140227 Hartree
O -0.732471 1.371140 -0.690629
H -0.064411 1.950701 -1.061964
H -1.543634 1.878746 -0.623983
O 0.295801 -1.144476 1.545022
H 0.883975 -1.895472 1.645739
H -0.510864 -1.467878 1.139079
6
Structure 1338 | Energy: -10.140219 Hartree
O 0.875996 0.750403 0.675855
H 1.660935 1.233165 0.409592
H 0.601301 1.101167 1.525324
O 0.520788 -2.034816 -0.965278
H 0.034153 -2.200389 -0.155427
H -0.109660 -2.068415 -1.687425
6
Structure 1339 | Energy: -10.140206 Hartree
O -1.702625 -1.002314 -0.546368
H -1.322076 -1.881367 -0.496017
H -1.561738 -0.582629 0.304577
O 0.811260 1.602290 1.324325
H 0.586532 0.723373 1.635917
H 1.568774 1.898802 1.832598
6
Structure 1340 | Energy: -10.140194 Hartree
O -2.171700 -0.694274 0.059589
H -1.246661 -0.508840 0.232802
H -2.687842 -0.081270 0.586765
O 0.547928 1.794081 -0.682615
H 0.829216 0.987167 -1.118337
H -0.157486 1.558689 -0.076753
6
Structure 1341 | Energy: -10.140193 Hartree
O 1.323213 -0.565723 -0.772999
H 0.613886 -0.366432 -0.158813
H 1.949101 -1.127341 -0.311545
O 0.517197 2.016784 0.031185
H 1.373258 2.428899 -0.100752
H 0.404182 1.892745 0.975606
6
Structure 1342 | Energy: -10.140192 Hartree
O 0.626715 1.145936 -0.122547
H 0.383907 1.099142 0.804244
H 1.128841 1.954122 -0.244179
O -1.339787 -0.638765 0.049142
H -0.774945 -1.404883 0.167903
H -1.812533 -0.759675 -0.776679
6
Structure 1343 | Energy: -10.140186 Hartree
O -1.635316 0.120298 -0.070020
H -0.918289 -0.275062 -0.569670
H -1.396899 0.069416 0.857697
O 1.704528 -0.744001 1.204767
H 0.861422 -0.797603 0.750469
H 2.253635 -0.130175 0.713048
6
Structure 1344 | Energy: -10.140182 Hartree
O 0.874586 0.371263 1.395367
H 0.608386 0.567408 2.295784
H 1.818964 0.203725 1.408461
O 1.723531 -1.540277 -0.197628
H 1.058896 -1.616284 -0.885066
H 1.734854 -2.372179 0.279761
6
Structure 1345 | Energy: -10.140178 Hartree
O 0.280171 0.073875 -1.540712
H -0.046541 0.544397 -0.771326
H -0.368022 -0.598726 -1.758761
O -2.220126 -0.199375 0.542314
H -2.206829 0.056277 -0.382107
H -1.507244 0.272129 0.977712
6
Structure 1346 | Energy: -10.140176 Hartree
O 0.016279 -1.358453 -0.406385
H 0.970581 -1.422092 -0.333280
H -0.330624 -2.252440 -0.383235
O -1.014725 1.747631 -0.488573
H -1.380480 2.621243 -0.336548
H -1.219767 1.215659 0.282823
6
Structure 1347 | Energy: -10.140173 Hartree
O 1.081091 -1.801949 0.513603
H 1.536402 -1.089455 0.966516
H 1.351532 -2.622311 0.930687
O 0.290514 1.123702 -0.235613
H 0.359428 1.768301 -0.942600
H -0.462798 1.372764 0.303438
6
Structure 1348 | Energy: -10.140171 Hartree
O 0.004641 0.730883 -0.044942
H -0.826532 0.252118 -0.049675
H 0.322220 0.757586 -0.949663
O 0.650959 -2.145136 -0.151525
H 1.590276 -2.337175 -0.121661
H 0.498058 -1.593926 -0.921510
6
Structure 1349 | Energy: -10.140159 Hartree
O 1.076731 -1.968193 0.092791
H 2.010686 -2.136964 0.231826
H 0.977716 -1.026131 -0.058226
O -1.798283 0.451463 -0.614364
H -2.584794 0.997830 -0.559849
H -1.119384 0.973206 -1.046762
6
Structure 1350 | Energy: -10.140158 Hartree
O -1.845875 -1.488179 -0.189822
H -2.036214 -0.548043 -0.190993
H -1.573375 -1.721716 0.699725
O 1.402768 0.353433 1.451907
H 1.031488 1.046919 0.902984
H 0.724970 0.094153 2.079164
6
Structure 1351 | Energy: -10.140155 Hartree
O -0.729069 -0.653151 -1.707859
H 0.023405 -1.232842 -1.841379
H -1.117724 -0.882582 -0.861455
O 1.332036 1.865024 0.367775
H 0.471305 1.659938 0.738139
H 1.983830 1.381555 0.879155
6
Structure 1352 | Energy: -10.140138 Hartree
O -0.488040 -1.732473 0.733127
H -0.353479 -2.308209 -0.022193
H -0.735701 -0.870558 0.392747
O 1.150833 0.768675 -0.923316
H 0.281509 0.807854 -0.519796
H 1.264402 1.573886 -1.432064
6
Structure 1353 | Energy: -10.140136 Hartree
O 2.152778 0.615149 0.269992
H 1.550008 0.884696 -0.425780
H 1.748803 -0.126942 0.724079
O -1.480596 -0.413990 -0.852864
H -1.237970 -0.184252 0.046270
H -0.666109 -0.549503 -1.341060
6
Structure 1354 | Energy: -10.140128 Hartree
O -1.370509 -0.922721 -1.427437
H -1.850532 -1.350780 -2.139075
H -0.723503 -0.340826 -1.831010
O 1.697427 0.547853 0.318608
H 2.157637 1.284673 -0.088073
H 2.000984 -0.251487 -0.116131
6
Structure 1355 | Energy: -10.140128 Hartree
O -0.462227 -0.329001 0.493964
H -1.402787 -0.474802 0.374908
H -0.004050 -0.957859 -0.067019
O 0.514638 1.587792 -1.420909
H 0.801918 2.304149 -0.851356
H 1.137762 1.535880 -2.148309
6
Structure 1356 | Energy: -10.140126 Hartree
O 1.295336 0.853245 1.356990
H 0.942251 0.601456 2.212571
H 1.402760 0.048572 0.846058
O -0.876476 -0.367208 -1.080966
H -0.443133 -0.865403 -1.776740
H -1.298451 -1.001429 -0.498052
6
Structure 1357 | Energy: -10.140118 Hartree
O 0.260488 -0.717581 2.111355
H 0.204009 -1.483635 2.685863
H -0.567395 -0.239974 2.192554
O 0.743165 0.335707 -1.375654
H 0.650831 -0.609757 -1.508549
H -0.139881 0.710294 -1.376804
6
Structure 1358 | Energy: -10.140114 Hartree
O 0.891089 -0.402639 -1.148904
H 0.879779 -1.085163 -1.822787
H 1.564804 0.232593 -1.399266
O 0.907399 0.097542 2.126441
H 0.228049 -0.384236 2.602319
H 1.650928 -0.497702 2.012695
6
Structure 1359 | Energy: -10.140109 Hartree
O -0.761678 -1.149962 0.126567
H -0.711670 -2.061103 0.422215
H 0.119249 -0.893305 -0.153050
O 0.917605 0.375988 -1.938426
H 1.049263 0.568026 -2.868950
H 1.593279 -0.253912 -1.680009
6
Structure 1360 | Energy: -10.140104 Hartree
O -1.552289 0.415391 0.385493
H -2.242409 1.031841 0.638098
H -0.764073 0.654356 0.877125
O 1.104976 -1.597207 -0.026023
H 0.626727 -2.074413 0.654887
H 2.040728 -1.708573 0.153012
6
Structure 1361 | Energy: -10.140102 Hartree
O 1.934528 0.819310 -0.214197
H 1.601299 0.048606 0.249549
H 1.390126 1.564905 0.046196
O -1.198054 -1.277340 0.135645
H -0.598824 -1.832624 0.638307
H -1.248561 -0.432505 0.587077
6
Structure 1362 | Energy: -10.140096 Hartree
O 0.936923 1.953484 -0.018020
H 1.462762 1.157246 -0.115917
H 0.205015 1.740719 0.564332
O -0.935989 -1.075260 -1.633586
H -1.540714 -1.339021 -0.937292
H -0.050766 -1.302108 -1.342026
6
Structure 1363 | Energy: -10.140094 Hartree
O 1.773249 0.527124 -0.251451
H 1.900448 -0.303555 -0.713922
H 0.976128 0.928675 -0.602800
O -1.586719 -0.316284 1.125158
H -1.089619 -0.517424 0.329846
H -1.784070 0.622232 1.107045
6
Structure 1364 | Energy: -10.140092 Hartree
O -1.703539 -0.721156 0.484089
H -1.891235 -1.660134 0.540454
H -1.488197 -0.420893 1.369279
O 1.027600 1.148189 -0.132622
H 1.806581 1.552898 0.254012
H 0.560980 1.833685 -0.614753
6
Structure 1365 | Energy: -10.140091 Hartree
O -0.870875 0.399873 0.683991
H -1.063926 0.025267 -0.177687
H -0.630257 1.318260 0.547027
O 1.037737 -0.396596 -1.068604
H 1.099435 -1.342683 -1.214201
H 0.987582 0.020814 -1.930776
6
Structure 1366 | Energy: -10.140085 Hartree
O 1.157651 -1.481442 -0.541324
H 1.382380 -1.181697 -1.424351
H 1.861015 -1.193627 0.043939
O 0.660547 0.102371 1.654181
H 1.081767 0.964019 1.669154
H -0.250868 0.226976 1.925996
6
Structure 1367 | Energy: -10.140085 Hartree
O 1.281905 0.867756 -0.598338
H 1.637792 1.671802 -0.215009
H 0.978834 1.084435 -1.482243
O -1.389280 -1.299034 1.215000
H -1.395655 -2.149083 0.770632
H -1.987955 -0.723234 0.735282
6
Structure 1368 | Energy: -10.140081 Hartree
O 0.058219 -0.952202 0.449908
H 0.052740 -1.723009 1.020796
H -0.177732 -1.249492 -0.431021
O 2.110674 0.442420 -0.690815
H 2.217512 1.351779 -0.404914
H 2.643661 -0.102811 -0.108804
6
Structure 1369 | Energy: -10.140068 Hartree
O 0.712203 -0.565469 -2.200067
H 0.479572 0.325997 -1.933126
H -0.049638 -1.121869 -2.026549
O 1.347418 1.151681 0.039104
H 0.987544 2.008732 -0.197626
H 1.049385 0.954494 0.929262
6
Structure 1370 | Energy: -10.140051 Hartree
O -1.725522 -0.394315 -0.038335
H -2.114604 -0.774161 0.751867
H -1.472255 0.506074 0.174378
O 1.445186 -0.670739 1.240409
H 0.616783 -1.053880 1.535432
H 1.540414 0.175078 1.682691
6
Structure 1371 | Energy: -10.140051 Hartree
O -0.728819 -2.020361 -0.074536
H -1.014303 -2.059293 0.840379
H -0.377054 -2.883970 -0.299327
O -0.050042 0.955992 1.104774
H 0.294519 1.103770 1.987682
H 0.689720 1.017132 0.497237
6
Structure 1372 | Energy: -10.140039 Hartree
O -1.121945 0.928010 -0.415917
H -1.495918 0.110358 -0.081738
H -0.185397 0.917498 -0.208895
O 0.455347 -1.918839 1.227713
H 0.040710 -1.054454 1.196077
H 0.179427 -2.395165 0.442175
6
Structure 1373 | Energy: -10.140037 Hartree
O -2.156752 -0.291724 0.552197
H -2.093845 -0.801383 1.362367
H -2.977884 -0.540368 0.123233
O 0.092274 0.356069 -2.044013
H 0.518149 -0.501731 -1.990196
H 0.695087 0.996959 -1.661961
6
Structure 1374 | Energy: -10.140037 Hartree
O -0.297513 0.341173 -2.348641
H -0.281647 -0.612005 -2.454872
H -0.163735 0.525401 -1.416839
O -0.404871 -1.804131 0.278699
H 0.339709 -1.204147 0.354249
H -0.437331 -2.103289 -0.632091
6
Structure 1375 | Energy: -10.140025 Hartree
O -0.504667 0.641963 -0.610137
H -1.351346 1.028555 -0.842017
H -0.297080 0.926890 0.281947
O -1.751418 -1.247667 0.626659
H -2.277182 -1.933368 1.043162
H -0.840110 -1.388665 0.890717
6
Structure 1376 | Energy: -10.140020 Hartree
O 1.636093 0.398927 -1.526829
H 0.705297 0.348968 -1.300538
H 2.128547 0.406073 -0.703707
O -1.622064 -0.489508 0.272555
H -1.009021 0.206739 0.028619
H -2.074862 -0.762560 -0.527761
6
Structure 1377 | Energy: -10.140020 Hartree
O -0.307423 0.416805 -1.561321
H -0.714934 1.246478 -1.817568
H 0.022436 0.526537 -0.667318
O 0.416796 -2.121289 1.010693
H 0.079397 -1.646064 1.772540
H 0.998732 -1.523199 0.537695
6
Structure 1378 | Energy: -10.140017 Hartree
O -0.420695 -1.290268 1.646548
H 0.126832 -0.657150 1.178080
H -1.333368 -1.095312 1.424937
O -0.537569 1.710391 -1.456513
H -0.771148 1.042927 -0.808423
H 0.334381 1.489791 -1.789869
6
Structure 1379 | Energy: -10.140011 Hartree
O -0.635051 1.722731 0.217184
H -0.651640 2.038162 1.122896
H -0.600505 0.764724 0.250630
O 1.991787 -0.297160 -0.862119
H 1.728822 -0.987399 -0.250149
H 2.498280 -0.715224 -1.561244
6
Structure 1380 | Energy: -10.140010 Hartree
O 1.187546 1.121558 0.634386
H 1.856865 0.843860 1.262862
H 0.333643 0.980884 1.048089
O -1.884595 -0.876754 -0.383032
H -2.308564 -0.058356 -0.648669
H -1.463167 -0.716557 0.463622
6
Structure 1381 | Energy: -10.140009 Hartree
O -1.599128 -0.243884 0.525655
H -2.514367 -0.479247 0.690055
H -1.134455 -0.308799 1.362289
O 1.205058 1.914460 0.035264
H 0.849435 1.324118 0.702434
H 2.160948 1.845510 0.075378
6
Structure 1382 | Energy: -10.140004 Hartree
O 1.674660 -0.845960 -0.019664
H 2.016658 0.049292 0.020931
H 1.172075 -0.994738 0.783681
O -0.790831 1.070221 -0.388358
H 0.130439 0.813680 -0.313955
H -1.072531 1.371824 0.477534
6
Structure 1383 | Energy: -10.139998 Hartree
O 1.633697 0.507980 0.265845
H 2.115231 1.320526 0.098572
H 0.882973 0.731529 0.819495
O -1.695505 -0.536514 -1.469712
H -1.794250 -0.523627 -2.423740
H -1.994923 0.313665 -1.141637
6
Structure 1384 | Energy: -10.139992 Hartree
O 1.503723 0.333227 0.277339
H 2.294591 0.023459 -0.168370
H 0.813345 0.403095 -0.384921
O -1.768123 -0.013569 1.071728
H -1.372238 0.733308 0.618366
H -2.719570 0.075504 0.988647
6
Structure 1385 | Energy: -10.139992 Hartree
O -0.753878 -0.762493 1.391524
H -0.569317 -0.745287 0.450393
H -0.471742 -1.618134 1.720718
O 0.764667 2.218527 -0.023681
H 0.924829 2.357915 -0.959099
H 0.835246 1.275888 0.139222
6
Structure 1386 | Energy: -10.139990 Hartree
O -0.208659 -0.785090 0.346735
H 0.640693 -1.012039 0.730378
H -0.135767 -0.913821 -0.601002
O 1.376523 0.838418 -0.202891
H 0.546837 1.215668 0.096092
H 1.945521 1.568037 -0.455846
6
Structure 1387 | Energy: -10.139985 Hartree
O 0.984904 -1.290750 1.342678
H 0.388680 -0.762764 1.877312
H 1.864314 -1.187153 1.711457
O -1.168404 0.505699 -0.578244
H -0.499497 0.658420 0.092075
H -1.330104 1.344532 -1.014478
6
Structure 1388 | Energy: -10.139982 Hartree
O -1.009035 -1.803575 0.556538
H -1.090604 -2.702581 0.880916
H -0.111415 -1.517097 0.736258
O -0.023124 0.758529 -1.373542
H 0.486060 1.504507 -1.696555
H 0.165765 0.015007 -1.949377
6
Structure 1389 | Energy: -10.139980 Hartree
O 0.284389 0.745361 -2.016737
H 0.583825 0.183161 -2.733922
H -0.658488 0.877151 -2.133804
O 0.608188 -1.395555 0.079823
H 0.262950 -2.248883 0.349508
H 0.125962 -0.726399 0.569493
6
Structure 1390 | Energy: -10.139974 Hartree
O -1.717901 -0.197392 -1.371875
H -1.314944 -0.584814 -0.592378
H -2.505640 -0.708314 -1.568134
O -0.230829 0.579898 0.850757
H -0.537789 0.914559 1.695663
H 0.469708 -0.049724 1.032170
6
Structure 1391 | Energy: -10.139974 Hartree
O 1.048279 -0.529681 1.217492
H 1.916300 -0.287272 1.545917
H 1.060059 -0.407042 0.266224
O -1.775781 -0.678751 0.289097
H -2.423021 -0.471620 -0.387855
H -2.015530 -0.180889 1.073152
6
Structure 1392 | Energy: -10.139972 Hartree
O 0.467144 -0.943301 -2.117468
H 0.099029 -1.065190 -1.240131
H 0.802899 -0.045897 -2.162474
O -0.365631 1.506889 0.662663
H 0.331713 1.736629 1.279929
H -0.073715 0.730886 0.180281
6
Structure 1393 | Energy: -10.139971 Hartree
O 0.315839 1.801051 -0.797695
H 0.132794 1.544318 -1.703603
H 1.186542 2.203357 -0.786876
O 0.612688 -0.948531 1.475720
H 1.378620 -0.567248 1.042062
H 0.450919 -1.801672 1.068204
6
Structure 1394 | Energy: -10.139962 Hartree
O -0.409919 -0.936024 -1.981197
H -0.369012 -0.108344 -2.464268
H 0.411878 -1.402305 -2.146491
O -0.324124 1.244368 1.046640
H -1.211823 1.587753 1.165660
H 0.170630 1.901105 0.552674
6
Structure 1395 | Energy: -10.139961 Hartree
O -0.402532 -1.481566 0.652619
H -0.216954 -1.811449 1.533995
H -0.356669 -0.524264 0.692127
O 1.686023 0.631814 -1.162096
H 1.827386 1.413058 -1.700390
H 2.076816 0.804124 -0.303214
6
Structure 1396 | Energy: -10.139959 Hartree
O -0.840211 1.432111 -1.039591
H -1.289244 1.976339 -0.389766
H 0.101223 1.508673 -0.872466
O 1.084909 -0.695775 0.526587
H 0.697127 0.069761 0.955150
H 1.382926 -0.415110 -0.340881
6
Structure 1397 | Energy: -10.139958 Hartree
O 0.833048 -0.608802 1.466212
H 0.147351 -0.849939 0.840305
H 1.623739 -1.093942 1.222207
O 0.965921 1.889099 -0.567050
H 1.238195 0.972586 -0.644243
H 1.677260 2.427407 -0.919627
6
Structure 1398 | Energy: -10.139958 Hartree
O 1.718062 -1.094921 0.595346
H 2.358954 -1.249677 -0.101356
H 1.240347 -1.915853 0.729327
O -1.189357 0.746935 -0.794137
H -1.793379 0.050028 -0.530384
H -0.652590 0.401673 -1.510211
6
Structure 1399 | Energy: -10.139954 Hartree
O -1.216871 -0.851721 1.532218
H -1.960301 -1.024867 2.113096
H -0.938155 0.052545 1.689412
O 1.009576 0.987101 -1.237461
H 1.547624 1.751177 -1.453748
H 0.876896 0.992839 -0.287487
6
Structure 1400 | Energy: -10.139951 Hartree
O 0.465630 1.149471 1.191968
H 1.115731 1.681736 0.729206
H 0.616424 1.270264 2.131522
O -0.678231 -0.933605 -1.893391
H -1.372396 -1.312581 -1.350621
H -0.753742 -1.325531 -2.765618
6
Structure 1401 | Energy: -10.139947 Hartree
O 0.972503 0.416888 -1.513965
H 0.627425 -0.253361 -2.107070
H 0.570040 1.251154 -1.763192
O -2.063316 -0.063912 0.282193
H -2.627968 0.309894 -0.397164
H -2.634040 -0.365311 0.991785
6
Structure 1402 | Energy: -10.139933 Hartree
O -1.570916 -0.131098 1.332451
H -0.982314 -0.874937 1.475058
H -1.894738 0.143839 2.192475
O 0.761976 0.799513 -0.761433
H 1.646042 0.462062 -0.604457
H 0.260554 0.097916 -1.181462
6
Structure 1403 | Energy: -10.139930 Hartree
O -1.526826 0.131584 1.567250
H -1.452384 1.065398 1.773494
H -1.911606 0.063968 0.691201
O 0.522592 -0.395734 0.000297
H 0.919034 -1.102885 0.512995
H 0.261422 -0.768888 -0.843879
6
Structure 1404 | Energy: -10.139928 Hartree
O -0.588238 1.635076 0.752542
H -1.516869 1.737272 0.535086
H -0.088323 2.139345 0.107648
O -0.507504 -1.399422 -0.433027
H -0.174681 -2.298614 -0.405261
H 0.066296 -0.902120 -1.019143
6
Structure 1405 | Energy: -10.139915 Hartree
O 0.439704 -1.690313 0.674617
H 0.999303 -2.034032 -0.024520
H -0.171700 -1.071365 0.270662
O 1.126590 1.402509 -0.825998
H 0.451219 1.695356 -0.211018
H 0.828850 0.570926 -1.200041
6
Structure 1406 | Energy: -10.139914 Hartree
O -0.146909 0.059022 -0.908644
H -0.620280 -0.744429 -1.133306
H 0.785753 -0.110297 -1.055489
O 1.378861 -0.973739 1.123973
H 0.511779 -1.290429 0.863275
H 1.950406 -1.740372 1.199461
6
Structure 1407 | Energy: -10.139907 Hartree
O -1.186925 0.344549 0.982487
H -0.683441 -0.451899 1.162099
H -2.048777 0.069852 0.663358
O 1.806536 0.967949 0.463819
H 2.242095 0.509433 -0.257388
H 1.971059 1.905441 0.344956
6
Structure 1408 | Energy: -10.139899 Hartree
O -2.154189 -0.668783 -0.292561
H -1.464250 -1.131821 0.186674
H -2.948681 -0.709494 0.243364
O 1.087555 -0.613472 -1.194284
H 1.502653 0.205263 -1.472587
H 1.202452 -0.681644 -0.244421
6
Structure 1409 | Energy: -10.139897 Hartree
O 1.795173 -0.171160 -0.411833
H 2.123803 -1.055288 -0.586203
H 1.334985 -0.199926 0.429292
O -0.166823 -0.866443 -1.679748
H -0.693168 -1.149700 -2.429957
H -0.207870 0.091411 -1.649415
6
Structure 1410 | Energy: -10.139897 Hartree
O -1.041063 -0.645571 -1.769952
H -1.564316 -1.387563 -1.460535
H -0.935470 -0.748091 -2.717808
O -1.546040 0.890075 0.210011
H -1.723728 1.692238 -0.285014
H -0.594317 0.821871 0.308290
6
Structure 1411 | Energy: -10.139896 Hartree
O 1.838132 0.194802 1.317205
H 1.083436 0.570269 1.774966
H 1.516313 -0.169624 0.490333
O -1.496182 1.036735 0.006170
H -0.918267 0.756326 0.718541
H -0.946969 1.465457 -0.653110
6
Structure 1412 | Energy: -10.139896 Hartree
O 0.487079 -0.148029 0.330034
H 0.336120 0.412264 1.093820
H -0.027554 -0.947332 0.457937
O 0.168848 0.329171 -2.162981
H -0.253279 0.972561 -2.735647
H 0.652394 0.818140 -1.494266
6
Structure 1413 | Energy: -10.139895 Hartree
O 1.061667 -1.800517 -0.959673
H 1.351311 -1.730107 -1.871393
H 0.126929 -2.015320 -0.974370
O 0.349321 0.115869 1.443482
H 0.970170 -0.258856 2.071348
H -0.525665 -0.187044 1.693941
6
Structure 1414 | Energy: -10.139892 Hartree
O -1.837176 0.495047 -0.344959
H -1.353150 -0.124832 -0.894100
H -2.137959 0.014354 0.428704
O 1.699735 -0.119500 0.766096
H 1.776917 -0.773609 0.068764
H 0.969636 -0.387594 1.327496
6
Structure 1415 | Energy: -10.139892 Hartree
O 0.905364 -1.995184 -0.542388
H 0.375840 -1.907565 -1.337380
H 1.428451 -1.195389 -0.459927
O -0.479415 1.654273 0.313754
H -0.887776 2.176162 -0.379760
H -0.004211 0.938100 -0.112116
6
Structure 1416 | Energy: -10.139891 Hartree
O 1.640202 0.091202 -1.182926
H 0.872031 -0.122290 -1.716238
H 1.977116 0.933518 -1.494508
O -1.075787 -0.349022 1.317516
H -1.553957 -0.362189 2.148941
H -1.206109 0.518061 0.928581
6
Structure 1417 | Energy: -10.139888 Hartree
O -0.476221 -1.602300 0.399125
H 0.017175 -0.808402 0.614466
H -1.203403 -1.662456 1.021764
O 0.966656 1.774459 -1.238503
H 1.738040 1.639651 -0.684536
H 0.193700 1.629300 -0.689361
6
Structure 1418 | Energy: -10.139884 Hartree
O -0.397412 0.131660 -0.420490
H -0.783443 0.695566 -1.093599
H 0.111713 0.695760 0.164893
O 0.504222 -1.911563 1.149892
H -0.221196 -2.507238 0.952337
H 1.292547 -2.280470 0.746731
6
Structure 1419 | Energy: -10.139883 Hartree
O -1.770793 0.409564 0.421264
H -2.665648 0.560471 0.731985
H -1.822243 -0.226526 -0.294860
O 1.516801 -0.498780 -0.213390
H 1.881717 -1.314416 -0.562190
H 1.940733 -0.336407 0.631598
6
Structure 1420 | Energy: -10.139877 Hartree
O -1.405199 -0.900830 1.419064
H -1.953128 -1.594393 1.791662
H -1.708932 -0.069445 1.788706
O 0.501635 1.523674 -0.613499
H 0.230318 1.824564 -1.482947
H 1.460611 1.503628 -0.606308
6
Structure 1421 | Energy: -10.139875 Hartree
O -1.590678 0.176316 1.204378
H -1.201295 -0.462813 1.804362
H -1.632866 -0.235408 0.339050
O 1.237408 -0.551647 -0.637015
H 1.868599 -0.587187 0.084388
H 0.393790 -0.849740 -0.291274
6
Structure 1422 | Energy: -10.139872 Hartree
O 0.290211 1.722697 -0.403065
H -0.508973 2.153360 -0.712776
H 0.886710 1.658708 -1.151519
O -0.531935 -1.836187 0.853536
H -1.275646 -2.430701 0.969872
H 0.074699 -1.994701 1.579454
6
Structure 1423 | Energy: -10.139869 Hartree
O 1.490269 -0.600050 0.238929
H 1.376714 0.269290 0.628081
H 2.179110 -1.045882 0.735741
O -0.793659 0.770997 -1.730906
H -0.259880 0.853320 -0.938195
H -0.993016 1.659420 -2.032650
6
Structure 1424 | Energy: -10.139867 Hartree
O -1.196996 -0.360008 -0.052313
H -2.064311 0.032089 0.066472
H -0.599797 0.344543 -0.311257
O 1.727627 -0.910374 0.538674
H 2.660819 -0.699018 0.471083
H 1.493459 -0.868443 1.467919
6
Structure 1425 | Energy: -10.139856 Hartree
O 0.643382 1.937072 -0.568831
H 0.194848 1.397377 0.085105
H 1.582887 1.887764 -0.381774
O -0.770191 -0.612729 1.492016
H 0.057356 -0.149760 1.347404
H -1.257851 -0.587463 0.666402
6
Structure 1426 | Energy: -10.139855 Hartree
O -0.120543 1.291566 -1.169266
H 0.809584 1.496397 -1.055273
H -0.394670 1.671888 -2.006105
O 0.280230 -1.444331 1.591328
H 0.005732 -1.641415 2.489046
H 0.147245 -2.240055 1.072458
6
Structure 1427 | Energy: -10.139847 Hartree
O 1.412879 -0.626356 -1.366608
H 1.267651 0.287431 -1.619569
H 1.984087 -0.620432 -0.596040
O -0.503894 0.109778 0.815976
H -0.202695 -0.141049 1.691449
H -0.994457 0.928881 0.908200
6
Structure 1428 | Energy: -10.139841 Hartree
O -1.328606 0.212556 -0.085666
H -1.690863 0.910899 0.463127
H -1.227462 -0.562299 0.470626
O 1.563046 0.199439 -1.259197
H 2.244497 -0.111075 -1.858607
H 1.140530 -0.575456 -0.883557
6
Structure 1429 | Energy: -10.139831 Hartree
O -0.792676 -1.208379 -0.893663
H -1.348608 -1.667282 -0.260864
H -0.645152 -1.806837 -1.628629
O -0.883715 2.048700 0.473969
H -1.381561 2.045560 1.293864
H 0.031783 1.869053 0.696854
6
Structure 1430 | Energy: -10.139826 Hartree
O 1.947708 -1.086993 0.370229
H 1.209651 -0.999428 0.976604
H 1.651491 -0.770321 -0.485379
O -0.430492 1.037428 -1.839844
H -0.572016 0.515996 -1.047274
H 0.182794 0.550932 -2.394181
6
Structure 1431 | Energy: -10.139822 Hartree
O 0.721737 -2.113070 0.534791
H 1.204458 -1.431571 1.006623
H -0.039598 -1.693131 0.129687
O 0.113568 0.934913 -0.359743
H 0.478964 0.696355 0.494459
H -0.783579 0.596774 -0.389387
6
Structure 1432 | Energy: -10.139817 Hartree
O -2.141084 -0.512972 0.480776
H -1.750682 -1.216506 1.002995
H -1.468178 0.160420 0.363173
O 0.689995 1.232719 -0.928965
H -0.264649 1.271134 -1.014214
H 0.883650 0.783927 -0.103634
6
Structure 1433 | Energy: -10.139815 Hartree
O -1.007818 -1.225291 -0.233194
H -0.637848 -0.511192 0.289559
H -0.692649 -1.112121 -1.132056
O 2.152673 0.374989 -0.745955
H 2.358755 -0.371896 -1.311445
H 1.201667 0.382781 -0.620992
6
Structure 1434 | Energy: -10.139813 Hartree
O -0.336739 0.320491 1.574711
H 0.137405 0.882349 0.958604
H -1.167736 0.081497 1.159479
O 0.228419 -2.012635 -0.236689
H 0.869707 -2.646340 -0.564188
H -0.529375 -2.046108 -0.823814
6
Structure 1435 | Energy: -10.139812 Hartree
O -0.654052 -0.845498 -1.637946
H -0.138671 -0.370279 -0.983244
H -0.616382 -0.338814 -2.451545
O -1.071425 0.740896 1.884126
H -0.998078 1.657263 1.610304
H -0.222419 0.326216 1.718851
6
Structure 1436 | Energy: -10.139810 Hartree
O -1.549899 -0.708886 -1.230242
H -1.527898 0.248072 -1.168333
H -2.384231 -0.998633 -0.856041
O -0.396236 0.079437 1.596882
H -0.888742 0.147449 0.776577
H -0.791176 0.695302 2.217221
6
Structure 1437 | Energy: -10.139805 Hartree
O 1.076927 0.784596 -1.422250
H 1.265784 1.659769 -1.078025
H 0.293482 0.464696 -0.970621
O -0.023595 -1.200555 0.439153
H -0.774675 -0.606372 0.493130
H 0.558409 -0.990004 1.171974
6
Structure 1438 | Energy: -10.139804 Hartree
O 0.951018 -0.994738 -0.609536
H 0.082604 -1.042591 -0.204995
H 1.300316 -1.887612 -0.638847
O 1.158121 1.033066 1.291844
H 1.055963 0.455096 2.050528
H 2.095836 1.081372 1.095772
6
Structure 1439 | Energy: -10.139804 Hartree
O 0.082389 -2.305861 -0.383854
H -0.808036 -2.659580 -0.337878
H 0.271089 -1.900303 0.464677
O -1.314248 -0.404303 -1.160392
H -1.435448 -0.394179 -2.111862
H -0.626883 0.232370 -0.954807
6
Structure 1440 | Energy: -10.139803 Hartree
O -1.273620 -0.005151 -1.169741
H -2.204669 0.139762 -1.349283
H -0.806065 0.087285 -2.002171
O 1.886395 -0.261001 0.902547
H 2.812778 -0.471290 1.035517
H 1.405082 -0.609507 1.655520
6
Structure 1441 | Energy: -10.139801 Hartree
O 1.723770 -0.461035 -0.443605
H 2.300566 -0.838675 0.223313
H 1.604970 -1.125153 -1.125459
O -1.269917 -0.276381 -0.944568
H -0.810634 -0.807212 -0.290836
H -1.964092 -0.823191 -1.317673
6
Structure 1442 | Energy: -10.139797 Hartree
O 1.293675 0.737161 -0.006897
H 1.774251 1.464994 0.392342
H 0.373118 1.000986 -0.062223
O -0.001261 -1.013282 -1.706498
H -0.036563 -1.536439 -2.509709
H 0.322814 -0.143400 -1.948097
6
Structure 1443 | Energy: -10.139793 Hartree
O -1.198424 0.616701 -1.066501
H -1.965454 0.144076 -1.395706
H -1.105661 1.411295 -1.595751
O -0.973800 -1.718864 0.278680
H -0.019927 -1.619178 0.295290
H -1.254005 -1.618991 -0.633240
6
Structure 1444 | Energy: -10.139792 Hartree
O 0.971076 0.908819 0.062034
H 1.620361 0.697610 0.735759
H 1.322253 1.638525 -0.452061
O 0.565858 -1.615505 -1.063913
H 0.184757 -1.541565 -0.186769
H 0.357709 -2.492865 -1.391025
6
Structure 1445 | Energy: -10.139789 Hartree
O -1.016565 -1.177523 -0.150065
H -1.437122 -1.431156 0.673882
H -0.524552 -1.938767 -0.463948
O 0.047010 0.589817 1.910146
H 0.843468 0.643382 1.378287
H 0.314228 0.343220 2.797768
6
Structure 1446 | Energy: -10.139787 Hartree
O -0.184141 -2.144706 0.327387
H -0.702707 -1.388033 0.607783
H 0.329900 -2.432954 1.084200
O -0.039643 0.031394 -1.539657
H -0.857497 0.532482 -1.550310
H 0.177772 -0.176871 -2.450395
6
Structure 1447 | Energy: -10.139779 Hartree
O 0.229407 0.225345 2.274546
H 0.901873 -0.392927 2.567146
H -0.551371 -0.286927 2.055334
O -0.344064 -0.961026 -0.804642
H 0.531419 -1.115180 -0.444290
H -0.975428 -1.334676 -0.186699
6
Structure 1448 | Energy: -10.139779 Hartree
O 0.404757 0.784386 -1.358951
H 0.334565 1.335923 -2.140594
H -0.258105 1.088818 -0.736034
O -0.300904 -1.066707 1.561371
H -0.384372 -0.828946 2.486892
H -1.050572 -1.623619 1.342432
6
Structure 1449 | Energy: -10.139770 Hartree
O 0.234506 -0.626527 1.415274
H 0.918941 -0.398591 0.783071
H 0.591711 -1.308956 1.986925
O -1.459240 -0.605175 -0.771214
H -0.514192 -0.531293 -0.624543
H -1.743529 -1.433507 -0.379890
6
Structure 1450 | Energy: -10.139770 Hartree
O 1.322194 1.075860 1.155430
H 1.824531 1.865617 0.945600
H 0.572823 1.349072 1.688242
O 1.293638 -0.136239 -1.046055
H 1.176425 -0.514450 -0.172382
H 0.672849 -0.574904 -1.631105
6
Structure 1451 | Energy: -10.139766 Hartree
O -1.459425 0.635254 0.224733
H -1.173209 0.735242 -0.685305
H -2.135066 -0.045521 0.236838
O 0.262136 -1.899810 -1.336234
H 0.714270 -1.471893 -2.065994
H -0.675925 -1.886241 -1.536097
6
Structure 1452 | Energy: -10.139765 Hartree
O 0.792326 -1.157947 -0.245881
H 0.741927 -1.067704 -1.199507
H 0.575362 -2.068154 -0.034833
O -0.222326 1.092314 1.710369
H -0.595805 1.880551 2.109474
H -0.275352 1.203189 0.759064
6
Structure 1453 | Energy: -10.139764 Hartree
O -0.687353 1.264665 -0.910029
H -0.754752 0.733456 -1.705868
H -1.458207 1.834878 -0.882991
O 1.517628 -1.381714 0.278924
H 1.311820 -1.980225 0.999698
H 0.888328 -1.556183 -0.423664
6
Structure 1454 | Energy: -10.139756 Hartree
O -1.861798 0.538898 0.322666
H -2.109497 1.299118 -0.207237
H -2.609041 -0.062532 0.323303
O 0.269402 -0.698196 -1.188234
H 0.812852 -1.138350 -1.844751
H 0.861968 -0.232088 -0.595193
6
Structure 1455 | Energy: -10.139753 Hartree
O -2.023292 -1.016019 0.343887
H -2.075712 -0.105727 0.046049
H -2.920961 -1.316085 0.499587
O 0.478177 -0.620820 1.382091
H 0.992575 -0.994296 2.100420
H 0.693989 -1.117177 0.590167
6
Structure 1456 | Energy: -10.139753 Hartree
O -1.176048 1.689852 0.413973
H -1.832624 1.980238 1.050109
H -0.664581 0.993888 0.831257
O 0.467070 -1.323081 -1.870808
H 0.062986 -1.276778 -1.002096
H 1.129328 -2.016276 -1.839458
6
Structure 1457 | Energy: -10.139749 Hartree
O 1.149465 0.162411 -0.816677
H 0.769928 0.146756 -1.697467
H 2.078656 0.380773 -0.911609
O -1.931191 1.078463 -0.529180
H -2.422148 1.602062 0.107133
H -1.449549 1.690354 -1.089267
6
Structure 1458 | Energy: -10.139744 Hartree
O 0.684531 -0.542813 -2.072905
H 1.079309 -0.362490 -2.928311
H -0.179418 -0.927123 -2.234117
O -0.838515 0.308254 1.424025
H -0.254388 0.933372 1.857742
H -1.651845 0.280109 1.931756
6
Structure 1459 | Energy: -10.139738 Hartree
O 0.597980 0.585064 1.117633
H 1.056312 0.886342 0.330709
H -0.167855 1.150711 1.234385
O -2.010230 -0.600351 -0.635728
H -2.011913 -0.167317 -1.491629
H -2.765821 -0.267490 -0.147492
6
Structure 1460 | Energy: -10.139733 Hartree
O 0.397853 -1.325767 -0.174926
H 1.014250 -0.917722 -0.786188
H -0.371855 -1.590793 -0.682273
O -0.365853 1.639949 1.371021
H -0.206391 2.515089 1.012147
H -0.149464 1.672158 2.304952
6
Structure 1461 | Energy: -10.139729 Hartree
O -0.154119 -0.701930 -0.896981
H 0.005309 -0.240115 -1.722448
H -1.026508 -0.445246 -0.591792
O 0.110090 1.973242 0.609811
H -0.615693 2.596749 0.677385
H -0.061022 1.419934 -0.154819
6
Structure 1462 | Energy: -10.139726 Hartree
O 0.450496 -0.080796 -1.722262
H 1.277563 0.360149 -1.926254
H -0.236469 0.354524 -2.230854
O 0.547560 1.827119 1.066134
H 0.847938 1.812969 0.155277
H 0.199640 2.704545 1.236905
6
Structure 1463 | Energy: -10.139722 Hartree
O 1.383249 1.313557 -0.214895
H 1.307326 2.061107 0.381336
H 0.952042 0.568210 0.207727
O -0.345199 -1.066449 -1.917081
H -0.546499 -1.525641 -2.734826
H -0.403207 -1.710044 -1.208203
6
Structure 1464 | Energy: -10.139714 Hartree
O 0.248884 -1.703150 -0.118742
H 0.239268 -1.915846 -1.054025
H 1.163122 -1.551291 0.128642
O -0.437681 1.943438 1.041216
H 0.390407 1.785502 1.498834
H -0.227242 2.391685 0.219707
6
Structure 1465 | Energy: -10.139712 Hartree
O 0.496928 -1.600597 -0.604710
H 1.390818 -1.421930 -0.903246
H 0.049721 -2.069707 -1.311840
O 1.687607 1.193357 0.526604
H 2.530311 1.648514 0.473979
H 1.001569 1.863676 0.516044
6
Structure 1466 | Energy: -10.139712 Hartree
O 0.175272 0.025001 2.214319
H 0.409228 0.952044 2.291405
H 0.562987 -0.429173 2.964981
O -0.989536 -1.117985 -0.687051
H -1.586463 -1.616391 -0.125485
H -0.422902 -1.751265 -1.131990
6
Structure 1467 | Energy: -10.139709 Hartree
O 0.903786 -0.589135 -1.541503
H 0.419522 -0.684578 -0.719028
H 1.067087 -1.472008 -1.879081
O 1.495769 0.874266 1.229256
H 0.912338 1.485895 1.682693
H 1.696386 0.165046 1.843136
6
Structure 1468 | Energy: -10.139705 Hartree
O 0.040238 1.452838 -1.029724
H -0.254430 0.967381 -1.802762
H 0.875796 1.069923 -0.755298
O 1.706779 -1.387898 0.308771
H 2.035050 -0.489094 0.375686
H 1.917486 -1.702386 -0.572585
6
Structure 1469 | Energy: -10.139705 Hartree
O 0.738033 -0.357093 2.108831
H 0.140604 -1.050174 2.396587
H 0.317221 0.481523 2.308157
O -1.495404 0.846393 -0.554725
H -2.425343 0.691221 -0.378027
H -1.095998 1.142707 0.265495
6
Structure 1470 | Energy: -10.139702 Hartree
O -0.680881 -0.110640 1.411069
H -1.573959 -0.347530 1.153424
H -0.750563 0.516469 2.133543
O 0.201813 1.627510 -0.852458
H 0.840196 2.054763 -0.277995
H 0.582476 1.604410 -1.732601
6
Structure 1471 | Energy: -10.139690 Hartree
O 0.791631 0.661621 -1.548859
H 1.212945 0.658770 -2.410586
H -0.152383 0.749445 -1.694510
O -0.964749 -0.483319 1.951478
H -1.748700 -0.844178 1.532803
H -0.757262 -1.046841 2.699463
6
Structure 1472 | Energy: -10.139689 Hartree
O 0.639007 -1.809011 -0.163141
H -0.265161 -2.097260 -0.023570
H 0.601527 -0.921715 -0.525622
O -1.554575 0.573232 0.870186
H -0.653583 0.865002 0.717968
H -1.632851 -0.309904 0.504081
6
Structure 1473 | Energy: -10.139688 Hartree
O 0.072850 1.629084 0.516482
H 1.031568 1.632909 0.485968
H -0.183227 1.229017 1.349826
O 0.954917 -0.282896 -1.626179
H 0.370695 -0.957759 -1.274992
H 1.681673 -0.734120 -2.060128
6
Structure 1474 | Energy: -10.139675 Hartree
O -0.093618 0.540631 1.569580
H 0.230448 1.383252 1.893706
H -1.028066 0.648820 1.381982
O 0.002370 -0.778966 -1.850821
H -0.237687 -1.216691 -2.669879
H 0.495509 0.009948 -2.084308
6
Structure 1475 | Energy: -10.139669 Hartree
O 1.436581 0.886251 0.065465
H 0.526146 0.766384 0.342640
H 1.742863 0.043760 -0.275843
O -1.262997 -0.314992 -1.926904
H -0.432354 -0.525867 -2.357775
H -1.094055 -0.285779 -0.983139
6
Structure 1476 | Energy: -10.139662 Hartree
O -0.460178 -2.199420 0.318194
H -0.569956 -2.378215 -0.617791
H -0.772520 -1.306195 0.475301
O 0.501611 1.590218 -0.029663
H -0.038736 1.936127 0.683400
H -0.005494 0.899701 -0.461079
6
Structure 1477 | Energy: -10.139659 Hartree
O -1.024538 -0.280965 -1.542945
H -1.038379 0.661608 -1.365601
H -1.657056 -0.447300 -2.244618
O 1.316241 0.683425 0.459692
H 1.318770 1.513788 0.939878
H 1.724740 0.026242 1.026549
6
Structure 1478 | Energy: -10.139656 Hartree
O 0.965143 -0.505080 0.246812
H 0.848787 0.237148 -0.349547
H 0.820104 -1.304538 -0.263013
O -2.027021 0.375496 -0.766412
H -2.865739 0.652343 -1.140570
H -1.358802 0.501322 -1.442977
6
Structure 1479 | Energy: -10.139642 Hartree
O 1.348783 0.943030 -0.667405
H 1.162459 1.424941 0.140760
H 1.931141 0.216476 -0.437036
O -0.630639 -0.782166 1.544803
H -0.407346 -1.555584 2.066390
H -0.192136 -0.030795 1.948837
6
Structure 1480 | Energy: -10.139634 Hartree
O -1.751679 -0.475022 0.864072
H -2.108328 -0.953257 0.112953
H -1.850934 0.460750 0.678143
O 0.051154 1.617195 -0.264230
H -0.756637 1.936407 -0.671249
H 0.719846 1.580194 -0.950940
6
Structure 1481 | Energy: -10.139633 Hartree
O 0.047025 1.770719 -0.874090
H 0.874205 1.744173 -0.389161
H -0.591493 1.257724 -0.374870
O -0.313002 -1.396027 0.390342
H -0.885181 -0.799282 -0.096067
H -0.115529 -0.978163 1.230867
6
Structure 1482 | Energy: -10.139629 Hartree
O 1.461715 -0.549665 1.469341
H 1.602840 -1.219893 0.797803
H 1.810327 0.275047 1.125233
O -0.428917 0.691506 -0.392161
H 0.281041 0.419882 -0.977197
H -1.224869 0.242747 -0.683986
6
Structure 1483 | Energy: -10.139623 Hartree
O 1.671991 0.332859 1.210786
H 1.565995 -0.234246 1.977104
H 0.864309 0.270209 0.697155
O -1.195249 -0.333970 -1.342134
H -1.699631 0.288287 -0.814419
H -0.621119 -0.814796 -0.742744
6
Structure 1484 | Energy: -10.139621 Hartree
O -1.004778 0.014834 1.339025
H -0.176417 0.135423 1.807385
H -1.067471 0.716125 0.687602
O 0.250863 -0.416998 -0.829983
H 0.911877 -1.002350 -0.455136
H 0.479529 -0.283704 -1.751955
6
Structure 1485 | Energy: -10.139618 Hartree
O -0.848216 -0.803162 1.612676
H -1.558287 -1.258313 1.155813
H -0.999842 -0.912365 2.553513
O 1.476770 0.742484 -0.400429
H 1.203998 1.644196 -0.219876
H 1.010803 0.457224 -1.188839
6
Structure 1486 | Energy: -10.139618 Hartree
O -0.575438 0.937934 -1.601103
H -0.763666 1.034368 -2.536708
H -0.433066 0.004039 -1.434785
O 0.903102 -0.514518 1.105165
H 0.292823 -1.251811 1.168765
H 1.762850 -0.832202 1.388007
6
Structure 1487 | Energy: -10.139614 Hartree
O 0.091349 -1.491441 -0.046586
H 0.822388 -1.220221 0.512079
H 0.167018 -1.004658 -0.869634
O -1.208535 0.457886 1.512540
H -1.168766 1.412801 1.594049
H -1.817504 0.140738 2.182362
6
Structure 1488 | Energy: -10.139614 Hartree
O -0.662829 0.459114 -1.484324
H -0.032038 0.709981 -0.806640
H -1.532207 0.719119 -1.173407
O 1.474912 -0.790475 1.629183
H 0.859553 -0.124341 1.316635
H 1.215731 -1.019103 2.523969
6
Structure 1489 | Energy: -10.139614 Hartree
O -0.080059 0.669357 -0.490829
H 0.819522 0.969775 -0.634322
H -0.480216 1.264782 0.145909
O -0.049314 -1.696253 1.398582
H -0.536881 -1.970651 2.177730
H 0.066958 -2.473096 0.848052
6
Structure 1490 | Energy: -10.139614 Hartree
O 1.562525 -1.656360 0.230235
H 2.084071 -2.409628 0.514249
H 0.639342 -1.906466 0.302839
O -1.215752 0.659896 -1.121842
H -1.819292 -0.041413 -1.374807
H -1.748545 1.421905 -0.886126
6
Structure 1491 | Energy: -10.139605 Hartree
O -0.691953 1.762483 -0.857461
H -1.189542 2.291135 -0.230550
H -0.648351 2.259583 -1.676657
O 0.618826 -0.204432 1.752490
H 0.324974 -0.731879 2.497834
H 1.238488 -0.739447 1.252623
6
Structure 1492 | Energy: -10.139603 Hartree
O -1.873428 0.250063 0.618386
H -1.140623 0.863728 0.537773
H -1.514398 -0.634698 0.526804
O 1.701999 -0.480157 -0.244811
H 1.975699 0.412239 -0.023892
H 0.822233 -0.605082 0.116429
6
Structure 1493 | Energy: -10.139593 Hartree
O -0.744435 1.343706 -1.454183
H -0.353843 0.482499 -1.614950
H -0.657180 1.524561 -0.516224
O 1.309924 -0.380705 0.681143
H 0.747238 -0.987255 1.166498
H 0.844442 -0.143355 -0.123269
6
Structure 1494 | Energy: -10.139580 Hartree
O 0.989825 -1.087548 0.458456
H 0.985130 -0.771268 1.364012
H 1.897198 -1.051057 0.149533
O -1.634376 -0.721922 1.153714
H -2.421606 -1.085911 0.743996
H -1.240195 -1.419493 1.681069
6
Structure 1495 | Energy: -10.139569 Hartree
O -1.071234 -1.728855 -0.514759
H -0.356483 -1.432249 0.052023
H -1.805034 -1.124591 -0.386330
O 1.030754 0.724603 1.200978
H 1.307955 0.868213 2.107964
H 0.363274 0.035837 1.213624
6
Structure 1496 | Energy: -10.139562 Hartree
O 0.294377 -0.986511 -0.004057
H 0.472316 -1.891493 -0.267555
H 1.122945 -0.506406 -0.059415
O 0.726347 2.181990 0.412611
H 0.451528 2.038876 -0.495178
H 1.446426 1.573815 0.590646
6
Structure 1497 | Energy: -10.139561 Hartree
O 1.853800 -0.953794 -0.503284
H 1.710678 -0.699631 -1.417069
H 1.901157 -0.146188 0.012101
O -1.272778 0.196198 0.499933
H -0.656384 0.532493 1.153425
H -1.234618 0.785253 -0.256140
6
Structure 1498 | Energy: -10.139556 Hartree
O -0.408323 1.605873 -1.146245
H -0.676588 0.701028 -1.317636
H -0.818890 2.155671 -1.816505
O 1.314887 -0.981063 1.614882
H 1.394973 -1.632137 2.314722
H 1.224658 -1.461062 0.789323
6
Structure 1499 | Energy: -10.139552 Hartree
O 1.206938 0.267312 1.964142
H 0.293765 -0.021794 1.912970
H 1.733712 -0.367469 1.474598
O -0.848277 -1.639287 -0.283416
H 0.107203 -1.711358 -0.327603
H -1.084541 -1.558805 0.642754
6
Structure 1500 | Energy: -10.139549 Hartree
O 1.024538 -1.071000 0.260309
H 0.432160 -0.911478 -0.477069
H 1.834718 -0.588981 0.083230
O 1.115325 1.769841 0.037019
H 0.432142 1.610297 -0.617116
H 1.903351 2.043845 -0.436294
6
Structure 1501 | Energy: -10.139545 Hartree
O -0.938620 -1.156076 0.850929
H -0.439266 -0.909963 0.069800
H -0.447944 -1.850719 1.294550
O -0.913022 0.750713 -1.918033
H -0.067794 0.297513 -1.934924
H -1.036973 1.152883 -2.779998
6
Structure 1502 | Energy: -10.139543 Hartree
O -0.174217 -1.772978 -0.394820
H 0.689365 -1.387472 -0.555127
H -0.176872 -2.642348 -0.800136
O -1.069711 1.514533 -0.822199
H -1.793688 1.965564 -1.260965
H -0.789202 2.070466 -0.092582
6
Structure 1503 | Energy: -10.139538 Hartree
O -1.342036 -0.927407 -1.221921
H -1.780074 -0.129218 -0.920087
H -0.934376 -1.334962 -0.455238
O 0.076278 1.445493 0.493830
H -0.395750 0.623054 0.349361
H 0.606620 1.333396 1.285195
6
Structure 1504 | Energy: -10.139533 Hartree
O -0.401560 -0.111725 -0.205501
H -0.312565 -0.895466 0.340316
H -1.340149 0.048901 -0.321008
O 1.477966 1.716024 -0.169395
H 1.812681 1.252790 -0.939763
H 0.780616 2.301626 -0.470827
6
Structure 1505 | Energy: -10.139533 Hartree
O -2.001384 0.617040 0.211095
H -2.611268 1.106066 0.766955
H -2.518889 0.202005 -0.481743
O 1.057915 -0.398370 -1.130496
H 1.558001 0.407100 -1.276162
H 1.641961 -1.019867 -0.691499
6
Structure 1506 | Energy: -10.139532 Hartree
O 0.479071 0.371772 -0.417924
H 0.933538 1.137151 -0.775332
H -0.172262 0.099317 -1.067250
O -0.289870 -0.780696 2.113288
H 0.329130 -1.306565 2.623571
H -0.536750 -1.298896 1.344779
6
Structure 1507 | Energy: -10.139530 Hartree
O -1.157577 1.387308 0.475255
H -0.540380 0.726442 0.795272
H -2.037715 1.097870 0.723596
O 1.539818 -0.845247 -0.947619
H 0.712072 -0.569504 -0.549010
H 1.999104 -1.386837 -0.302774
6
Structure 1508 | Energy: -10.139527 Hartree
O -1.852849 1.365758 0.285902
H -1.069300 0.824610 0.170594
H -1.599378 2.273878 0.109377
O 0.074875 -0.614755 -1.965597
H 0.307371 -0.386053 -1.063528
H -0.352291 0.152252 -2.352011
6
Structure 1509 | Energy: -10.139526 Hartree
O -1.187442 -1.800276 0.268000
H -1.921985 -1.743747 0.882278
H -1.499614 -2.274384 -0.505215
O -0.690224 1.273908 0.020647
H -1.096644 1.773740 -0.690041
H 0.259555 1.324139 -0.103783
6
Structure 1510 | Energy: -10.139513 Hartree
O 0.506632 -0.334509 -1.091376
H 0.614153 -1.018883 -0.427933
H 0.879963 0.472046 -0.730565
O -1.122111 1.085835 1.683710
H -0.186833 0.969825 1.505154
H -1.260253 0.890954 2.612702
6
Structure 1511 | Energy: -10.139512 Hartree
O 1.187938 1.564881 -0.087622
H 0.911469 0.647383 -0.044627
H 1.710732 1.741085 0.697062
O -0.362663 -0.915371 -2.134970
H 0.456133 -0.700717 -1.683766
H -0.496132 -1.861142 -2.046702
6
Structure 1512 | Energy: -10.139512 Hartree
O -1.778659 1.237561 0.133849
H -2.734535 1.191195 0.198942
H -1.467210 1.747044 0.884527
O 0.265147 -0.861695 -0.237143
H 0.883103 -0.799133 -0.968104
H -0.442692 -1.447356 -0.512921
6
Structure 1513 | Energy: -10.139486 Hartree
O -0.971314 0.546280 -1.808430
H -0.676528 0.331196 -0.921341
H -1.586736 -0.138660 -2.077137
O 0.858915 -1.028078 1.315671
H 0.115462 -1.074410 0.711337
H 0.898430 -0.129525 1.649031
6
Structure 1514 | Energy: -10.139484 Hartree
O -1.605397 1.121662 -0.936334
H -1.000210 0.961595 -0.209551
H -2.468962 0.807451 -0.661344
O -0.321220 -1.780804 0.019856
H 0.103610 -0.924566 -0.060548
H -1.069518 -1.672323 0.610085
6
Structure 1515 | Energy: -10.139474 Hartree
O 0.959127 0.723856 -0.998160
H 0.342920 0.368513 -1.641671
H 1.779375 0.235203 -1.090369
O -2.061291 -0.612256 0.569477
H -2.911742 -0.734668 0.143054
H -1.447760 -1.226146 0.161056
6
Structure 1516 | Energy: -10.139473 Hartree
O -0.555365 -1.299243 1.537625
H -0.383414 -2.166381 1.165348
H -0.023687 -1.220695 2.332130
O 1.189060 0.975521 -0.907674
H 1.583998 0.119310 -0.731567
H 1.903200 1.579210 -1.121336
6
Structure 1517 | Energy: -10.139472 Hartree
O 1.531364 0.477616 -0.454143
H 1.388051 1.263196 0.077281
H 2.087532 -0.113548 0.057026
O -0.819945 -1.017928 1.587881
H -0.561910 -1.866163 1.953944
H -0.130256 -0.390128 1.812123
6
Structure 1518 | Energy: -10.139468 Hartree
O 1.776917 -0.628893 -1.181141
H 2.372141 -0.625441 -0.428955
H 1.350124 -1.487680 -1.201699
O -0.394122 0.166923 0.832082
H -0.463586 -0.180528 1.723452
H -0.753501 -0.496505 0.239800
6
Structure 1519 | Energy: -10.139459 Hartree
O -0.107812 1.313316 -1.245896
H 0.189436 0.557801 -0.735085
H -0.244885 1.011455 -2.145997
O -1.813244 -1.091268 0.060133
H -0.919565 -1.439358 0.044069
H -2.140398 -1.106834 -0.841430
6
Structure 1520 | Energy: -10.139456 Hartree
O -1.324874 -0.016498 0.907450
H -1.889432 -0.294138 0.183381
H -0.916736 -0.806012 1.268256
O 0.570299 1.942774 -0.855425
H 0.680258 0.990867 -0.898669
H 1.437399 2.334670 -0.976435
6
Structure 1521 | Energy: -10.139440 Hartree
O -0.638627 1.784134 0.329649
H -0.271314 2.205769 1.109003
H -0.865028 2.480478 -0.289978
O -0.069724 -0.692778 -1.080483
H -0.068786 -1.624670 -0.853189
H -0.977698 -0.447163 -1.268487
6
Structure 1522 | Energy: -10.139439 Hartree
O -1.849006 -0.741415 0.331338
H -1.968512 -0.055644 -0.328603
H -1.904344 -1.584822 -0.122197
O 0.235006 0.757699 -0.982952
H -0.225934 0.493234 -1.781500
H 1.132894 0.427066 -1.050526
6
Structure 1523 | Energy: -10.139438 Hartree
O -1.607919 0.543860 -1.469105
H -2.104581 -0.260131 -1.304754
H -2.219798 1.186139 -1.834031
O 0.684613 -1.531434 0.425873
H 1.269949 -1.851046 -0.263559
H 0.122138 -2.264510 0.683381
6
Structure 1524 | Energy: -10.139434 Hartree
O 0.287665 -0.119738 -0.295708
H 1.240616 -0.011285 -0.281237
H -0.097509 0.716502 -0.026571
O -0.703970 0.842096 1.996922
H -0.794271 1.730863 1.647599
H -1.486227 0.352908 1.734514
6
Structure 1525 | Energy: -10.139429 Hartree
O 0.353280 1.819240 0.173421
H 1.253592 1.565721 0.386148
H -0.194072 1.579910 0.923899
O -1.297181 -0.265046 -1.755107
H -0.503085 -0.525202 -1.284132
H -1.747747 -1.069846 -2.018499
6
Structure 1526 | Energy: -10.139429 Hartree
O -1.764971 -1.340075 -0.258110
H -2.040927 -0.524417 -0.680764
H -2.351810 -1.486925 0.486300
O 0.608028 -0.370522 -0.511762
H 0.908794 -1.079680 0.059835
H 1.122303 -0.419625 -1.319969
6
Structure 1527 | Energy: -10.139419 Hartree
O 1.572990 0.017537 -0.705620
H 1.255003 0.793473 -1.171339
H 2.505108 0.155917 -0.526461
O -0.762307 -0.602480 0.591500
H -0.186916 0.163964 0.551791
H -1.517469 -0.420210 0.028833
6
Structure 1528 | Energy: -10.139418 Hartree
O 0.871770 1.321332 -0.324510
H 1.098652 0.523319 -0.805952
H 1.151886 2.065813 -0.860582
O -2.078255 -0.078906 0.854467
H -3.028018 -0.009808 0.739309
H -1.918165 -0.282427 1.778067
6
Structure 1529 | Energy: -10.139407 Hartree
O 0.554996 0.993049 -0.175770
H 0.470065 0.684209 0.728382
H 1.165371 1.732953 -0.167048
O -1.497860 -0.673172 0.174966
H -1.465861 -1.597268 0.430132
H -2.066664 -0.610585 -0.594860
6
Structure 1530 | Energy: -10.139387 Hartree
O 0.726310 1.939139 0.903606
H 0.104268 1.914794 0.173841
H 0.908695 2.862078 1.090716
O 0.950281 -1.381436 -0.376093
H 0.140534 -1.788586 -0.690140
H 1.574652 -2.088444 -0.201769
6
Structure 1531 | Energy: -10.139382 Hartree
O 0.989403 1.992570 -0.104030
H 1.396429 2.758284 0.305967
H 1.692299 1.478357 -0.506041
O -1.032503 -0.136338 1.269497
H -1.502540 -0.603929 0.576308
H -1.689720 0.309300 1.807605
6
Structure 1532 | Energy: -10.139371 Hartree
O 0.436037 -1.054655 1.261245
H 0.202597 -0.797049 2.155242
H 1.285583 -0.655663 1.063336
O -1.405351 0.189055 -1.679166
H -1.855949 0.795403 -2.270260
H -0.520623 0.532620 -1.540214
6
Structure 1533 | Energy: -10.139362 Hartree
O -0.615151 0.117439 -1.237358
H -1.210446 -0.010329 -1.978564
H 0.023547 -0.597871 -1.259423
O 1.447661 -0.792572 0.781459
H 1.059810 -1.663666 0.885639
H 2.400290 -0.900114 0.813408
6
Structure 1534 | Energy: -10.139361 Hartree
O -0.297357 1.986862 0.311070
H -0.225856 1.403685 -0.447137
H -1.058834 2.551421 0.164385
O 1.487204 -0.441799 -0.500594
H 0.820108 -0.480550 -1.188758
H 1.337164 -1.188256 0.082825
6
Structure 1535 | Energy: -10.139337 Hartree
O -1.401750 -0.452410 -0.352628
H -0.763582 -0.114980 0.279012
H -1.161382 -1.361694 -0.541089
O 1.331450 0.851220 1.324315
H 1.343249 0.180586 0.638605
H 0.483679 0.788293 1.768626
6
Structure 1536 | Energy: -10.139327 Hartree
O 0.720850 -0.660171 0.105445
H 0.724065 -0.700218 1.063815
H -0.186906 -0.517773 -0.169860
O 0.256386 1.728096 -1.133743
H 0.600100 2.480943 -1.618686
H 0.130435 2.008887 -0.225239
6
Structure 1537 | Energy: -10.139311 Hartree
O 1.186471 0.262027 -0.186524
H 1.666405 1.087258 -0.093021
H 1.216778 0.019323 -1.114030
O -1.815982 -0.978974 -0.727286
H -2.366650 -1.214730 0.021893
H -2.237759 -1.333373 -1.512521
6
Structure 1538 | Energy: -10.139311 Hartree
O -1.382988 -1.642646 0.026709
H -0.503003 -1.342100 0.262051
H -1.556961 -1.340176 -0.866787
O 0.242751 0.714983 2.035350
H 0.659285 0.413719 1.225518
H 0.803153 1.399992 2.405214
6
Structure 1539 | Energy: -10.139309 Hartree
O -2.008846 0.217644 0.979646
H -2.962428 0.135059 1.042472
H -1.664484 0.221697 1.874905
O 0.876092 0.270229 1.281885
H 1.617960 -0.313848 1.450921
H 1.226207 1.160262 1.208756
6
Structure 1540 | Energy: -10.139290 Hartree
O -1.106448 -0.147200 1.836561
H -0.736405 -1.031808 1.861518
H -1.741338 -0.125051 1.117871
O -0.095788 1.358104 -0.975208
H 0.163191 0.434598 -0.962780
H -1.020098 1.390516 -1.229547
6
Structure 1541 | Energy: -10.139284 Hartree
O 0.844074 -1.134317 -0.426241
H 1.489098 -0.512223 -0.084146
H 0.862862 -1.905375 0.144028
O -1.765677 0.574809 0.706680
H -2.228885 0.116785 1.410768
H -2.323672 1.302868 0.426218
6
Structure 1542 | Energy: -10.139281 Hartree
O -1.556434 0.016669 1.495061
H -1.817539 -0.827607 1.122090
H -0.976240 0.440645 0.859679
O 0.543464 1.248837 -1.923080
H 0.034373 0.931123 -1.174768
H 0.048150 1.033221 -2.715710
6
Structure 1543 | Energy: -10.139280 Hartree
O -0.480715 -1.418518 1.098052
H -1.022686 -0.663623 0.860384
H -1.047533 -2.042156 1.556184
O 0.573833 2.043195 0.286359
H 0.515131 2.515382 1.119234
H -0.305215 1.718734 0.081206
6
Structure 1544 | Energy: -10.139275 Hartree
O -1.296499 -1.318898 -1.031994
H -0.798424 -1.950573 -0.509506
H -2.073401 -1.079160 -0.523033
O 0.989086 0.641083 0.127402
H 0.803877 1.540432 0.404809
H 0.477441 0.058548 0.692167
6
Structure 1545 | Energy: -10.139262 Hartree
O 1.521078 -1.650292 -0.429818
H 1.591827 -1.158277 0.390550
H 1.939812 -1.123959 -1.113723
O -0.977365 -0.006875 0.421980
H -1.408021 0.822899 0.636683
H -0.149715 0.206913 -0.013198
6
Structure 1546 | Energy: -10.139255 Hartree
O -1.249098 -0.305951 1.489291
H -1.879005 0.396124 1.663630
H -1.743023 -1.050574 1.140485
O 0.669736 1.100751 -1.169882
H 0.431686 1.348988 -2.065313
H 1.478791 1.567385 -0.951317
6
Structure 1547 | Energy: -10.139241 Hartree
O -1.641231 0.391617 0.983572
H -1.694070 -0.470491 1.400781
H -0.730382 0.684626 1.051325
O -0.707508 -0.164860 -1.482178
H -0.617708 0.359932 -2.280061
H -0.903740 -1.063606 -1.753905
6
Structure 1548 | Energy: -10.139230 Hartree
O 1.642872 0.317493 -1.554380
H 1.540701 -0.331149 -2.253601
H 2.293389 0.956327 -1.852387
O 0.799224 -0.462578 1.320913
H 0.651044 -1.329822 1.703035
H 1.747729 -0.348247 1.235158
6
Structure 1549 | Energy: -10.139227 Hartree
O 0.482102 0.157015 -0.907003
H 0.725175 0.389108 -0.008596
H 0.761861 0.879456 -1.472605
O -0.037919 -1.153389 1.897105
H 0.444941 -0.464966 2.358633
H -0.239486 -1.837693 2.538343
6
Structure 1550 | Energy: -10.139216 Hartree
O -1.981233 0.975636 -0.690385
H -1.490779 0.989787 0.133836
H -2.022408 0.062364 -0.980778
O 0.525468 -0.964505 0.011043
H 0.544800 -1.898496 -0.206610
H -0.393148 -0.722957 0.144782
6
Structure 1551 | Energy: -10.139213 Hartree
O 1.327345 -0.831271 1.615987
H 1.191478 -1.344133 2.415110
H 0.972906 -1.343117 0.886276
O -0.540214 1.131408 -0.229612
H -0.091814 0.283969 -0.259150
H -1.150256 1.155929 -0.969434
6
Structure 1552 | Energy: -10.139200 Hartree
O 0.294301 0.671951 -1.012603
H -0.440597 0.451764 -1.588389
H 0.840246 -0.113015 -0.936029
O 0.802263 -0.841992 1.851483
H 0.459879 -1.736974 1.808263
H 1.674302 -0.851868 1.452062
6
Structure 1553 | Energy: -10.139183 Hartree
O -0.346445 0.432327 -1.314752
H -0.861292 0.665565 -0.539756
H -0.966736 0.245227 -2.022087
O 0.713922 -0.359095 1.823856
H -0.226251 -0.293225 2.002250
H 1.132433 0.408356 2.218768
6
Structure 1554 | Energy: -10.139180 Hartree
O -1.997961 -0.699690 -0.928618
H -2.717369 -1.178087 -0.511875
H -1.268389 -1.314362 -1.028588
O 0.282647 1.420055 0.411179
H 0.954324 0.765884 0.613658
H 0.652971 2.013715 -0.244958
6
Structure 1555 | Energy: -10.139172 Hartree
O 0.938054 -0.349417 -1.180636
H 0.748600 -0.186457 -0.254548
H 1.608158 -1.034776 -1.217161
O 1.691273 1.539127 0.232762
H 1.830314 2.193274 -0.454876
H 2.521950 1.075577 0.355994
6
Structure 1556 | Energy: -10.139171 Hartree
O -0.888886 -0.302281 -1.515576
H -1.644981 0.182680 -1.179093
H -0.467231 0.251329 -2.175737
O -0.175425 0.640708 1.799074
H -1.088439 0.917887 1.897383
H 0.357166 1.435682 1.732364
6
Structure 1557 | Energy: -10.139169 Hartree
O 0.648445 -0.941086 1.766085
H 1.552499 -0.635003 1.861401
H 0.522067 -1.170638 0.843358
O 0.367569 0.832797 -0.217709
H 1.287377 0.708283 -0.459653
H -0.058803 1.287740 -0.946627
6
Structure 1558 | Energy: -10.139167 Hartree
O 2.097330 -0.758157 0.422268
H 2.451745 -1.552625 0.826368
H 2.772340 -0.412970 -0.165354
O -0.572482 0.075578 -0.967482
H -1.236608 0.675012 -0.621500
H -0.927408 -0.812776 -0.897181
6
Structure 1559 | Energy: -10.139167 Hartree
O -1.538224 -0.204178 1.300844
H -1.794799 0.673865 1.589452
H -2.164667 -0.476144 0.627275
O 0.210635 0.975161 -0.389909
H 0.526486 1.874354 -0.281388
H 0.940833 0.457224 -0.734351
6
Structure 1560 | Energy: -10.139166 Hartree
O -1.372429 0.441028 -0.062039
H -2.126172 -0.072801 -0.358582
H -1.344661 1.238109 -0.594938
O 0.243326 0.747299 -1.836468
H 0.703875 1.476298 -2.256635
H 0.847908 0.357202 -1.202123
6
Structure 1561 | Energy: -10.139165 Hartree
O 0.650749 -1.882806 0.051972
H 1.255431 -2.210914 -0.616452
H 0.327975 -1.031585 -0.250237
O -0.093311 0.975663 1.268687
H -0.962539 1.272766 1.544841
H -0.022067 1.142495 0.326785
6
Structure 1562 | Energy: -10.139152 Hartree
O 0.495347 0.874407 -1.720135
H 1.413093 0.780502 -1.457437
H 0.487005 1.323765 -2.567542
O -0.899538 -0.167177 1.052999
H -0.758064 0.771591 1.190071
H -0.398202 -0.631284 1.726315
6
Structure 1563 | Energy: -10.139139 Hartree
O 1.115635 0.742208 0.983041
H 1.883741 1.302536 0.856029
H 0.344274 1.312362 0.978719
O -0.877730 -1.958597 -0.794234
H -1.428008 -2.626397 -1.208149
H -1.406654 -1.162039 -0.717929
6
Structure 1564 | Energy: -10.139137 Hartree
O 1.008556 -0.975852 -0.933522
H 0.990892 -1.916564 -0.746884
H 1.290587 -0.872242 -1.844463
O -0.745811 1.550819 0.736475
H 0.002787 1.935957 1.196210
H -1.415847 1.359010 1.395527
6
Structure 1565 | Energy: -10.139134 Hartree
O 1.118580 -1.177703 1.370705
H 0.212618 -0.865817 1.325460
H 1.260903 -1.747869 0.612585
O -0.000988 0.639578 -0.849794
H 0.477474 0.114814 -1.494607
H -0.712677 0.093170 -0.510642
6
Structure 1566 | Energy: -10.139119 Hartree
O 1.537307 -0.652608 -0.250120
H 1.726099 -0.773580 -1.182756
H 0.929234 -1.347695 0.009094
O 0.862488 2.018480 0.334155
H 0.405739 1.417175 -0.257369
H 1.178871 2.752690 -0.195869
6
Structure 1567 | Energy: -10.139115 Hartree
O 0.631450 -0.924835 1.392258
H -0.130382 -1.501432 1.307209
H 0.758346 -0.758024 2.328293
O 1.545529 0.072776 -1.645439
H 1.714598 0.232195 -2.576078
H 2.192568 0.577404 -1.148670
6
Structure 1568 | Energy: -10.139110 Hartree
O 1.244039 0.602982 -0.690715
H 2.197260 0.668185 -0.775599
H 0.910583 0.232338 -1.510178
O -2.119803 -0.739888 0.463924
H -3.063292 -0.907488 0.506656
H -1.798719 -1.129616 -0.351616
6
Structure 1569 | Energy: -10.139108 Hartree
O 0.394898 0.650208 1.623500
H 0.943382 1.408426 1.834111
H 0.278411 0.150079 2.433681
O -0.278360 -0.372958 -1.925516
H -0.238566 -0.129678 -2.852510
H -1.189537 -0.600514 -1.730421
6
Structure 1570 | Energy: -10.139100 Hartree
O 0.164606 1.796789 -1.218934
H 1.001046 2.191233 -1.473626
H -0.364953 1.715260 -2.014554
O 0.950436 -1.296868 0.592947
H 1.571433 -1.993287 0.370573
H 0.109998 -1.716801 0.786359
6
Structure 1571 | Energy: -10.139094 Hartree
O 0.882637 -1.377879 1.292047
H 1.085794 -1.833694 2.111221
H 1.574300 -0.728846 1.149047
O -0.456453 1.093516 -0.630774
H -0.536041 1.140679 -1.585514
H 0.474727 1.182816 -0.418599
6
Structure 1572 | Energy: -10.139092 Hartree
O 1.568665 0.026715 1.572047
H 2.350995 0.212324 2.095110
H 1.189923 -0.788471 1.906885
O -0.042646 0.789041 -0.618090
H -0.073018 -0.160888 -0.488474
H -0.759002 1.168721 -0.105485
6
Structure 1573 | Energy: -10.139085 Hartree
O -0.921335 0.891189 -1.884255
H -0.790764 0.573542 -2.779877
H -1.779993 0.577347 -1.593909
O -0.283445 -0.962480 0.411966
H -0.816904 -1.514434 0.987167
H -0.800398 -0.792341 -0.377906
6
Structure 1574 | Energy: -10.139080 Hartree
O -0.950422 0.243836 1.356708
H -0.249184 0.875186 1.529183
H -1.641560 0.709632 0.881888
O 0.114392 -0.808708 -1.074376
H -0.632956 -0.209317 -1.122223
H 0.818506 -0.348560 -0.613318
6
Structure 1575 | Energy: -10.139074 Hartree
O 1.641039 -0.004076 -0.668185
H 1.813870 0.178905 -1.593784
H 1.697408 -0.954456 -0.551173
O -0.007526 -1.788112 -1.310983
H -0.857091 -1.886053 -0.876547
H 0.312776 -2.669954 -1.510603
6
Structure 1576 | Energy: -10.139059 Hartree
O -0.025243 2.173476 -0.649952
H 0.883639 2.252862 -0.946126
H -0.521927 1.767396 -1.363040
O -1.660174 -0.638366 0.182768
H -1.878616 -1.566358 0.288606
H -2.153932 -0.314751 -0.573251
6
Structure 1577 | Energy: -10.139023 Hartree
O 0.828189 1.399368 0.055383
H 1.201734 1.690785 -0.778659
H -0.039860 1.800011 0.133274
O -0.195848 -1.204191 -0.397558
H -0.888832 -0.808221 -0.929600
H 0.621114 -1.130663 -0.894805
6
Structure 1578 | Energy: -10.139018 Hartree
O 0.829010 -0.288050 1.873646
H 1.729338 -0.514486 2.114938
H 0.873306 0.237791 1.072635
O -1.428066 -0.799638 0.526043
H -1.873101 -0.093926 0.999331
H -2.107858 -1.365924 0.155514
6
Structure 1579 | Energy: -10.138998 Hartree
O -0.621267 0.272152 0.993306
H -1.412899 0.795905 0.855149
H -0.417304 0.307279 1.929925
O -0.066047 -0.662768 -1.915815
H -0.954470 -1.023652 -1.892254
H 0.533653 -1.394444 -2.074241
6
Structure 1580 | Energy: -10.138993 Hartree
O 0.691849 -0.479028 1.590101
H 1.292695 -0.968198 2.155594
H 0.676204 0.425936 1.907728
O -1.435085 1.565973 -0.559128
H -2.372968 1.735528 -0.667364
H -0.998816 2.417304 -0.488461
6
Structure 1581 | Energy: -10.138991 Hartree
O -1.113395 1.635170 -0.668282
H -1.054505 1.673119 -1.624931
H -2.042780 1.558291 -0.443730
O -1.017621 -1.358531 0.457883
H -0.830359 -2.222275 0.830664
H -1.857263 -1.068815 0.820033
6
Structure 1582 | Energy: -10.138982 Hartree
O 0.594706 1.198788 1.714458
H 0.138242 1.924969 2.143862
H 1.525716 1.281282 1.930109
O 1.026276 -0.929615 -1.047590
H 0.157414 -0.882847 -1.451298
H 1.590696 -1.424510 -1.644748
6
Structure 1583 | Energy: -10.138977 Hartree
O -0.660740 -0.850000 -1.413216
H -0.394559 -0.929592 -2.331311
H -0.780098 0.084357 -1.232050
O -1.800781 0.896223 1.057400
H -0.900913 1.142905 0.834977
H -2.373773 1.598207 0.742777
6
Structure 1584 | Energy: -10.138973 Hartree
O -1.347773 1.808359 -0.531302
H -2.015487 1.898731 0.151396
H -0.713013 2.516013 -0.403251
O 0.637436 -0.844000 0.705968
H 1.590909 -0.876694 0.606434
H 0.455145 -0.553014 1.601616
6
Structure 1585 | Energy: -10.138969 Hartree
O 0.417590 2.119038 -0.654074
H 1.001912 2.791316 -0.298131
H -0.475500 2.466084 -0.608909
O -1.208872 -1.148688 0.090072
H -0.895501 -1.925081 0.558153
H -2.166637 -1.152660 0.142589
6
Structure 1586 | Energy: -10.138963 Hartree
O -0.022911 -0.850763 -1.928057
H -0.129831 0.030097 -2.292393
H 0.840318 -1.168023 -2.200586
O -0.791787 0.303847 1.053847
H -0.250039 -0.288231 1.579242
H -0.586204 1.198644 1.331629
6
Structure 1587 | Energy: -10.138962 Hartree
O 0.538098 1.478816 0.151079
H 1.202644 1.226630 0.795180
H -0.232316 0.929269 0.307766
O 1.601537 -1.415344 -0.627773
H 1.530865 -1.119115 0.281809
H 1.727804 -2.366002 -0.607912
6
Structure 1588 | Energy: -10.138958 Hartree
O 0.001953 -1.047509 0.442981
H 0.692733 -1.694618 0.598413
H 0.419448 -0.272107 0.062796
O -1.827650 0.759903 0.153051
H -1.378157 1.583605 0.351942
H -2.098842 0.375285 0.988882
6
Structure 1589 | Energy: -10.138956 Hartree
O 1.925599 -0.345869 0.895224
H 1.777954 0.584081 1.078201
H 2.834402 -0.436910 0.602174
O -1.078985 0.946561 -0.321273
H -0.647623 1.362018 0.428000
H -1.466048 1.646804 -0.850356
6
Structure 1590 | Energy: -10.138954 Hartree
O 0.856604 0.836376 -0.196425
H 1.563230 0.194491 -0.289968
H 0.191046 0.445201 0.372878
O -0.684714 0.405242 -2.051095
H -0.255433 1.157901 -2.462567
H -1.307817 0.749954 -1.408441
6
Structure 1591 | Energy: -10.138952 Hartree
O 0.188856 -0.536389 -0.221152
H -0.482001 0.046872 -0.581489
H -0.265019 -1.211925 0.286529
O 0.610869 0.284369 2.230216
H -0.019596 0.983010 2.044468
H 1.422812 0.704344 2.520830
6
Structure 1592 | Energy: -10.138950 Hartree
O 0.867754 -0.583677 1.880949
H 1.640045 -0.947930 2.317952
H 0.586055 -1.222291 1.222991
O 0.553060 0.953355 -0.441359
H 0.947682 0.729402 -1.286466
H 0.928282 1.792089 -0.166004
6
Structure 1593 | Energy: -10.138943 Hartree
O 1.208346 0.986122 -0.415639
H 0.273080 0.850634 -0.579978
H 1.685525 0.341730 -0.942089
O -1.455397 -1.429446 0.192427
H -0.832586 -2.156904 0.137659
H -1.046494 -0.672834 -0.232338
6
Structure 1594 | Energy: -10.138935 Hartree
O -0.790925 0.694663 0.702411
H -0.161311 1.248260 0.236360
H -1.652874 1.105363 0.610431
O 0.776745 -1.095786 -1.842295
H 0.387980 -1.204873 -2.712381
H 0.906722 -0.155373 -1.705121
6
Structure 1595 | Energy: -10.138933 Hartree
O -1.967497 -0.383315 0.331050
H -1.917937 -0.165712 1.263937
H -1.694245 -1.298048 0.237835
O 0.382538 2.114813 -0.708011
H 1.094079 2.040063 -1.346924
H 0.767309 1.989329 0.161640
6
Structure 1596 | Energy: -10.138930 Hartree
O -0.490013 1.862206 0.469834
H -0.666588 0.943528 0.257851
H -0.992074 2.073077 1.259492
O 0.238694 -1.457394 -1.104527
H 0.879876 -1.597333 -0.404963
H -0.409130 -0.831418 -0.775034
6
Structure 1597 | Energy: -10.138925 Hartree
O -1.031082 1.198097 -0.477405
H -0.133040 1.413993 -0.218569
H -1.085472 1.303487 -1.429259
O -0.668977 -1.142892 1.777056
H -0.158030 -0.345614 1.929919
H -0.471878 -1.748483 2.494342
6
Structure 1598 | Energy: -10.138904 Hartree
O -0.356009 0.577222 -0.266506
H -0.067631 0.247141 0.586706
H -0.301808 1.534347 -0.233884
O 0.238511 -2.072500 -0.138341
H -0.212504 -2.744660 0.376317
H 0.719338 -2.523346 -0.835214
6
Structure 1599 | Energy: -10.138894 Hartree
O 1.106607 -0.401572 0.922170
H 0.298524 0.032096 1.203275
H 1.789490 0.270655 0.878906
O 0.608473 0.267079 -2.155566
H 0.953277 0.947236 -1.573686
H 0.882951 0.490128 -3.047193
6
Structure 1600 | Energy: -10.138887 Hartree
O -0.216994 -0.287862 1.602049
H -1.079317 -0.135175 1.993421
H -0.053907 0.428741 0.985630
O -0.259442 -1.832305 -1.357796
H -1.181726 -1.568758 -1.352889
H 0.124045 -1.508928 -2.175385
6
Structure 1601 | Energy: -10.138879 Hartree
O 1.694635 0.713453 -0.183449
H 1.308068 -0.110010 0.120789
H 1.248844 0.952492 -0.998447
O -0.818411 -1.720467 1.335369
H -0.153851 -1.333947 0.761740
H -0.382107 -2.392024 1.863325
6
Structure 1602 | Energy: -10.138867 Hartree
O -1.335030 0.747869 0.378097
H -2.174297 0.359301 0.123671
H -1.254202 1.581105 -0.090171
O 0.968906 -1.675658 0.864535
H 1.538805 -1.243906 0.225088
H 0.675332 -2.500273 0.472218
6
Structure 1603 | Energy: -10.138864 Hartree
O -1.365093 -0.396527 -1.189773
H -2.004131 0.316950 -1.241430
H -1.776840 -1.174760 -1.570440
O 1.658447 0.596866 0.239370
H 2.340211 0.328688 0.858535
H 1.076637 1.202827 0.702400
6
Structure 1604 | Energy: -10.138861 Hartree
O -0.331394 1.213833 -0.550723
H -0.561208 1.679708 -1.357093
H -1.084278 0.669099 -0.312978
O 0.827661 -0.286798 1.752728
H 0.775346 -1.036942 2.348240
H 1.613203 0.209943 1.989921
6
Structure 1605 | Energy: -10.138860 Hartree
O 0.048557 1.380885 -1.720830
H -0.272825 2.282542 -1.659053
H -0.159027 1.065118 -2.602470
O -0.012630 -1.490686 0.626417
H 0.773764 -2.039329 0.600685
H -0.423833 -1.623618 1.482763
6
Structure 1606 | Energy: -10.138838 Hartree
O -1.138497 0.599348 -0.011723
H -0.436533 0.438285 0.621833
H -1.745719 -0.141197 0.042745
O 1.533652 -0.532581 -0.549936
H 2.448983 -0.768206 -0.713452
H 1.513992 -0.011121 0.254912
6
Structure 1607 | Energy: -10.138833 Hartree
O -0.060290 -0.857973 -1.581703
H -0.141410 0.005502 -1.171926
H -0.786488 -0.947382 -2.201972
O 0.584387 2.085836 0.666206
H -0.018214 1.430939 0.308338
H 0.069794 2.873614 0.852453
6
Structure 1608 | Energy: -10.138826 Hartree
O 1.502270 -0.052955 1.520373
H 1.700895 0.356474 2.364767
H 1.288127 0.652063 0.906221
O -1.362088 0.840244 0.495594
H -1.684898 1.617354 0.035179
H -0.712812 1.138499 1.135572
6
Structure 1609 | Energy: -10.138821 Hartree
O -0.271136 -0.006878 -0.452117
H -1.110971 0.393385 -0.685682
H -0.019226 -0.582131 -1.177179
O 0.945870 1.936870 0.831330
H 1.824448 1.820930 1.198407
H 1.017734 1.824206 -0.118528
6
Structure 1610 | Energy: -10.138804 Hartree
O 0.614991 -0.480589 -2.170344
H 0.403626 -0.245267 -3.075901
H 0.181810 0.159333 -1.602061
O 1.928944 -0.033027 0.714699
H 2.023629 0.221132 1.634767
H 1.954810 0.771851 0.193556
6
Structure 1611 | Energy: -10.138804 Hartree
O -0.623056 1.833382 -0.232005
H -1.480097 1.600677 -0.594516
H -0.096284 2.185800 -0.952009
O 0.153789 -1.441755 0.790010
H -0.512735 -2.012525 0.402642
H 0.700905 -1.988373 1.357426
6
Structure 1612 | Energy: -10.138794 Hartree
O -0.286542 0.269080 -1.560897
H -0.592042 0.651915 -0.736159
H -0.721759 -0.580152 -1.658272
O -0.059554 0.934433 2.054450
H -0.474481 1.278133 1.260855
H -0.173135 -0.017980 2.044690
6
Structure 1613 | Energy: -10.138784 Hartree
O -0.862830 -0.838030 1.538853
H -1.700681 -1.141505 1.183895
H -0.192867 -1.013688 0.875238
O -1.320285 1.122607 -0.602243
H -1.351158 0.171320 -0.483128
H -0.395927 1.378823 -0.603913
6
Structure 1614 | Energy: -10.138769 Hartree
O -0.772046 0.117085 -0.372919
H -1.627975 0.373391 -0.023952
H -0.561637 0.725205 -1.084262
O 1.629142 -0.260594 1.559767
H 2.125123 -0.455436 0.762191
H 2.191129 -0.481914 2.304935
6
Structure 1615 | Energy: -10.138769 Hartree
O 1.169302 -1.431312 -0.196768
H 1.139050 -2.373867 -0.372154
H 1.666411 -1.025531 -0.909731
O -0.032240 1.194122 0.793110
H 0.089333 2.143868 0.850473
H 0.066657 0.950287 -0.129306
6
Structure 1616 | Energy: -10.138749 Hartree
O -1.572945 -1.078167 1.282166
H -2.503405 -1.021345 1.056106
H -1.424711 -0.489905 2.025177
O -0.080486 0.288489 -0.109361
H -0.659338 -0.257643 -0.644857
H 0.820778 0.027510 -0.308615
6
Structure 1617 | Energy: -10.138747 Hartree
O -0.236515 -0.068528 1.157759
H 0.043079 0.140216 0.264261
H 0.544063 -0.036920 1.714346
O -1.310224 -1.343838 -1.075354
H -0.449731 -1.629305 -0.762069
H -1.606601 -1.989757 -1.719588
6
Structure 1618 | Energy: -10.138727 Hartree
O 1.232492 0.738905 -1.233076
H 1.552705 -0.004714 -1.747450
H 0.330136 0.908701 -1.510588
O -0.024830 -0.851512 1.454941
H -0.159418 -1.473465 2.172680
H -0.720281 -1.004566 0.812282
6
Structure 1619 | Energy: -10.138699 Hartree
O 0.450074 1.576098 -0.736992
H -0.287080 2.140815 -0.496609
H 0.641925 1.738118 -1.662753
O 1.622477 -0.773188 1.079846
H 2.116272 -0.828127 0.259337
H 1.689936 -1.628007 1.509755
6
Structure 1620 | Energy: -10.138663 Hartree
O -0.851731 0.128748 -1.232819
H -0.719194 -0.780508 -0.957550
H -0.675240 0.168957 -2.174798
O -0.590424 -0.420101 2.125477
H -0.648509 -0.641507 3.056978
H -0.892800 -1.185210 1.632258
6
Structure 1621 | Energy: -10.138662 Hartree
O -0.017979 -1.202508 0.089061
H -0.658400 -1.692483 -0.430432
H 0.719589 -1.791511 0.259820
O -0.566361 0.247446 -2.152983
H -0.293295 -0.671618 -2.123951
H 0.230889 0.780814 -2.152065
6
Structure 1622 | Energy: -10.138661 Hartree
O -1.771283 -0.007352 0.239203
H -2.478457 0.300509 0.809477
H -2.153252 -0.166950 -0.626083
O 1.589421 -0.670079 -0.930401
H 1.945965 -1.518273 -0.659236
H 2.204087 -0.292603 -1.562686
6
Structure 1623 | Energy: -10.138640 Hartree
O 0.053241 1.201515 0.901180
H -0.683853 0.994536 1.479053
H -0.225887 1.007615 0.004195
O -0.158299 -1.597038 0.733607
H -0.212670 -1.585884 -0.223998
H -0.985733 -1.955211 1.060949
6
Structure 1624 | Energy: -10.138636 Hartree
O -0.236570 -0.133036 1.323562
H 0.547059 0.082157 1.833174
H -0.756787 0.669490 1.249964
O 1.881073 0.462758 -0.889120
H 2.648153 0.785481 -1.366117
H 1.518607 1.203691 -0.399503
6
Structure 1625 | Energy: -10.138635 Hartree
O -1.967800 0.894217 -0.407634
H -1.772925 0.586058 -1.294848
H -2.330258 1.778727 -0.487364
O 1.086327 0.869355 -1.036157
H 1.557744 0.442408 -1.754189
H 0.602914 1.607266 -1.412835
6
Structure 1626 | Energy: -10.138628 Hartree
O 0.580461 -0.468719 1.560455
H -0.263401 -0.121683 1.264569
H 0.527015 -0.572003 2.512593
O 1.761887 0.020673 -1.200440
H 2.436206 0.556843 -0.778655
H 1.761182 0.246707 -2.132640
6
Structure 1627 | Energy: -10.138627 Hartree
O -0.403264 0.346464 1.471785
H -0.098952 1.214973 1.201282
H -0.331109 -0.230209 0.708678
O -2.030515 -0.573951 -0.524421
H -1.293018 -0.431598 -1.121012
H -2.807373 -0.191041 -0.936682
6
Structure 1628 | Energy: -10.138613 Hartree
O -2.139371 0.336574 0.629528
H -2.772607 0.605668 1.297875
H -1.436763 0.989573 0.624640
O 0.223849 -1.282194 -1.096009
H 0.668624 -0.653032 -0.524681
H 0.746093 -2.086770 -1.093459
6
Structure 1629 | Energy: -10.138578 Hartree
O -0.293794 -0.067201 -2.060421
H -0.186808 0.863283 -2.267396
H 0.573879 -0.410283 -1.837872
O -2.092715 0.065672 0.618449
H -2.077430 0.946209 0.998591
H -2.926911 -0.336902 0.867728
6
Structure 1630 | Energy: -10.138570 Hartree
O -1.538545 0.507124 1.233559
H -1.844787 1.317713 0.822163
H -2.132145 0.316730 1.962587
O 0.615991 1.498401 0.479806
H 0.912456 0.718674 0.953326
H 1.334452 2.133597 0.500525
6
Structure 1631 | Energy: -10.138567 Hartree
O -0.487452 -0.805442 -1.246977
H -1.381992 -1.116420 -1.094739
H 0.043818 -1.570198 -1.477175
O -0.935884 1.987750 0.481788
H -1.761882 2.130771 0.948006
H -0.262761 1.814938 1.142946
6
Structure 1632 | Energy: -10.138549 Hartree
O 0.106620 -0.144752 1.707540
H -0.707952 0.223564 2.055249
H 0.243774 -0.989734 2.140305
O 0.601466 1.904654 -0.233837
H 0.563098 2.557054 -0.935969
H 1.526721 1.775551 -0.016296
6
Structure 1633 | Energy: -10.138521 Hartree
O 0.303735 0.269113 -1.199904
H 1.182198 0.135926 -1.561360
H -0.158759 0.867001 -1.790430
O -1.837504 -0.832354 0.896283
H -2.086713 0.059611 0.646521
H -2.648261 -1.330512 1.017112
6
Structure 1634 | Energy: -10.138502 Hartree
O 1.305183 0.070222 -0.472858
H 2.192819 0.248921 -0.789488
H 1.318008 0.171702 0.480886
O -1.636658 -0.637845 0.494104
H -2.022886 -0.110448 1.196078
H -2.319775 -1.231356 0.176010
6
Structure 1635 | Energy: -10.138489 Hartree
O 0.486490 -2.093092 -0.028721
H 1.422989 -1.944056 0.115655
H 0.095048 -2.288503 0.824906
O -0.065525 0.625060 -0.279683
H 0.776420 0.862764 -0.673017
H -0.670482 1.351314 -0.442996
6
Structure 1636 | Energy: -10.138487 Hartree
O -0.198744 1.386872 1.743815
H -0.283741 1.485882 0.793521
H -1.063489 1.551207 2.124998
O -0.506380 -0.164197 -0.618266
H 0.000875 0.531127 -1.041710
H -1.431705 0.004280 -0.806622
6
Structure 1637 | Energy: -10.138484 Hartree
O -1.360842 1.589673 -0.452720
H -1.292124 1.478655 -1.403003
H -1.083605 2.485428 -0.250599
O -0.473831 -1.012461 0.367909
H -0.695003 -1.531128 1.143895
H -1.000367 -1.350401 -0.359170
6
Structure 1638 | Energy: -10.138476 Hartree
O 1.309266 -0.997574 0.182818
H 2.007099 -0.399198 -0.091155
H 0.983179 -0.685160 1.029078
O -0.181623 0.368669 -1.167285
H 0.141509 0.803528 -1.958847
H -0.552655 -0.473665 -1.437281
6
Structure 1639 | Energy: -10.138469 Hartree
O -1.398269 0.094930 1.160169
H -2.294304 0.417689 1.046001
H -0.806188 0.793291 0.874123
O 0.334677 -0.703900 -1.165287
H 0.939868 0.039344 -1.127636
H -0.498265 -0.374865 -1.508843
6
Structure 1640 | Energy: -10.138466 Hartree
O 0.859748 -0.407582 -1.255456
H 1.019657 0.426659 -1.701053
H 1.614778 -0.972605 -1.430869
O -1.893807 -0.904318 -0.402682
H -2.809760 -1.178783 -0.326608
H -1.383636 -1.446490 0.202184
6
Structure 1641 | Energy: -10.138457 Hartree
O -1.712141 -1.229947 0.525977
H -1.661203 -0.350323 0.905124
H -2.618855 -1.365618 0.243924
O -0.413844 0.735272 -1.208942
H 0.494753 0.992845 -1.376852
H -0.674108 1.137304 -0.377846
6
Structure 1642 | Energy: -10.138440 Hartree
O -1.436242 0.185794 0.578866
H -0.809497 -0.105705 1.243928
H -2.202584 0.529652 1.042085
O -0.476788 -0.072486 -1.845842
H -0.539388 -1.028647 -1.889712
H -1.320960 0.280928 -2.133176
6
Structure 1643 | Energy: -10.138438 Hartree
O 0.908827 1.850953 0.654586
H 1.123529 1.088793 1.195973
H 1.621366 2.484341 0.760413
O -1.135047 0.010056 -1.014733
H -0.740027 0.113557 -1.882681
H -1.655440 -0.795500 -1.033710
6
Structure 1644 | Energy: -10.138433 Hartree
O -0.058378 1.487225 -0.150447
H -0.097791 1.283675 -1.086983
H -0.792594 2.073047 0.044056
O -0.506124 -1.757817 0.492002
H -0.922187 -2.338810 1.131866
H -1.011998 -1.821391 -0.320487
6
Structure 1645 | Energy: -10.138431 Hartree
O -1.185963 0.261205 1.121269
H -2.015952 0.735330 1.041203
H -1.258046 -0.310104 1.888407
O 1.510333 -1.172042 -0.236483
H 2.262789 -1.537466 -0.705912
H 0.929590 -1.903421 -0.017600
6
Structure 1646 | Energy: -10.138418 Hartree
O 0.724835 1.277063 0.474018
H 0.792531 2.087241 0.983050
H 0.736902 0.548104 1.097367
O -1.582415 -0.592834 -1.092345
H -1.420870 -0.809073 -0.171894
H -2.420409 -0.991570 -1.334964
6
Structure 1647 | Energy: -10.138404 Hartree
O -0.157604 -1.563469 0.353381
H -1.085374 -1.725733 0.171725
H -0.108354 -1.111443 1.197974
O 1.885622 0.578880 -0.417610
H 1.967288 1.445130 -0.821379
H 2.704866 0.405098 0.050072
6
Structure 1648 | Energy: -10.138371 Hartree
O -1.123586 0.646100 1.436236
H -2.022450 0.951005 1.297811
H -1.172042 -0.281258 1.676547
O 1.020923 -0.211207 -0.238912
H 1.373214 -0.959713 0.246596
H 1.765192 0.337128 -0.494803
6
Structure 1649 | Energy: -10.138367 Hartree
O 0.885447 -1.270112 1.151935
H 0.006304 -1.239896 0.769469
H 1.508031 -1.075676 0.448604
O -0.441885 0.925792 -0.800633
H -0.739342 0.041319 -0.578567
H 0.508193 0.882966 -0.925558
6
Structure 1650 | Energy: -10.138365 Hartree
O 1.668017 1.446978 -0.356921
H 1.711677 1.544151 -1.310198
H 1.684664 2.329057 0.019576
O -0.734563 -1.179423 0.359316
H -1.263290 -1.384875 1.132830
H -1.194443 -1.537666 -0.402432
6
Structure 1651 | Energy: -10.138351 Hartree
O -0.599840 -1.311870 -1.300870
H -0.331329 -0.843000 -0.508312
H -1.545884 -1.186829 -1.398113
O 1.583810 -0.147184 -0.903644
H 2.012036 0.320703 -0.184067
H 1.917060 -1.046612 -0.895785
6
Structure 1652 | Energy: -10.138346 Hartree
O -1.602027 -1.758590 0.191484
H -2.128012 -1.202216 0.769302
H -1.046069 -1.178545 -0.332491
O 0.348218 -0.915039 1.449540
H 0.588570 -0.025199 1.715067
H 1.027285 -1.504368 1.783676
6
Structure 1653 | Energy: -10.138333 Hartree
O -0.590147 -0.081370 0.766578
H -0.928282 0.810682 0.866551
H -1.345010 -0.658001 0.633278
O 1.557917 0.056508 -1.401386
H 2.432502 -0.160481 -1.072594
H 1.507343 -0.261006 -2.305109
6
Structure 1654 | Energy: -10.138329 Hartree
O -1.294887 0.414022 -1.407738
H -0.922400 -0.057204 -2.155593
H -2.248523 0.401047 -1.510215
O -0.198888 -0.242697 1.341317
H 0.211350 -0.584242 2.138273
H -1.006926 0.201441 1.605711
6
Structure 1655 | Energy: -10.138329 Hartree
O -0.628092 0.128164 1.861970
H -0.950382 1.011012 2.053789
H -1.337045 -0.484109 2.068362
O 1.423802 -0.405612 -0.777351
H 0.797931 -0.130782 -1.450285
H 2.263518 0.009471 -0.983919
6
Structure 1656 | Energy: -10.138326 Hartree
O -2.027766 0.122240 -0.655560
H -2.484975 0.629724 0.017869
H -2.127567 -0.804590 -0.429470
O 0.226524 1.358839 -0.791234
H 1.105073 1.462656 -1.161992
H 0.099656 0.423825 -0.618774
6
Structure 1657 | Energy: -10.138319 Hartree
O 0.211363 1.427338 1.658037
H -0.394129 0.689908 1.756329
H 0.899384 1.319822 2.317703
O -0.500796 -1.493462 -0.059122
H -0.782429 -2.403206 0.055490
H -0.332937 -1.135807 0.814946
6
Structure 1658 | Energy: -10.138311 Hartree
O -0.339895 0.773048 0.247020
H -0.915811 0.136137 0.674513
H 0.143710 1.228137 0.939198
O -0.781891 -0.486610 -1.899692
H 0.001442 -0.007381 -2.176852
H -0.495376 -1.353636 -1.605986
6
Structure 1659 | Energy: -10.138294 Hartree
O 0.495723 -0.795739 1.408133
H 0.156475 -1.665952 1.626600
H 1.208154 -0.918641 0.777714
O 1.172049 0.940096 -1.294793
H 1.334735 0.004644 -1.158597
H 2.013697 1.391050 -1.203370
6
Structure 1660 | Energy: -10.138284 Hartree
O -1.548658 0.323576 1.213895
H -2.166148 0.308210 1.947758
H -1.167054 1.203042 1.182125
O 0.680853 -0.828963 -0.108067
H 0.758282 -0.800088 0.847578
H 1.494177 -0.471632 -0.469878
6
Structure 1661 | Energy: -10.138283 Hartree
O 0.743161 1.843586 0.347349
H 1.636644 1.824908 -0.001111
H 0.460540 2.760183 0.355465
O -1.077377 -0.506469 -1.330845
H -0.933471 -1.196328 -1.981593
H -2.006971 -0.272531 -1.365708
6
Structure 1662 | Energy: -10.138279 Hartree
O 1.541876 0.684252 0.091842
H 1.737522 -0.121872 -0.389793
H 1.379356 0.437558 1.004431
O -0.720572 -0.060033 -1.174517
H -1.128328 0.415782 -1.900756
H -0.023655 -0.603830 -1.546914
6
Structure 1663 | Energy: -10.138265 Hartree
O -0.583945 -0.658821 -0.242598
H -1.498594 -0.920465 -0.119939
H -0.039839 -1.419299 -0.028790
O -1.054119 1.881472 0.332047
H -1.362826 2.735448 0.022995
H -0.109566 1.957665 0.480715
6
Structure 1664 | Energy: -10.138255 Hartree
O 0.413728 0.462855 -0.920386
H 1.325285 0.490014 -1.217729
H -0.049382 1.179673 -1.358325
O -0.964491 -1.214558 1.569068
H -1.757979 -0.690318 1.694112
H -1.236793 -2.132425 1.510245
6
Structure 1665 | Energy: -10.138246 Hartree
O 0.822011 -0.611935 0.002499
H 1.415833 -1.317136 -0.262366
H 0.223632 -0.975657 0.658044
O -1.754102 0.739659 -0.733928
H -1.883039 1.419475 -0.069615
H -2.616173 0.533783 -1.100721
6
Structure 1666 | Energy: -10.138241 Hartree
O -0.253074 -0.029488 1.641609
H -0.314997 -0.657019 0.918797
H -0.141662 -0.535847 2.448627
O -0.745442 1.433636 -1.384762
H -1.218521 1.835443 -2.116086
H -0.594399 0.514738 -1.614761
6
Structure 1667 | Energy: -10.138232 Hartree
O -1.062926 -1.163998 -0.185878
H -1.407043 -1.616414 0.586773
H -0.493403 -1.782801 -0.647199
O -0.054926 0.063834 2.109017
H 0.794822 -0.379662 2.072589
H -0.159535 0.404626 2.999526
6
Structure 1668 | Energy: -10.138227 Hartree
O 0.851640 1.542849 -1.096337
H 0.704488 1.242388 -1.995312
H 0.002774 1.529562 -0.649861
O 1.093090 -0.289122 1.402827
H 1.237216 -1.228002 1.536314
H 0.304126 -0.196465 0.865203
6
Structure 1669 | Energy: -10.138217 Hartree
O 1.205446 1.285847 -0.525160
H 1.403975 2.223041 -0.573536
H 1.923517 0.867747 -0.045934
O -1.257231 -0.575156 0.376848
H -1.403035 -0.334578 1.293881
H -2.119566 -0.674711 -0.031263
6
Structure 1670 | Energy: -10.138201 Hartree
O -1.007578 1.006122 -1.875995
H -1.572597 0.514097 -1.277037
H -0.597853 1.708597 -1.367325
O 1.628172 0.083446 -0.616780
H 0.837979 0.403874 -0.177452
H 2.380361 0.482417 -0.175053
6
Structure 1671 | Energy: -10.138197 Hartree
O -0.784147 1.495702 -1.223861
H -1.140286 2.207253 -0.688188
H -0.070161 1.864452 -1.747634
O -0.390564 -0.809512 0.890828
H 0.537087 -0.656399 0.700807
H -0.453811 -1.059121 1.814832
6
Structure 1672 | Energy: -10.138162 Hartree
O -1.781311 0.739494 0.670404
H -1.320542 -0.101662 0.655058
H -2.407331 0.707244 1.396456
O 0.614305 0.504178 1.352021
H 1.367160 1.072825 1.178996
H 0.548806 0.401233 2.303442
6
Structure 1673 | Energy: -10.138124 Hartree
O -0.498345 0.484748 0.285816
H -1.074808 -0.149099 -0.145478
H -0.730069 1.353222 -0.049069
O 1.297384 -1.358547 -0.166317
H 1.688560 -2.041647 -0.714443
H 1.995264 -0.739780 0.057692
6
Structure 1674 | Energy: -10.138087 Hartree
O 0.012739 2.137457 0.070997
H 0.460094 2.938095 0.351956
H 0.423814 1.854980 -0.748341
O -0.390540 -0.432597 -0.965624
H -0.893387 -1.232422 -0.799754
H 0.336150 -0.669033 -1.545372
6
Structure 1675 | Energy: -10.138085 Hartree
O 0.425818 0.918946 1.208507
H 0.413334 1.122841 2.145714
H 1.256532 1.245968 0.857706
O 0.061044 -1.749508 -0.916102
H 0.810137 -1.485426 -1.453881
H -0.071182 -2.689334 -1.055137
6
Structure 1676 | Energy: -10.138078 Hartree
O -1.250934 -1.087034 1.504952
H -0.914182 -1.718483 2.143666
H -1.673545 -1.588784 0.805140
O -0.549856 0.601613 -1.050573
H 0.250459 0.342011 -1.511214
H -1.230809 -0.031936 -1.285108
6
Structure 1677 | Energy: -10.138064 Hartree
O 2.057798 0.065166 0.256927
H 2.717253 -0.480087 -0.176552
H 2.369091 0.971662 0.218812
O -0.385818 1.292655 1.078551
H -1.040719 0.650623 1.359599
H -0.857039 2.010811 0.651596
6
Structure 1678 | Energy: -10.138058 Hartree
O -0.692857 -1.488517 0.794108
H -1.328056 -1.778117 1.451938
H 0.180945 -1.605981 1.171950
O -0.479896 1.449961 -0.119264
H -0.619583 1.802350 0.761869
H -0.895471 2.055307 -0.736468
6
Structure 1679 | Energy: -10.138056 Hartree
O -0.006833 0.790117 -1.369709
H -0.214572 0.456806 -2.244829
H 0.741667 1.382870 -1.461809
O 0.296705 -1.802691 0.347418
H -0.051854 -2.683388 0.498968
H 0.960061 -1.639960 1.020891
6
Structure 1680 | Energy: -10.138055 Hartree
O 0.638973 -0.780496 -0.872477
H -0.164869 -0.316438 -0.630457
H 0.538292 -1.067604 -1.782160
O 1.402440 1.056952 0.454861
H 1.972475 0.847824 -0.287711
H 1.968143 1.336303 1.177378
6
Structure 1681 | Energy: -10.138046 Hartree
O 0.977229 -0.925626 0.004477
H 1.736411 -1.325069 -0.424677
H 1.299215 -0.469603 0.784515
O -0.410929 -0.887521 2.055301
H -0.545389 -0.634941 2.970840
H -1.157283 -1.432562 1.798447
6
Structure 1682 | Energy: -10.138041 Hartree
O -1.088289 -1.656603 0.844422
H -1.231385 -2.125672 0.020053
H -1.141024 -2.302507 1.551612
O -0.837819 0.810716 -0.951057
H -1.279050 1.041539 -1.770888
H 0.017490 0.443317 -1.182472
6
Structure 1683 | Energy: -10.138018 Hartree
O 0.993577 1.345978 -0.964240
H 0.631348 2.217435 -0.792659
H 1.624639 1.436735 -1.680909
O 0.484266 -1.006092 0.649158
H 0.821059 -1.335777 -0.186286
H 0.547343 -1.722789 1.283550
6
Structure 1684 | Energy: -10.138014 Hartree
O 1.133721 0.192778 -0.193797
H 0.360983 0.736816 -0.029526
H 0.917012 -0.397011 -0.918557
O -0.035864 -0.098399 2.098422
H -0.966534 -0.001357 2.309428
H 0.457722 0.392276 2.758497
6
Structure 1685 | Energy: -10.138010 Hartree
O 0.487362 -0.432942 -0.776966
H 0.927156 -1.193503 -1.161953
H 1.033801 0.333886 -0.959917
O -1.325293 1.545889 0.916970
H -1.348913 2.504544 0.894356
H -2.028901 1.258132 1.501965
6
Structure 1686 | Energy: -10.138007 Hartree
O -1.526372 -0.201913 0.729981
H -2.202038 -0.863782 0.570319
H -1.294141 0.177661 -0.119774
O 0.743445 0.011319 2.183366
H 1.203005 -0.572093 1.576305
H 0.454462 -0.522272 2.926237
6
Structure 1687 | Energy: -10.137978 Hartree
O -1.053093 -0.344259 -1.843072
H -1.897227 0.019004 -1.568182
H -1.221759 -0.919719 -2.591730
O -0.606230 1.654376 0.099434
H -1.128907 2.402575 -0.195683
H 0.163261 2.006044 0.551431
6
Structure 1688 | Energy: -10.137978 Hartree
O 0.282120 -0.474029 -0.964333
H 1.100468 -0.342422 -1.447109
H -0.265004 0.298980 -1.116658
O 2.207579 -0.306084 0.487542
H 1.709149 -0.365679 1.304918
H 2.904054 -0.964209 0.530916
6
Structure 1689 | Energy: -10.137975 Hartree
O -0.679433 0.791673 0.242408
H -0.482652 0.991944 -0.674792
H -0.674927 1.622465 0.721840
O 0.067779 -1.087055 -1.684094
H 0.463588 -0.487707 -2.319865
H -0.878483 -1.083338 -1.841132
6
Structure 1690 | Energy: -10.137965 Hartree
O 1.679145 0.980045 -0.185809
H 1.931506 1.564712 -0.903140
H 2.107565 0.136328 -0.342935
O -0.094232 -0.267893 2.129891
H -0.043839 -1.124148 1.700501
H 0.301273 -0.362080 2.998679
6
Structure 1691 | Energy: -10.137931 Hartree
O -0.576474 -0.960430 -1.633401
H -0.627856 -1.907842 -1.492488
H -0.810041 -0.796379 -2.549166
O 0.454487 1.115949 0.063989
H -0.013676 1.864626 -0.310703
H 0.072797 0.945401 0.927305
6
Structure 1692 | Energy: -10.137930 Hartree
O -0.980412 -1.490640 1.312986
H -0.645786 -2.054066 2.013459
H -1.922771 -1.654990 1.241996
O -0.110087 0.284565 -0.718239
H 0.733964 -0.170577 -0.740865
H -0.522153 0.161669 -1.575669
6
Structure 1693 | Energy: -10.137918 Hartree
O -0.930016 -1.168321 0.355637
H -1.516722 -1.862808 0.049778
H -0.336297 -1.560791 0.998720
O -0.174444 0.580877 -1.766858
H 0.538146 0.693344 -2.399041
H -0.649278 -0.215461 -2.012757
6
Structure 1694 | Energy: -10.137915 Hartree
O -0.551763 0.553762 0.645025
H -0.098118 1.180192 1.212367
H -1.427754 0.906176 0.476099
O -1.132723 -0.496393 -1.797389
H -1.808088 -0.452765 -2.477144
H -0.527350 0.231567 -1.951295
6
Structure 1695 | Energy: -10.137913 Hartree
O -0.092261 1.063655 -0.888105
H -0.155169 2.002380 -0.701228
H 0.368937 0.970721 -1.724018
O 1.055235 -1.629862 0.728600
H 1.458184 -2.017621 -0.050734
H 1.478599 -2.024555 1.493497
6
Structure 1696 | Energy: -10.137912 Hartree
O -1.190906 0.327220 0.237084
H -0.631043 1.097752 0.123417
H -1.184823 0.106907 1.170634
O -0.358476 -1.406206 -1.287175
H -0.451886 -1.818646 -0.426213
H -1.220042 -1.429323 -1.708196
6
Structure 1697 | Energy: -10.137877 Hartree
O -1.137113 -0.370517 0.174992
H -1.636642 -1.079247 0.585187
H -1.099657 -0.556659 -0.765241
O 0.321887 1.959579 -0.882152
H -0.207453 2.452249 -1.512359
H 1.090675 2.495200 -0.676815
6
Structure 1698 | Energy: -10.137875 Hartree
O 0.150733 -1.591408 1.506508
H -0.257764 -1.976310 0.728647
H 1.046736 -1.930537 1.554052
O 1.270995 0.705563 -0.031574
H 1.736442 1.394602 -0.509770
H 1.439330 -0.120783 -0.488633
6
Structure 1699 | Energy: -10.137855 Hartree
O -0.432148 0.993307 1.597549
H -0.778557 1.804180 1.219963
H 0.285858 1.237507 2.184852
O -1.280184 -0.942259 -0.264347
H -1.538184 -1.150490 -1.164438
H -0.357291 -1.186006 -0.169779
6
Structure 1700 | Energy: -10.137849 Hartree
O -1.838986 -0.998300 -0.872513
H -1.784887 -0.754953 -1.798765
H -2.738917 -1.285760 -0.706438
O -0.177116 0.341877 1.738091
H -0.688130 1.152610 1.778888
H 0.466637 0.375819 2.448386
6
Structure 1701 | Energy: -10.137841 Hartree
O 1.050627 -0.466494 -0.486486
H 1.842784 -0.897106 -0.159153
H 0.942395 -0.729274 -1.402632
O -0.491421 1.208747 1.645799
H -0.944230 1.893392 2.142099
H -0.802954 0.364325 1.977442
6
Structure 1702 | Energy: -10.137839 Hartree
O -1.397482 1.491040 -0.976806
H -0.930041 1.487114 -0.139209
H -2.294536 1.199283 -0.802845
O -0.761220 -0.479362 0.537752
H -0.252407 -0.055076 1.231422
H -1.286591 -1.167277 0.951087
6
Structure 1703 | Energy: -10.137822 Hartree
O -1.790339 -0.954945 0.343194
H -1.895271 -1.678519 0.964094
H -1.515789 -1.335923 -0.493209
O 0.918632 -0.954999 0.988733
H 1.229697 -1.222146 0.121578
H 1.478569 -1.386860 1.636849
6
Structure 1704 | Energy: -10.137821 Hartree
O -0.617757 1.077713 -1.143081
H -1.520298 1.081638 -1.467873
H -0.115859 0.485032 -1.706037
O 0.183674 -0.382987 0.984676
H -0.556236 -0.924519 0.702960
H 0.798039 -0.336800 0.249483
6
Structure 1705 | Energy: -10.137795 Hartree
O -0.855856 -1.961763 0.424807
H -0.732945 -2.317494 -0.457482
H -1.302235 -2.634539 0.942697
O -0.328631 0.529910 -0.707505
H 0.074535 -0.042628 -1.363055
H -1.264682 0.579687 -0.911017
6
Structure 1706 | Energy: -10.137786 Hartree
O 0.749202 0.229202 -0.147499
H 1.321268 0.744696 -0.719419
H 0.972476 -0.694198 -0.280061
O -1.817367 -0.289154 -0.002098
H -1.794878 -0.625643 0.895876
H -2.565161 0.308510 -0.062842
6
Structure 1707 | Energy: -10.137780 Hartree
O -0.861761 -1.321568 -1.258616
H -0.462269 -1.309732 -2.130597
H -1.810882 -1.254416 -1.380071
O -0.609432 0.132385 0.783350
H -0.208982 0.104323 1.654522
H -1.182388 -0.633334 0.709292
6
Structure 1708 | Energy: -10.137755 Hartree
O 0.176589 -1.444891 1.473504
H 1.098568 -1.632156 1.660513
H -0.339369 -2.167244 1.836938
O 0.390787 0.415184 -1.131460
H 0.983167 -0.276609 -1.432450
H 0.515899 1.168651 -1.711737
6
Structure 1709 | Energy: -10.137749 Hartree
O -1.050392 0.199870 -0.128105
H -1.337628 -0.686439 0.100013
H -0.820131 0.193006 -1.059246
O 1.723047 -0.104198 0.688645
H 2.613506 0.248792 0.637962
H 1.793949 -1.060110 0.652703
6
Structure 1710 | Energy: -10.137749 Hartree
O -1.572794 -0.668312 -0.707118
H -2.321432 -1.202718 -0.435022
H -1.868930 0.243704 -0.732028
O 0.669532 0.187225 1.236298
H 1.602783 0.339706 1.397166
H 0.192597 0.935892 1.599779
6
Structure 1711 | Energy: -10.137748 Hartree
O 0.728414 1.456673 -0.622063
H 0.609592 0.882783 -1.381416
H 1.652686 1.712356 -0.601114
O 1.840844 -0.368719 0.791573
H 1.583712 -0.978211 0.096958
H 2.171517 -0.894346 1.522640
6
Structure 1712 | Energy: -10.137743 Hartree
O -0.785540 -0.788258 1.003019
H -0.997447 -0.490848 1.889996
H -0.071473 -0.234731 0.680829
O -1.008160 0.862479 -1.474027
H -0.201591 1.184145 -1.881538
H -0.960543 1.078477 -0.540665
6
Structure 1713 | Energy: -10.137739 Hartree
O -1.341423 0.883204 -0.918556
H -1.616005 0.818384 -0.001774
H -1.947653 1.485116 -1.354765
O 0.681071 -1.145776 0.343015
H 1.162161 -1.955004 0.159197
H 0.587769 -1.080894 1.295471
6
Structure 1714 | Energy: -10.137739 Hartree
O 0.087330 1.623544 0.994176
H 0.083901 2.447153 0.502503
H 0.904144 1.595887 1.496312
O -0.845064 -0.868792 -0.886408
H -0.765232 -0.371543 -1.702776
H -0.734840 -1.795871 -1.106553
6
Structure 1715 | Energy: -10.137722 Hartree
O -1.821372 -1.075785 0.785092
H -2.562464 -0.475423 0.887242
H -2.183508 -1.953876 0.651282
O 0.703639 0.162765 -0.884837
H 1.518682 0.542460 -0.550734
H 0.850024 -0.057812 -1.806794
6
Structure 1716 | Energy: -10.137701 Hartree
O 1.254417 1.370862 1.104104
H 2.185636 1.140853 1.100459
H 1.176669 2.234163 1.514905
O 0.605882 -0.092830 -1.072460
H 1.253324 0.133872 -1.742916
H -0.180010 0.428084 -1.248842
6
Structure 1717 | Energy: -10.137686 Hartree
O 0.483975 0.426900 -1.207669
H 1.308863 0.850086 -0.961579
H 0.511022 0.281462 -2.155406
O -0.051076 -0.237797 1.795159
H 0.848218 0.079272 1.691114
H -0.064045 -0.807051 2.567085
6
Structure 1718 | Energy: -10.137681 Hartree
O 0.849422 -1.527677 0.649154
H 0.595769 -1.931649 -0.183044
H 1.454110 -2.131231 1.085232
O -0.414978 0.862058 -0.783318
H -0.527269 1.561004 -1.430583
H -0.060272 0.100506 -1.246255
6
Structure 1719 | Energy: -10.137656 Hartree
O 0.725423 1.178862 0.430194
H 1.109877 0.604845 1.095616
H -0.198792 0.936454 0.345596
O 0.418153 0.014409 -1.766067
H 1.308897 -0.321976 -1.882287
H -0.121016 -0.362035 -2.464404
6
Structure 1720 | Energy: -10.137648 Hartree
O -1.827597 -1.355140 0.254473
H -1.730327 -1.419577 1.206562
H -2.751973 -1.512198 0.052106
O -1.445774 1.053738 -0.551939
H -0.984231 1.889483 -0.644657
H -1.206859 0.690639 0.303144
6
Structure 1721 | Energy: -10.137610 Hartree
O 0.280902 1.061615 -0.978590
H -0.672239 1.013048 -1.074766
H 0.547671 1.946266 -1.236114
O 1.599422 -1.290219 0.642040
H 2.172200 -1.878865 0.146552
H 0.955232 -1.836670 1.096459
6
Structure 1722 | Energy: -10.137608 Hartree
O -0.931144 0.309929 -0.132264
H -1.740083 0.349234 0.381701
H -0.500948 1.163361 -0.050560
O 0.879568 -1.506402 0.974200
H 1.608704 -0.964680 1.282395
H 1.258536 -2.254938 0.509264
6
Structure 1723 | Energy: -10.137599 Hartree
O -1.899801 -1.078296 0.543653
H -1.106105 -1.577022 0.340170
H -2.649320 -1.632249 0.316830
O -0.161121 0.099949 -1.160150
H 0.147079 -0.683775 -1.619364
H -0.598184 0.655606 -1.808463
6
Structure 1724 | Energy: -10.137574 Hartree
O 0.927029 0.131382 -0.035844
H 1.459108 0.542968 0.647951
H 0.155480 0.685839 -0.167678
O -0.860919 -0.635039 1.519062
H -0.908957 -1.530914 1.858453
H -1.654698 -0.179520 1.806299
6
Structure 1725 | Energy: -10.137570 Hartree
O -0.646671 -0.622486 0.393913
H -0.342881 -1.084123 1.177934
H 0.104970 -0.146425 0.035454
O -1.196886 1.854363 0.245522
H -1.730388 1.833728 -0.551371
H -0.769242 2.712321 0.278924
6
Structure 1726 | Energy: -10.137567 Hartree
O 0.895940 0.539774 1.858478
H 0.834092 -0.253249 1.322403
H 0.980909 0.259311 2.771829
O -1.448083 0.160626 0.423225
H -2.304887 0.263704 0.004479
H -0.939491 -0.447757 -0.116490
6
Structure 1727 | Energy: -10.137549 Hartree
O -1.515336 -0.416002 0.586826
H -1.814777 0.112989 1.328842
H -1.666663 -1.335532 0.814104
O 1.090870 -0.687693 1.570104
H 1.618604 -1.338595 2.036911
H 0.783233 -0.052582 2.219782
6
Structure 1728 | Energy: -10.137549 Hartree
O 0.875939 1.231608 -0.091824
H 1.465328 1.173881 0.662745
H 0.322831 0.448000 -0.080832
O -0.837651 0.342691 -1.962614
H -1.043988 -0.490752 -1.534963
H -1.380522 1.016456 -1.548585
6
Structure 1729 | Energy: -10.137529 Hartree
O 0.679761 0.905488 -0.215775
H 1.022063 1.469003 0.480908
H 1.147774 1.133663 -1.021375
O -2.019645 -0.102291 0.774125
H -2.567922 0.683609 0.731222
H -1.939608 -0.342647 1.699280
6
Structure 1730 | Energy: -10.137529 Hartree
O -0.221729 -2.147817 0.201487
H -1.114729 -2.477885 0.318500
H 0.372590 -2.893584 0.304961
O -0.532679 0.328659 -0.661915
H -0.798217 1.124752 -0.197359
H 0.420890 0.361907 -0.760354
6
Structure 1731 | Energy: -10.137517 Hartree
O -0.064961 1.934609 -0.719212
H 0.188337 2.827436 -0.961671
H 0.176457 1.810796 0.200830
O -1.412036 -0.116190 0.636914
H -1.211818 0.234611 1.506937
H -2.367259 -0.159599 0.561066
6
Structure 1732 | Energy: -10.137516 Hartree
O 0.772546 1.105306 1.799517
H 0.442763 1.796006 2.377672
H 1.463369 0.641340 2.276581
O -0.234867 0.028256 -0.886029
H -1.138566 -0.251844 -1.044013
H 0.316001 -0.756196 -0.921626
6
Structure 1733 | Energy: -10.137470 Hartree
O 0.934906 0.739623 1.428207
H 0.361791 1.230981 0.836436
H 0.937383 1.200891 2.269229
O 0.290988 -0.432321 -1.156068
H -0.311541 -0.165685 -0.458966
H 0.294034 0.267561 -1.811997
6
Structure 1734 | Energy: -10.137463 Hartree
O -0.110963 -2.070478 -0.248401
H -0.284041 -1.386384 -0.898128
H 0.830685 -2.057420 -0.066140
O 0.556518 0.142530 0.704841
H 0.959020 0.858340 1.200518
H 0.103385 0.535158 -0.043893
6
Structure 1735 | Energy: -10.137453 Hartree
O 0.783136 0.174753 -1.180249
H 0.761746 0.077540 -0.226216
H 1.612542 0.601632 -1.403748
O -1.800427 1.246059 -0.292701
H -2.463711 1.385369 0.386074
H -0.963356 1.553394 0.060774
6
Structure 1736 | Energy: -10.137448 Hartree
O 0.448447 -0.132590 -0.784924
H 0.186052 0.787558 -0.717385
H -0.328432 -0.631094 -1.045776
O 1.245326 -1.407449 1.093400
H 2.107761 -1.013614 0.947840
H 1.010157 -1.880264 0.292632
6
Structure 1737 | Energy: -10.137438 Hartree
O 1.365264 -0.583289 -1.502359
H 1.716875 -1.473891 -1.445055
H 0.629107 -0.607528 -2.116831
O 0.515625 1.661000 0.427096
H -0.161416 2.336525 0.500370
H 0.606063 1.254563 1.291225
6
Structure 1738 | Energy: -10.137426 Hartree
O -0.343029 -0.798951 -0.169019
H 0.196770 -1.573176 0.002090
H -0.847727 -0.622886 0.627456
O 1.640932 0.535181 1.359713
H 0.857857 0.606773 1.909036
H 2.071840 -0.291459 1.585706
6
Structure 1739 | Energy: -10.137385 Hartree
O 0.870523 -0.646868 1.587854
H 1.368880 0.013356 2.073477
H 0.738497 -1.392753 2.176340
O -1.286962 0.802987 -0.184546
H -1.207267 1.737906 0.014611
H -2.220936 0.585833 -0.159518
6
Structure 1740 | Energy: -10.137379 Hartree
O 0.042474 -1.358720 -0.304411
H -0.339281 -0.636329 -0.806904
H -0.679614 -1.929094 -0.033574
O 1.888860 0.626650 0.102574
H 1.730820 0.606796 -0.843320
H 2.676441 1.154540 0.247961
6
Structure 1741 | Energy: -10.137367 Hartree
O 2.160029 -0.653210 0.319640
H 2.661980 -1.443284 0.529197
H 1.262818 -0.930293 0.123867
O 1.113295 1.233417 -0.816564
H 1.764249 1.713335 -0.300788
H 0.422369 0.953911 -0.212754
6
Structure 1742 | Energy: -10.137353 Hartree
O 0.918636 0.407388 -0.360780
H 0.455560 1.026758 -0.928255
H 0.289045 0.094727 0.291867
O -0.485495 -1.449100 -0.922753
H 0.178985 -2.016804 -1.318059
H -0.988772 -1.058779 -1.640004
6
Structure 1743 | Energy: -10.137300 Hartree
O 0.738412 1.509970 -0.402655
H 0.581256 2.333095 -0.869403
H 1.045532 0.871134 -1.048918
O 1.637923 0.454125 1.509223
H 0.711105 0.582139 1.720665
H 2.096203 1.265003 1.738448
6
Structure 1744 | Energy: -10.137275 Hartree
O -0.262719 0.240089 -0.435693
H -0.403214 -0.621013 -0.834253
H -0.958383 0.817970 -0.755373
O 0.117831 -2.061381 0.819556
H 0.453434 -2.880497 1.189024
H -0.838928 -2.128018 0.803417
6
Structure 1745 | Energy: -10.137267 Hartree
O 0.324695 -0.136382 1.827796
H 0.738778 0.038878 2.675089
H -0.529835 -0.533977 2.006085
O 0.891036 0.988150 -0.969420
H 0.219125 0.548507 -1.494146
H 0.886221 1.914096 -1.219798
6
Structure 1746 | Energy: -10.137257 Hartree
O 0.306049 0.402376 -0.745591
H 0.580730 -0.468496 -1.039220
H 1.102183 0.917002 -0.599230
O -1.886716 -0.431078 1.096791
H -2.529288 -0.664335 1.769681
H -1.396502 -1.227599 0.883878
6
Structure 1747 | Energy: -10.137242 Hartree
O -1.653805 0.010885 -1.556655
H -2.521553 0.002817 -1.147957
H -1.765006 0.333684 -2.453051
O 0.075203 -1.342585 0.215330
H 0.302235 -1.811825 1.020537
H 0.839533 -0.819184 -0.033547
6
Structure 1748 | Energy: -10.137242 Hartree
O 0.140308 -0.823774 0.135453
H -0.724308 -1.162049 0.376480
H 0.496633 -0.379228 0.907141
O 0.185436 0.662699 -2.193129
H -0.381887 1.435772 -2.217422
H 1.067491 0.964637 -1.967520
6
Structure 1749 | Energy: -10.137234 Hartree
O 1.377865 -0.646026 1.345073
H 2.175627 -0.787304 1.858592
H 1.488509 0.179782 0.869794
O -1.103296 -0.089478 0.193251
H -1.582492 -0.541026 -0.504290
H -1.554354 0.741282 0.355948
6
Structure 1750 | Energy: -10.137221 Hartree
O -1.551306 1.163861 -0.234068
H -1.380294 0.337242 0.221500
H -2.212420 1.637176 0.274844
O 0.568037 0.595267 -1.139468
H 0.109157 0.205243 -1.886060
H 0.946648 1.423761 -1.440033
6
Structure 1751 | Energy: -10.137158 Hartree
O -1.709392 0.347124 0.602879
H -1.127260 0.024905 -0.088050
H -2.607959 0.269654 0.276280
O 1.044177 1.227523 1.261982
H 1.302585 0.599024 0.585003
H 1.381086 2.085496 0.996532
6
Structure 1752 | Energy: -10.137139 Hartree
O 1.833314 0.348992 -1.021492
H 2.449688 0.267404 -1.751911
H 1.518698 1.255120 -1.015174
O 1.010942 -0.644598 1.236753
H 0.336763 -0.174329 1.731139
H 0.559541 -1.257387 0.652959
6
Structure 1753 | Energy: -10.137125 Hartree
O -1.591517 -0.029590 0.681420
H -2.525527 -0.201491 0.546656
H -1.370485 -0.336578 1.562892
O -0.836448 1.325519 -1.197474
H -0.325912 1.100019 -0.417352
H -0.285099 1.887957 -1.744984
6
Structure 1754 | Energy: -10.137090 Hartree
O -0.486066 1.950562 -0.949792
H -1.146961 1.421861 -1.401212
H -0.944667 2.681544 -0.530934
O 1.478495 0.013665 0.291776
H 2.435002 0.085313 0.284799
H 1.255383 -0.759894 0.813232
6
Structure 1755 | Energy: -10.137062 Hartree
O -0.505838 -2.045854 -0.353887
H -1.386124 -2.406802 -0.231825
H 0.085600 -2.540406 0.216824
O -1.909268 0.150027 0.683943
H -1.840603 -0.403271 1.464477
H -2.686137 0.701737 0.794295
6
Structure 1756 | Energy: -10.137046 Hartree
O 0.253761 0.805955 -0.262321
H 1.188803 0.835783 -0.050442
H 0.103184 1.433372 -0.972085
O -1.092006 -1.359680 0.342807
H -0.270938 -1.394046 -0.151919
H -1.568480 -2.171680 0.159186
6
Structure 1757 | Energy: -10.137039 Hartree
O -1.626245 -0.048440 1.130390
H -1.770714 -0.706897 1.812775
H -2.373913 0.552063 1.152262
O 1.068413 -0.700220 0.109619
H 1.191072 -0.728288 -0.841304
H 1.925444 -0.521099 0.501412
6
Structure 1758 | Energy: -10.137026 Hartree
O -0.044834 1.207657 0.099580
H -0.311180 1.745442 -0.648706
H -0.830777 0.764198 0.424740
O 1.867902 -0.508346 -0.325912
H 2.477221 0.196878 -0.552798
H 2.393926 -1.254482 -0.031518
6
Structure 1759 | Energy: -10.137024 Hartree
O -0.601126 -0.397378 0.244242
H 0.223520 -0.053604 0.593333
H -0.824274 0.128089 -0.526589
O 1.245716 -0.802381 -1.029652
H 1.734926 -1.059172 -1.813756
H 0.690152 -1.545232 -0.785501
6
Structure 1760 | Energy: -10.137023 Hartree
O 1.094436 -1.013233 -0.164338
H 1.613298 -1.208870 -0.947022
H 1.711291 -0.822716 0.545087
O -1.128374 -0.067492 -1.921875
H -2.086295 -0.030969 -1.955634
H -0.799924 0.347196 -2.722026
6
Structure 1761 | Energy: -10.137008 Hartree
O 1.105674 0.121622 1.992976
H 1.857115 0.646482 1.710230
H 0.482249 0.719643 2.409872
O 0.738568 -0.766978 -0.522447
H 0.684689 -0.009166 -1.108029
H -0.105331 -1.220801 -0.566804
6
Structure 1762 | Energy: -10.136969 Hartree
O 0.511098 0.647623 -1.460794
H 1.355507 0.570017 -1.012422
H -0.172901 0.583988 -0.791327
O -0.849180 -1.248522 -1.512705
H 0.035626 -1.588310 -1.660184
H -1.212751 -1.020982 -2.370686
6
Structure 1763 | Energy: -10.136968 Hartree
O 1.529915 -1.557134 -0.694844
H 2.257303 -1.965163 -1.168664
H 0.731663 -1.727207 -1.198788
O 1.136972 0.772131 -0.011574
H 2.047591 0.828598 0.284521
H 0.582897 0.776401 0.771414
6
Structure 1764 | Energy: -10.136926 Hartree
O -0.730167 -0.577328 -1.027262
H -0.922847 -0.225303 -1.898491
H 0.125183 -1.008491 -1.077908
O -1.702628 0.788455 0.701482
H -2.455116 0.639263 0.125643
H -1.617773 0.016061 1.263884
6
Structure 1765 | Energy: -10.136874 Hartree
O 0.549503 -0.087579 0.364292
H 0.058263 0.481765 -0.231206
H 1.286461 -0.449240 -0.131878
O -1.303385 -0.572552 -1.344386
H -0.706030 -1.232440 -0.986890
H -0.819769 -0.084456 -2.013688
6
Structure 1766 | Energy: -10.136829 Hartree
O -1.094295 0.786500 0.153644
H -2.036660 0.750777 -0.021737
H -0.665343 0.207834 -0.479789
O 0.945504 1.645523 1.209695
H 1.262029 1.074803 1.912672
H 0.397711 2.319869 1.616226
6
Structure 1767 | Energy: -10.136767 Hartree
O -0.124477 -0.642835 -0.279904
H 0.207029 0.134527 -0.733664
H 0.104517 -1.404217 -0.816514
O -1.369455 1.435075 0.699550
H -1.146500 2.367928 0.712351
H -2.217427 1.339649 1.137644
6
Structure 1768 | Energy: -10.136765 Hartree
O 1.243864 -0.057299 -0.539058
H 1.302122 -0.627098 -1.308486
H 1.044688 0.826411 -0.854455
O -1.146772 -0.994595 -1.398604
H -0.697860 -1.130843 -2.235265
H -1.883845 -0.403630 -1.564654
6
Structure 1769 | Energy: -10.136755 Hartree
O 1.934466 -0.213485 -0.533010
H 2.721940 -0.760619 -0.508185
H 2.017185 0.369188 -1.290466
O -0.453032 1.082186 0.135610
H -1.220167 0.566568 -0.120766
H -0.351630 1.782011 -0.512504
6
Structure 1770 | Energy: -10.136746 Hartree
O 1.606657 -0.662540 -1.230202
H 1.788245 -0.789496 -0.296932
H 0.654471 -0.601210 -1.328538
O 1.061245 0.801334 0.854691
H 0.996894 0.744879 1.810075
H 0.279367 0.380407 0.491959
6
Structure 1771 | Energy: -10.136731 Hartree
O 0.652404 -0.041486 1.413956
H 1.224538 -0.509522 0.802653
H 1.206361 0.293090 2.121968
O -2.056688 -0.357067 0.795782
H -2.920965 -0.772855 0.780513
H -2.179981 0.563350 0.555533
6
Structure 1772 | Energy: -10.136722 Hartree
O 0.626967 -0.056714 0.562525
H 0.073053 -0.588117 1.137744
H 1.452213 0.097901 1.026370
O 0.792530 -1.401781 -1.427814
H 0.933595 -0.463420 -1.568050
H 1.521633 -1.721824 -0.892959
6
Structure 1773 | Energy: -10.136713 Hartree
O 1.323018 1.381897 1.187334
H 1.656637 1.676788 2.036936
H 1.463559 2.096718 0.563339
O 0.340512 -0.141332 -1.116423
H 0.221111 -0.702473 -1.885158
H 0.180857 0.762047 -1.396610
6
Structure 1774 | Energy: -10.136709 Hartree
O 1.398072 -0.803389 -1.064777
H 1.077057 -1.706202 -1.109088
H 2.256973 -0.827921 -0.638422
O 0.987530 0.249380 1.045341
H 0.346180 0.842853 1.441001
H 1.486263 0.757675 0.402699
6
Structure 1775 | Energy: -10.136657 Hartree
O -1.152107 -1.444767 1.333143
H -1.814631 -1.798892 1.929586
H -0.326162 -1.402221 1.819039
O -1.486136 0.278169 -0.880585
H -2.057315 0.446693 -1.632543
H -0.584308 0.261632 -1.206961
6
Structure 1776 | Energy: -10.136645 Hartree
O 1.314930 1.671149 0.149960
H 1.730552 1.311686 0.936172
H 0.806810 2.437718 0.422499
O -0.178413 -0.366966 -1.102068
H -0.327552 -1.252976 -0.766164
H -0.991073 0.126115 -0.973447
6
Structure 1777 | Energy: -10.136612 Hartree
O 0.702447 -1.972446 -0.161374
H 1.241856 -1.664516 0.569587
H 1.182998 -1.781363 -0.969241
O -0.622005 0.018437 0.860231
H -0.077330 0.211860 0.094722
H -0.827867 0.855407 1.281170
6
Structure 1778 | Energy: -10.136606 Hartree
O -1.950074 0.385417 -0.511192
H -2.885627 0.173695 -0.512440
H -1.495707 -0.338000 -0.074947
O 0.710327 1.019168 -0.940103
H 1.388954 0.594355 -0.411816
H 1.134263 1.350020 -1.734397
6
Structure 1779 | Energy: -10.136575 Hartree
O -1.501160 -0.353136 1.438542
H -1.210509 -1.181374 1.825361
H -2.327698 -0.526622 0.983758
O -0.182373 1.718823 -0.069398
H -0.229715 1.219374 -0.886953
H -0.286768 2.645042 -0.295910
6
Structure 1780 | Energy: -10.136571 Hartree
O -1.545108 -1.345252 -0.289036
H -0.691936 -0.908828 -0.330482
H -1.629390 -1.721387 0.589320
O -1.988830 1.042032 0.509628
H -1.676524 0.783101 1.378827
H -2.438222 1.883690 0.608349
6
Structure 1781 | Energy: -10.136555 Hartree
O -0.440990 0.556647 -0.523718
H -0.817612 0.642665 -1.401695
H 0.433746 0.176522 -0.625858
O -2.006120 -0.104613 1.159863
H -1.561279 -0.406648 1.954205
H -1.828621 0.834150 1.074396
6
Structure 1782 | Energy: -10.136546 Hartree
O 0.028717 0.692217 0.073636
H -0.785601 0.293317 -0.239174
H 0.097504 1.556542 -0.336610
O 0.735691 -1.774337 -0.707932
H 1.328525 -1.729602 -1.460684
H 0.148304 -2.518701 -0.852803
6
Structure 1783 | Energy: -10.136522 Hartree
O -2.040010 -0.484911 0.004604
H -1.692989 0.015836 0.745493
H -2.789808 -0.988115 0.328146
O 0.380538 -1.013506 1.330017
H 1.223415 -0.787150 1.728023
H -0.299448 -0.830322 1.981286
6
Structure 1784 | Energy: -10.136488 Hartree
O 0.681753 0.266745 0.047192
H -0.172931 0.022371 0.407585
H 1.264333 -0.486595 0.161952
O -0.731244 0.100034 -1.982006
H -1.419159 0.748367 -1.819148
H -0.790587 -0.151131 -2.905848
6
Structure 1785 | Energy: -10.136485 Hartree
O -1.533345 0.666894 1.311435
H -1.388344 0.102885 0.549231
H -2.432810 0.995292 1.254788
O 1.075730 1.120836 0.593153
H 0.354339 0.968163 -0.020339
H 1.465636 1.967818 0.368025
6
Structure 1786 | Energy: -10.136438 Hartree
O -0.794486 -0.302892 0.336892
H -1.302715 0.500706 0.463464
H 0.092744 -0.131509 0.658670
O -0.486613 1.181325 -1.542372
H -0.536942 0.963668 -2.475206
H 0.430279 1.085500 -1.277393
6
Structure 1787 | Energy: -10.136416 Hartree
O -0.394220 0.669310 -0.530978
H -0.427437 -0.057427 -1.156146
H -0.854409 1.409626 -0.931290
O -0.142027 -1.644385 0.930556
H 0.350313 -1.985644 0.181403
H -1.046396 -1.950843 0.839514
6
Structure 1788 | Energy: -10.136393 Hartree
O 0.199952 -0.144693 -0.709413
H -0.130810 -0.817901 -0.111522
H -0.558782 0.343342 -1.035352
O 2.151591 0.584280 0.489862
H 2.806619 0.058411 0.952990
H 2.375402 0.560021 -0.442559
6
Structure 1789 | Energy: -10.136390 Hartree
O -0.421359 0.441199 -0.426668
H 0.391825 0.636027 -0.896625
H -0.668737 1.233794 0.053633
O -0.992945 -0.639946 1.752323
H -1.937692 -0.765350 1.643627
H -0.720039 -1.172785 2.501784
6
Structure 1790 | Energy: -10.136379 Hartree
O -0.444906 -0.037641 -0.119546
H -0.760393 0.855542 -0.270470
H -0.430874 -0.481409 -0.969819
O 1.916145 -0.514119 0.546013
H 1.895385 -0.801088 1.461057
H 2.349954 0.341164 0.526314
6
Structure 1791 | Energy: -10.136366 Hartree
O 1.983663 -0.011822 -0.431770
H 2.590502 0.493708 -0.976079
H 1.634448 0.584587 0.233388
O -0.280865 -0.915946 0.743054
H -0.569279 -0.206732 1.320913
H -1.062464 -1.409841 0.487599
6
Structure 1792 | Energy: -10.136359 Hartree
O 0.677909 -0.276974 1.115313
H 0.035361 -0.903268 1.454391
H 1.431695 -0.294249 1.708271
O -1.536372 0.833973 -0.036680
H -2.438714 0.868343 -0.360231
H -1.351439 -0.078859 0.192723
6
Structure 1793 | Energy: -10.136357 Hartree
O -0.549323 0.163563 0.243626
H -1.188240 0.772925 0.618526
H 0.190196 0.686311 -0.072503
O 2.004407 -0.281749 0.403471
H 2.298659 0.619472 0.549431
H 2.770116 -0.850514 0.504874
6
Structure 1794 | Energy: -10.136316 Hartree
O -0.515019 0.445931 -0.238852
H -1.261544 0.003301 -0.647345
H 0.277003 0.133246 -0.680463
O 0.855388 1.035685 1.766958
H 0.666921 0.107773 1.920407
H 0.684529 1.499930 2.588768
6
Structure 1795 | Energy: -10.136282 Hartree
O -1.800516 -0.324747 0.155608
H -1.703640 -1.221002 -0.172155
H -2.632968 -0.284378 0.630461
O 0.250286 0.635900 -0.895545
H 0.639795 0.444237 -0.040189
H 0.123401 -0.202397 -1.344151
6
Structure 1796 | Energy: -10.136281 Hartree
O 0.545239 1.718406 -1.288343
H 0.883805 1.196106 -0.558506
H 1.293765 2.163691 -1.690239
O -1.184657 0.265124 -0.314430
H -1.153902 0.117847 0.632909
H -1.997702 0.738225 -0.502102
6
Structure 1797 | Energy: -10.136271 Hartree
O -0.855684 1.565400 1.124348
H 0.028222 1.209306 1.014828
H -0.904145 1.938940 2.006511
O -0.903748 -0.407401 -0.431781
H -0.700008 -1.290570 -0.745771
H -0.575147 0.210228 -1.088015
6
Structure 1798 | Energy: -10.136261 Hartree
O 0.600760 0.067473 -0.281316
H 0.835781 0.592629 0.486188
H -0.132434 0.509292 -0.714113
O -0.412437 -2.111424 0.546480
H 0.181983 -1.821800 1.241369
H -0.900067 -2.864684 0.885453
6
Structure 1799 | Energy: -10.136260 Hartree
O 0.949493 0.439609 0.314983
H 0.497152 0.233087 1.135240
H 1.110575 1.385186 0.309718
O 0.040826 0.021179 -2.271084
H -0.457374 0.831487 -2.394715
H 0.512806 -0.149604 -3.088492
6
Structure 1800 | Energy: -10.136245 Hartree
O -0.863537 -1.724201 -0.357148
H -1.658031 -2.167293 -0.052954
H -1.108836 -0.824987 -0.583715
O 0.229362 0.240531 0.485316
H 0.260833 0.309302 1.441541
H 0.973726 0.737387 0.140141
6
Structure 1801 | Energy: -10.136230 Hartree
O -1.449627 0.761950 -1.505844
H -0.514940 0.874491 -1.322046
H -1.648115 1.273910 -2.292349
O -1.515539 -0.564692 0.982291
H -1.640317 -0.887438 1.876916
H -0.609007 -0.757085 0.734758
6
Structure 1802 | Energy: -10.136190 Hartree
O 0.769475 1.919739 0.546902
H 1.484795 2.167612 1.135938
H 0.304927 2.724745 0.309728
O 1.080976 -0.745970 -0.546921
H 1.699707 -1.391856 -0.200379
H 0.443815 -1.222121 -1.083013
6
Structure 1803 | Energy: -10.136180 Hartree
O 1.121116 -1.324782 -0.105356
H 0.390692 -0.741298 -0.320098
H 0.971219 -1.652186 0.783705
O 1.953825 0.934094 0.362296
H 1.716579 1.054172 1.283915
H 2.894368 1.106415 0.286319
6
Structure 1804 | Energy: -10.136174 Hartree
O 0.983234 0.230495 1.266530
H 0.808528 -0.351028 0.523971
H 0.260599 0.122549 1.888011
O 0.897029 1.903125 -0.780530
H 0.027794 1.515665 -0.900498
H 1.531069 1.310345 -1.188811
6
Structure 1805 | Energy: -10.136167 Hartree
O -0.557734 -0.432829 0.823942
H -0.885473 -0.022997 1.626880
H -0.624813 0.219755 0.124138
O 1.802639 -1.359838 0.124204
H 1.961368 -0.755540 0.852021
H 2.504122 -1.224164 -0.515797
6
Structure 1806 | Energy: -10.136161 Hartree
O 1.280573 0.941220 -0.121960
H 0.414297 0.620207 -0.380035
H 1.916309 0.261816 -0.355073
O 1.013534 -0.658562 1.835628
H 0.561477 -1.313193 1.299727
H 1.199587 -1.065422 2.684119
6
Structure 1807 | Energy: -10.136156 Hartree
O 0.301034 0.770143 -0.693939
H -0.639687 0.582793 -0.688463
H 0.422944 1.598650 -1.161705
O 0.884302 -0.682767 1.642435
H 0.822958 -1.639342 1.678318
H 0.773986 -0.357259 2.537959
6
Structure 1808 | Energy: -10.136135 Hartree
O -0.774561 1.225922 1.285226
H -1.166640 1.609589 0.498359
H 0.035164 1.708355 1.463253
O 0.018204 -0.470259 -0.399032
H -0.534916 -0.425332 -1.181418
H 0.662352 -1.165625 -0.546096
6
Structure 1809 | Energy: -10.136121 Hartree
O 2.147099 -0.565889 0.646982
H 1.776532 0.318547 0.623788
H 3.047390 -0.505279 0.321569
O -0.076646 -0.762917 1.458218
H -0.770786 -0.851831 0.802207
H -0.039218 -1.588113 1.945803
6
Structure 1810 | Energy: -10.136109 Hartree
O -2.005257 0.898099 -0.121499
H -2.548869 0.868205 -0.911232
H -2.376582 0.271658 0.502825
O -0.193121 -0.105907 0.879737
H 0.043096 0.523479 1.563961
H 0.147887 0.234758 0.050430
6
Structure 1811 | Energy: -10.136101 Hartree
O 0.036738 -0.536192 -0.811582
H 0.759649 -1.130810 -1.021140
H 0.344948 0.053131 -0.120355
O -1.518815 0.472396 0.781732
H -2.188437 -0.212770 0.829085
H -1.393002 0.808585 1.671246
6
Structure 1812 | Energy: -10.136085 Hartree
O 1.137735 -0.556450 0.995851
H 1.706190 -0.990653 1.634924
H 0.932203 0.313612 1.343470
O -1.425295 -1.056239 0.894813
H -2.352929 -0.861989 1.042629
H -1.083313 -1.441516 1.703947
6
Structure 1813 | Energy: -10.136071 Hartree
O -0.117554 1.044740 0.908405
H 0.833951 1.144367 0.839126
H -0.498316 1.924583 0.876991
O -1.175620 -0.187264 -1.211700
H -1.693882 0.313102 -1.845045
H -1.311749 -1.116967 -1.404596
6
Structure 1814 | Energy: -10.136054 Hartree
O -1.117943 1.033794 -1.738540
H -1.581369 0.897893 -2.567306
H -1.568702 0.511542 -1.072087
O 0.987203 0.238133 -0.397520
H 1.108158 -0.653238 -0.730558
H 1.722232 0.424009 0.190077
6
Structure 1815 | Energy: -10.136022 Hartree
O 0.591162 1.021093 1.115580
H 0.802532 0.305820 0.512428
H 0.961685 0.791089 1.969923
O -0.927592 0.935567 -1.261078
H -0.134024 0.445957 -1.486064
H -1.527602 0.861789 -2.005815
6
Structure 1816 | Energy: -10.136019 Hartree
O 0.244375 -0.138359 -2.232729
H 0.024022 -0.479874 -3.101577
H -0.400497 0.539789 -2.022143
O -0.076691 -1.634060 -0.172805
H -0.210575 -0.686763 -0.103588
H -0.933236 -2.030199 -0.344533
6
Structure 1817 | Energy: -10.135988 Hartree
O 1.200545 0.514300 0.429811
H 2.116083 0.235805 0.495515
H 1.012176 1.054963 1.199415
O -1.422388 0.372627 1.283171
H -1.050060 0.794270 2.060137
H -2.215053 0.859073 1.048352
6
Structure 1818 | Energy: -10.135979 Hartree
O 0.126914 -0.286113 0.817736
H -0.023779 -1.229168 0.907318
H 0.983996 -0.097375 1.204878
O -1.173416 1.693458 -0.811646
H -0.949142 2.573828 -0.503850
H -1.672587 1.795278 -1.624388
6
Structure 1819 | Energy: -10.135945 Hartree
O -0.029014 0.274523 0.543086
H 0.710351 0.253064 1.153795
H 0.029335 -0.513035 -0.001375
O -1.175772 0.192402 -1.561029
H -1.732674 -0.372512 -2.100306
H -1.286181 1.089665 -1.881679
6
Structure 1820 | Energy: -10.135923 Hartree
O -1.812166 1.175266 0.749473
H -2.079531 0.714902 -0.048441
H -2.182228 2.059103 0.705007
O 0.721338 0.163988 0.721898
H 1.500684 0.678102 0.941884
H 0.785255 -0.065281 -0.207315
6
Structure 1821 | Energy: -10.135896 Hartree
O 0.976679 0.619447 -1.597595
H 1.869538 0.965971 -1.544601
H 0.925931 0.085545 -2.392872
O -0.883790 -0.231074 0.292531
H -1.715350 -0.001651 0.712008
H -0.941073 -1.152898 0.033597
6
Structure 1822 | Energy: -10.135870 Hartree
O 0.522301 -0.030385 -2.128113
H -0.271553 -0.287328 -2.601253
H 0.865712 -0.817584 -1.700940
O -0.619963 0.152400 0.311481
H -0.746961 -0.677557 -0.152340
H -0.415943 -0.060607 1.224220
6
Structure 1823 | Energy: -10.135855 Hartree
O -0.056328 -0.803744 -0.404845
H -0.528694 -1.599940 -0.153789
H -0.177441 -0.687471 -1.349251
O 0.698120 0.386739 1.868707
H 0.426619 1.063935 2.491427
H 1.656856 0.358608 1.879751
6
Structure 1824 | Energy: -10.135801 Hartree
O -1.875065 -0.847387 -0.324718
H -1.557725 -1.751849 -0.288258
H -2.809326 -0.865203 -0.108087
O 0.256991 0.392653 0.194433
H -0.147763 1.250828 0.053726
H 0.917917 0.499501 0.881345
6
Structure 1825 | Energy: -10.135777 Hartree
O -0.151592 -0.155004 -0.830151
H 0.717789 -0.491396 -0.604089
H -0.275929 -0.298260 -1.770422
O -1.710223 -1.148899 0.921417
H -2.518935 -0.743326 0.602696
H -1.797143 -2.095414 0.792410
6
Structure 1826 | Energy: -10.135752 Hartree
O 0.046095 -0.676488 0.428928
H 0.421802 0.078618 0.885813
H -0.876851 -0.476427 0.260887
O -0.153792 1.214545 -1.480892
H 0.513300 1.903801 -1.482159
H -0.666314 1.316754 -0.676552
6
Structure 1827 | Energy: -10.135743 Hartree
O -0.276019 -0.600284 -0.306603
H -0.497781 0.198911 -0.788468
H 0.062550 -1.231770 -0.944324
O 2.236539 -0.362541 0.117136
H 3.039951 -0.212099 0.619116
H 2.450237 -0.984266 -0.581347
6
Structure 1828 | Energy: -10.135733 Hartree
O 0.370849 1.342815 1.704661
H -0.486438 1.484282 2.111025
H 1.004240 1.881556 2.182851
O 0.693309 -0.551397 -0.151546
H 0.148013 -0.151256 -0.831713
H 1.381230 -1.050588 -0.596138
6
Structure 1829 | Energy: -10.135667 Hartree
O -1.609433 0.243257 -0.054965
H -1.342134 0.324637 -0.972579
H -2.401874 0.771808 0.058002
O 0.459730 -0.651380 0.769508
H 0.007422 -0.142347 1.445074
H 0.435957 -0.135230 -0.038645
6
Structure 1830 | Energy: -10.135641 Hartree
O -0.397231 -0.781163 -0.225325
H 0.409603 -0.629364 -0.721371
H -1.121860 -0.778322 -0.853813
O 0.767157 0.159972 1.634618
H 1.442155 0.541967 2.199016
H 0.748789 -0.782565 1.811749
6
Structure 1831 | Energy: -10.135641 Hartree
O -0.529112 0.010318 -1.761735
H 0.129184 -0.686704 -1.731844
H -0.957136 -0.039775 -2.618693
O 0.688882 1.290053 0.234180
H 1.310884 1.970102 0.500140
H 0.650095 0.646946 0.944811
6
Structure 1832 | Energy: -10.135535 Hartree
O 0.001250 0.415002 -0.204842
H -0.490119 0.542289 -1.018746
H 0.897431 0.175167 -0.448627
O -0.601295 -0.839649 1.752827
H 0.110335 -0.929310 2.389718
H -1.051802 -0.014792 1.944511
6
Structure 1833 | Energy: -10.135515 Hartree
O 0.696194 -0.099695 -0.086002
H 1.235577 -0.830428 0.222516
H 1.162251 0.709605 0.132894
O -1.550716 0.784670 0.829691
H -1.731871 0.219769 1.583453
H -2.262066 1.426068 0.777939
6
Structure 1834 | Energy: -10.135512 Hartree
O 1.697537 0.454777 0.587764
H 2.120055 -0.281528 1.034329
H 2.247451 0.684544 -0.163829
O 0.109780 -0.592637 -0.856905
H -0.618419 -0.697384 -0.241403
H -0.173462 -0.958823 -1.697006
6
Structure 1835 | Energy: -10.135476 Hartree
O 0.197445 0.909256 -0.176009
H 0.047480 1.649839 0.414867
H 1.108943 0.960730 -0.470307
O -0.740764 -0.243755 1.625235
H -1.335948 -0.540532 2.316442
H -0.465411 -1.020626 1.134582
6
Structure 1836 | Energy: -10.135473 Hartree
O -0.196221 1.646609 -0.510020
H 0.375775 1.196210 -1.134557
H 0.200786 2.500127 -0.325678
O -1.997768 -0.069645 0.183846
H -2.877165 0.177318 -0.108997
H -2.078722 -0.395924 1.082220
6
Structure 1837 | Energy: -10.135447 Hartree
O -1.840209 0.957766 -0.142444
H -1.149644 0.614248 -0.712709
H -2.337234 1.599744 -0.653249
O -0.488701 -0.856952 1.400222
H -0.636656 -1.785470 1.590095
H 0.010371 -0.810267 0.582398
6
Structure 1838 | Energy: -10.135436 Hartree
O -1.091422 -1.617666 -0.533867
H -0.255842 -2.082429 -0.457139
H -1.776654 -2.211816 -0.221564
O -0.458437 0.469095 0.733210
H -0.446941 1.213166 0.127971
H 0.005013 0.741841 1.527509
6
Structure 1839 | Energy: -10.135430 Hartree
O 0.865667 -0.896170 -0.037313
H 0.574366 -1.018559 0.868364
H 1.752129 -1.256891 -0.101780
O -0.212347 1.332350 -0.970381
H -0.853817 1.391625 -1.681078
H -0.584575 1.788313 -0.212996
6
Structure 1840 | Energy: -10.135407 Hartree
O 0.844766 -1.938758 0.381743
H 0.286330 -2.487034 -0.172899
H 1.504823 -2.512569 0.775643
O 0.280957 0.267685 -0.603022
H 0.922184 0.740751 -0.069052
H -0.197101 0.920782 -1.117816
6
Structure 1841 | Energy: -10.135390 Hartree
O -1.700414 -0.560060 0.518940
H -2.526805 -0.898624 0.168883
H -1.447456 -1.127984 1.249396
O -0.084607 1.522018 -0.165427
H 0.118576 2.444786 -0.000189
H 0.418694 1.254043 -0.936766
6
Structure 1842 | Energy: -10.135330 Hartree
O -0.983861 1.621404 -1.213123
H -1.555988 2.391247 -1.223039
H -1.547235 0.847937 -1.279834
O -0.454223 -0.206661 0.054425
H 0.094975 -0.345557 -0.719639
H 0.068720 0.287518 0.688779
6
Structure 1843 | Energy: -10.135278 Hartree
O -0.287215 1.746832 0.474759
H 0.169734 2.368063 -0.095641
H -1.011452 2.220683 0.888323
O 0.741184 -0.446358 -0.123954
H 1.506733 -0.793708 -0.585874
H 0.300677 0.161405 -0.721169
6
Structure 1844 | Energy: -10.135262 Hartree
O -1.424079 -0.071772 1.251244
H -1.395819 0.835299 0.940585
H -2.340773 -0.352889 1.224096
O 0.698903 -0.895065 0.457560
H 0.516207 -1.686793 0.967340
H 0.506188 -1.097296 -0.460074
6
Structure 1845 | Energy: -10.135251 Hartree
O -0.252099 0.184098 0.676273
H -0.972284 0.669511 1.083450
H 0.554352 0.673514 0.850053
O 0.395018 -1.798300 -0.850507
H 0.223903 -1.650208 -1.782642
H 0.150048 -2.705363 -0.657337
6
Structure 1846 | Energy: -10.135243 Hartree
O 0.426909 0.268108 0.088813
H 1.221538 0.718193 -0.204572
H 0.337043 -0.525182 -0.442887
O -1.737941 -1.144083 0.670361
H -0.983656 -1.730254 0.757220
H -2.306660 -1.511742 -0.008958
6
Structure 1847 | Energy: -10.135174 Hartree
O -0.020182 -0.412750 0.512291
H 0.289369 0.255135 -0.102684
H -0.977774 -0.426601 0.458289
O -0.594664 -0.774956 -1.679684
H 0.193181 -1.169313 -2.058985
H -1.284510 -0.822819 -2.344447
6
Structure 1848 | Energy: -10.135172 Hartree
O 0.683736 -0.405048 -0.094311
H 0.890979 -0.889722 -0.895702
H 0.940800 0.507557 -0.239778
O -1.309488 1.121795 0.792305
H -0.900512 1.896299 0.401191
H -2.256433 1.274456 0.801072
6
Structure 1849 | Energy: -10.135165 Hartree
O 1.036880 -0.234915 -0.662535
H 1.423151 0.636324 -0.553801
H 0.688577 -0.499758 0.191066
O -1.208371 -0.146376 -1.435521
H -0.898445 0.307862 -2.221461
H -2.167041 -0.117715 -1.450315
6
Structure 1850 | Energy: -10.135120 Hartree
O -1.255109 1.323430 0.962876
H -1.835397 1.408868 1.721858
H -0.984426 2.208575 0.711202
O -1.054257 -0.690394 -0.640251
H -0.361514 -1.256947 -0.294981
H -0.864477 -0.543378 -1.568937
6
Structure 1851 | Energy: -10.135088 Hartree
O -0.872717 -1.247281 1.558851
H -1.223820 -1.845992 2.220937
H -1.611581 -0.950222 1.024130
O 1.477605 -0.402140 0.515440
H 1.620480 -0.211810 -0.413779
H 2.340893 -0.511477 0.919008
6
Structure 1852 | Energy: -10.135054 Hartree
O 1.559057 1.039346 0.723259
H 1.659437 1.984476 0.852642
H 0.905552 0.733918 1.355506
O 1.151952 -1.058644 -0.425437
H 1.348899 -1.995834 -0.370913
H 1.163058 -0.819620 -1.354325
6
Structure 1853 | Energy: -10.135039 Hartree
O 0.041327 -0.907661 1.721267
H 0.995484 -0.927802 1.817514
H -0.327557 -1.426497 2.438780
O -1.406860 0.039616 -0.243627
H -0.697036 0.462150 -0.731175
H -2.230956 0.417049 -0.557470
6
Structure 1854 | Energy: -10.135033 Hartree
O -0.525233 -0.107897 -0.195995
H -0.831290 -1.015701 -0.147964
H -1.139976 0.426306 0.310767
O 0.124186 0.309340 1.934688
H 0.172649 0.437728 2.884033
H 0.894179 0.733581 1.550998
6
Structure 1855 | Energy: -10.134867 Hartree
O -0.088314 1.081091 -0.213803
H -0.193582 2.027437 -0.097895
H -0.861070 0.765066 -0.686103
O 1.283891 -0.448185 1.009728
H 1.672278 0.428316 0.978288
H 1.874254 -1.037624 0.536314
6
Structure 1856 | Energy: -10.134778 Hartree
O 1.177612 0.572678 0.173512
H 1.697211 -0.233495 0.159779
H 1.598530 1.192153 -0.425796
O -1.192718 0.618388 1.353071
H -1.832109 -0.096518 1.366340
H -1.683824 1.437009 1.259455
6
Structure 1857 | Energy: -10.134746 Hartree
O 0.000616 0.869140 -0.077951
H 0.358380 1.121102 0.775633
H 0.308076 1.515281 -0.716748
O -1.044192 -0.115908 1.847409
H -1.109317 0.081755 2.783772
H -1.304303 -1.031899 1.731692
6
Structure 1858 | Energy: -10.134733 Hartree
O 1.203827 1.144612 -0.195208
H 1.202958 2.016777 -0.594473
H 2.045150 0.735793 -0.407655
O -0.875400 -0.141891 0.591311
H -1.530284 0.422508 0.175779
H -1.267531 -0.487506 1.395595
6
Structure 1859 | Energy: -10.134684 Hartree
O 0.209725 -0.320647 0.718665
H -0.381753 0.057852 1.372100
H 1.100665 -0.054095 0.953755
O -0.987223 0.916084 -1.233020
H -1.456442 1.159225 -0.432518
H -1.062017 1.653940 -1.841348
6
Structure 1860 | Energy: -10.134574 Hartree
O -0.145711 -0.451870 0.528929
H -0.009760 0.456681 0.252998
H -1.069237 -0.539478 0.772887
O 0.659303 -1.567820 -1.477420
H 0.431883 -2.404573 -1.067284
H 0.145254 -1.497943 -2.284240
6
Structure 1861 | Energy: -10.134539 Hartree
O -0.076193 0.017590 -0.575072
H -0.002690 0.392731 -1.454818
H -0.738852 -0.674728 -0.615946
O -1.214528 0.962286 1.447275
H -1.305745 1.754391 0.914042
H -1.954745 0.390285 1.235185
6
Structure 1862 | Energy: -10.134532 Hartree
O 1.010969 -0.720453 0.636461
H 1.864349 -1.103263 0.423660
H 0.611396 -0.440379 -0.189367
O -1.105514 -0.243007 1.981869
H -1.733486 -0.001885 2.665680
H -1.584068 -0.749155 1.322409
6
Structure 1863 | Energy: -10.134467 Hartree
O -0.730521 0.641629 0.081657
H -0.331202 -0.147931 -0.288784
H -1.599232 0.395456 0.405435
O 1.609686 0.004333 0.978191
H 1.844960 0.258959 0.083820
H 1.130255 -0.824483 0.920759
6
Structure 1864 | Energy: -10.134438 Hartree
O -0.502651 -0.053209 0.856162
H -0.856621 0.521456 1.537742
H -0.927605 -0.907354 0.955873
O -0.197623 -1.344250 -1.333553
H -1.127820 -1.521029 -1.487083
H 0.205686 -2.168289 -1.053572
6
Structure 1865 | Energy: -10.134286 Hartree
O 0.916547 -0.269120 1.284084
H 1.101211 -1.196970 1.125723
H 0.360677 -0.219248 2.064219
O 1.610289 0.911811 -0.869769
H 1.245335 0.716295 -1.735026
H 1.946984 1.809490 -0.899724
6
Structure 1866 | Energy: -10.134189 Hartree
O -0.614219 0.746287 1.998473
H -0.004221 0.450542 2.677091
H -0.733641 1.690763 2.115925
O -1.378009 -0.363672 -0.067950
H -0.707047 -1.007532 0.167297
H -1.740170 -0.627748 -0.916002
6
Structure 1867 | Energy: -10.134150 Hartree
O 0.191337 -1.924514 0.135275
H 0.662546 -2.656304 0.538428
H -0.738439 -2.159773 0.119134
O -0.340439 0.528657 -0.269973
H -1.053240 -0.049741 -0.548286
H -0.699411 1.124194 0.390756
6
Structure 1868 | Energy: -10.134108 Hartree
O -0.736451 -1.053170 0.558132
H -1.064193 -0.392849 1.171849
H -0.364779 -0.584423 -0.191686
O 1.332511 -0.573532 1.534472
H 0.762972 -0.529826 2.305058
H 2.235703 -0.477941 1.843009
6
Structure 1869 | Energy: -10.134044 Hartree
O 0.993421 -0.658977 -1.018451
H 1.752036 -1.080930 -1.426550
H 1.269049 -0.356905 -0.150769
O -1.140782 -1.520589 -0.249809
H -1.394786 -2.413586 -0.008717
H -1.906971 -1.105885 -0.651136
6
Structure 1870 | Energy: -10.133944 Hartree
O 0.485805 -1.403193 0.437075
H 0.484344 -2.304484 0.108809
H -0.001546 -1.401006 1.263256
O 1.749087 0.156987 -0.845600
H 1.610758 0.880154 -1.460402
H 1.726380 0.527726 0.038778
6
Structure 1871 | Energy: -10.133850 Hartree
O -1.405641 0.903325 -0.718700
H -1.769297 1.688788 -1.132086
H -1.956917 0.700277 0.039559
O 0.915862 0.382865 -1.352851
H 1.110860 0.482798 -0.419000
H 1.745869 0.464522 -1.826674
6
Structure 1872 | Energy: -10.133764 Hartree
O -2.077344 0.162625 -0.783023
H -2.011624 0.988139 -1.267062
H -2.793348 -0.340642 -1.175645
O -0.093547 -0.633007 0.197322
H 0.626359 -1.240346 0.378879
H -0.872377 -0.975034 0.640638
6
Structure 1873 | Energy: -10.133717 Hartree
O -1.971641 -0.095536 0.709973
H -2.202974 0.099104 -0.200350
H -2.719261 -0.551155 1.101848
O 0.363853 -0.258781 1.566135
H 0.958259 0.137754 2.206079
H 0.828191 -0.288239 0.727320
6
Structure 1874 | Energy: -10.133686 Hartree
O -0.120937 -0.618175 -0.521642
H 0.202738 -1.459163 -0.850367
H 0.490745 0.057819 -0.819918
O -1.810645 -0.035019 1.146200
H -2.426094 -0.704940 0.842038
H -2.331094 0.702224 1.471308
6
Structure 1875 | Energy: -10.133675 Hartree
O -0.589555 -0.192733 0.317804
H -0.754922 0.719096 0.070201
H -1.067070 -0.746682 -0.302850
O 1.794196 -0.162296 1.058608
H 2.297442 0.603772 1.341398
H 2.340206 -0.934962 1.216557
6
Structure 1876 | Energy: -10.133581 Hartree
O 0.634607 0.246843 0.757508
H -0.121200 0.155954 0.173915
H 1.393253 0.456441 0.209223
O -0.913090 -1.136589 1.599882
H -0.851123 -1.944524 2.113192
H -0.841245 -0.403486 2.214280
6
Structure 1877 | Energy: -10.133568 Hartree
O -0.058293 0.079826 -0.243685
H -0.704171 -0.289226 0.361895
H -0.245575 -0.280259 -1.112797
O 1.878147 0.884017 -1.070728
H 2.549402 0.358343 -0.631215
H 1.677528 1.625978 -0.496852
6
Structure 1878 | Energy: -10.133442 Hartree
O -0.996103 0.731133 0.098358
H -0.610335 0.446533 -0.732467
H -1.615908 1.435078 -0.102621
O 0.805915 1.175050 1.641236
H 1.605817 1.704426 1.639064
H 0.071402 1.770873 1.801149
6
Structure 1879 | Energy: -10.133388 Hartree
O -0.712082 0.337611 1.838617
H -1.027055 -0.107156 2.627959
H -1.281393 1.095845 1.693503
O 0.451197 1.683553 0.388981
H 1.196909 1.178931 0.719676
H 0.643867 2.610233 0.544642
6
Structure 1880 | Energy: -10.133370 Hartree
O -0.864156 -0.019208 0.160606
H -1.503966 -0.232091 -0.521603
H -1.353773 0.136276 0.970662
O 0.943410 0.365738 -1.401440
H 0.680681 -0.452570 -1.827388
H 0.415655 1.068340 -1.786036
6
Structure 1881 | Energy: -10.133295 Hartree
O -1.880687 -0.362704 -0.721617
H -2.368713 -1.186206 -0.782943
H -2.225038 0.222673 -1.399000
O 0.443817 -0.354664 -1.568141
H 0.206897 -0.438791 -2.493819
H 1.347196 -0.033979 -1.534151
6
Structure 1882 | Energy: -10.133261 Hartree
O 1.331078 0.440782 -0.659945
H 0.843756 0.309214 -1.475600
H 2.264222 0.380300 -0.873662
O 0.677853 1.051399 1.550692
H 0.412275 1.577132 2.307765
H 1.365869 1.538987 1.093549
6
Structure 1883 | Energy: -10.133217 Hartree
O 0.825848 -0.157493 -0.160753
H -0.087689 0.095409 -0.013866
H 1.290431 0.622766 -0.469702
O 0.962724 0.643738 1.970534
H 1.832075 0.642346 1.565178
H 1.091915 0.598685 2.919937
6
Structure 1884 | Energy: -10.133208 Hartree
O -1.438319 0.264455 1.235406
H -1.207770 0.749530 2.030161
H -1.771283 0.901550 0.600318
O -0.258798 -0.558651 -0.897205
H 0.074292 -0.728433 -1.780558
H -0.413977 0.385446 -0.828726
6
Structure 1885 | Energy: -10.133186 Hartree
O -1.344405 -1.185128 0.031741
H -1.907779 -0.511311 -0.353833
H -1.494235 -1.995571 -0.458996
O -0.046434 -0.652817 -1.735118
H 0.768290 -1.057527 -1.430945
H 0.122576 -0.296516 -2.609517
6
Structure 1886 | Energy: -10.133173 Hartree
O 0.777020 0.361154 -0.664748
H 1.659386 0.662517 -0.889908
H 0.874644 -0.376799 -0.059782
O -1.651471 0.202064 -0.930960
H -2.190913 -0.590342 -0.965325
H -1.977773 0.736540 -0.204357
6
Structure 1887 | Energy: -10.133124 Hartree
O -2.042626 0.476366 0.145715
H -2.460157 0.797567 -0.655898
H -1.841047 1.241918 0.687367
O 0.206639 -0.237661 -0.057303
H 0.653796 0.300678 -0.713298
H -0.018604 -1.069628 -0.478235
6
Structure 1888 | Energy: -10.133100 Hartree
O 1.513143 -0.100399 -0.103292
H 1.556485 -0.963330 0.313312
H 1.584795 -0.238043 -1.049870
O 0.152517 1.291877 1.413728
H -0.643103 1.738611 1.709542
H 0.321192 0.575226 2.028584
6
Structure 1889 | Energy: -10.133069 Hartree
O -1.697360 -1.541639 -0.235728
H -2.477963 -1.296719 -0.736486
H -0.999180 -1.722101 -0.868238
O -0.911997 0.565593 0.678207
H -1.812588 0.879882 0.779430
H -0.406410 1.276093 0.278634
6
Structure 1890 | Energy: -10.133057 Hartree
O 1.092688 -0.344662 0.307963
H 0.425116 0.344096 0.301125
H 1.511799 -0.325467 1.170557
O -0.885105 -0.360519 1.952694
H -0.073253 -0.296798 2.459569
H -1.123124 0.529157 1.684531
6
Structure 1891 | Energy: -10.132865 Hartree
O 1.207996 1.868151 0.114472
H 1.092186 2.686057 -0.373077
H 0.337764 1.482509 0.233083
O 0.692375 0.008616 -1.182473
H 1.076228 -0.859825 -1.318689
H 0.347197 0.302390 -2.027835
6
Structure 1892 | Energy: -10.132827 Hartree
O -0.359789 -0.435568 -0.685544
H -1.036630 -0.919894 -0.208678
H 0.254062 -1.081113 -1.041283
O 1.176498 0.583965 0.772092
H 1.359530 1.500624 0.556863
H 1.346635 0.472859 1.709533
6
Structure 1893 | Energy: -10.132765 Hartree
O 0.179340 -2.302125 0.140482
H 1.102700 -2.271648 0.398482
H 0.017778 -1.545647 -0.426730
O -0.305996 -0.722086 1.616059
H -0.795112 -0.126245 2.186871
H -0.317709 -1.586717 2.031227
6
Structure 1894 | Energy: -10.132723 Hartree
O -1.502236 -0.066410 -1.555608
H -1.877607 -0.304115 -2.405714
H -2.003202 -0.532687 -0.883515
O 0.017062 -1.619675 -0.449485
H -0.568379 -2.141986 0.102364
H 0.765369 -2.175582 -0.675521
6
Structure 1895 | Energy: -10.132490 Hartree
O 1.065018 -0.139930 -1.659487
H 0.312935 -0.581436 -1.260076
H 0.747377 0.305505 -2.447385
O 1.758550 1.190079 0.128186
H 2.590959 1.321564 -0.329955
H 1.404567 2.058666 0.329037
6
Structure 1896 | Energy: -10.132468 Hartree
O 1.650174 0.740361 0.406937
H 2.391260 0.228045 0.736194
H 1.943865 1.650652 0.334775
O -0.322821 0.089094 1.456919
H -0.968599 -0.074851 2.146978
H -0.694192 0.752596 0.872164
6
Structure 1897 | Energy: -10.132414 Hartree
O -0.498812 -0.365106 0.040371
H 0.028489 0.158363 0.647016
H -0.367053 -1.286597 0.271856
O -1.450480 1.448583 -0.972489
H -0.867721 1.078892 -1.638679
H -1.715598 2.318314 -1.278049
6
Structure 1898 | Energy: -10.132396 Hartree
O 0.960472 -0.171300 0.261748
H 1.896077 -0.056831 0.439587
H 0.882555 -0.552713 -0.614919
O 0.108566 1.662683 -0.755575
H 0.281177 2.212216 0.011437
H -0.580287 2.094135 -1.264907
6
Structure 1899 | Energy: -10.132283 Hartree
O 0.018325 0.796511 -0.140289
H -0.000322 0.456496 0.756443
H -0.877965 1.053702 -0.365250
O -0.004342 -1.264677 -1.143564
H -0.142579 -1.541676 -2.051446
H 0.821304 -1.654905 -0.850102
6
Structure 1900 | Energy: -10.132226 Hartree
O 0.318374 -0.286307 0.147689
H 0.320049 -1.244880 0.182632
H -0.061384 -0.033488 -0.696087
O -1.836479 -0.022711 1.081736
H -2.015865 0.909337 0.943193
H -2.598591 -0.509313 0.761593
6
Structure 1901 | Energy: -10.132194 Hartree
O -0.333174 -1.735995 -0.372890
H -0.454970 -0.986491 0.213194
H -0.568221 -2.523953 0.121039
O 0.179770 -0.518737 -2.185057
H 0.893289 -0.969194 -2.641200
H -0.640126 -0.933081 -2.461060
6
Structure 1902 | Energy: -10.132192 Hartree
O 1.300128 0.043667 -0.103959
H 0.490044 -0.372837 -0.404583
H 2.029587 -0.423856 -0.515545
O -0.211276 1.290672 1.267402
H -1.083286 1.278716 0.867973
H -0.212946 0.640521 1.972660
6
Structure 1903 | Energy: -10.132072 Hartree
O -1.457082 1.478203 0.895823
H -1.078285 1.774089 0.065732
H -2.314150 1.096218 0.696792
O 0.620847 0.461235 1.227475
H 0.607814 0.020526 2.079351
H 0.418967 -0.199926 0.562495
6
Structure 1904 | Energy: -10.131896 Hartree
O 1.690320 -0.581676 0.585162
H 1.810187 -1.530022 0.505425
H 1.337698 -0.268704 -0.250180
O -0.551917 -1.082877 0.796732
H -0.664480 -0.635776 -0.044409
H -0.390726 -0.407214 1.458234
6
Structure 1905 | Energy: -10.131676 Hartree
O -0.882593 -1.137358 0.051470
H -0.708220 -0.282542 -0.347241
H -1.688519 -1.475902 -0.343450
O -0.149838 0.397381 1.638967
H -0.342052 0.388775 2.578684
H 0.397730 1.166178 1.468060
6
Structure 1906 | Energy: -10.131667 Hartree
O 0.021547 0.207335 0.196692
H 0.827939 0.471995 0.643652
H 0.163047 0.334465 -0.743471
O 0.092187 -1.529688 1.630258
H -0.035454 -2.386706 1.218780
H -0.729434 -1.299894 2.068690
6
Structure 1907 | Energy: -10.131640 Hartree
O -0.752010 -0.537794 -0.083670
H -0.373014 -1.059230 0.626648
H -0.754554 0.376793 0.205493
O 0.572278 -0.218202 -1.983846
H -0.008414 -0.333728 -2.738522
H 0.536310 0.707981 -1.736907
6
Structure 1908 | Energy: -10.131597 Hartree
O -0.064096 -1.193944 -0.538257
H -0.049692 -2.021813 -0.053994
H -0.814754 -0.690251 -0.217481
O 1.393909 0.292863 0.465776
H 1.671430 -0.440338 1.018484
H 2.067090 0.972516 0.536392
6
Structure 1909 | Energy: -10.131407 Hartree
O -0.236556 -0.001784 0.283131
H 0.366226 -0.177301 -0.442082
H 0.290283 0.056716 1.082574
O 1.343869 1.793261 0.362923
H 0.862364 2.050107 1.151764
H 2.064338 1.224976 0.642321
6
Structure 1910 | Energy: -10.131338 Hartree
O 1.415911 1.537828 -0.710120
H 2.166954 1.570474 -0.114339
H 1.712027 1.872093 -1.559045
O 1.266240 -0.276600 0.861202
H 1.512007 0.322143 1.569151
H 1.723008 -1.105261 1.018594
6
Structure 1911 | Energy: -10.131283 Hartree
O -0.193468 -0.698705 -1.198900
H -0.328724 -0.010091 -0.544987
H -0.062436 -0.265521 -2.044638
O 2.085878 -0.876315 -0.347259
H 1.791737 -0.012020 -0.641474
H 3.010249 -0.959463 -0.589565
6
Structure 1912 | Energy: -10.131217 Hartree
O 1.748751 -0.456903 1.317740
H 1.224657 -1.102857 0.840083
H 1.169179 -0.037229 1.956536
O 1.255801 0.589594 -0.597441
H 1.712726 1.117739 0.060107
H 1.895668 0.364522 -1.275675
6
Structure 1913 | Energy: -10.131193 Hartree
O -0.226489 0.694005 -0.126227
H 0.365205 1.018513 -0.807901
H -1.093687 1.063776 -0.303227
O 0.512920 -1.245544 0.962942
H -0.128094 -1.439186 1.649739
H 1.351890 -1.615193 1.245035
6
Structure 1914 | Energy: -10.131160 Hartree
O -0.551473 -0.967186 -1.658539
H -1.100702 -1.179611 -0.901368
H -0.358637 -1.791396 -2.109741
O 0.997381 0.010977 -0.109350
H 1.546301 -0.668754 -0.505255
H 0.380694 -0.428921 0.479101
6
Structure 1915 | Energy: -10.131122 Hartree
O 0.350904 -0.399956 -0.202769
H 0.683783 -0.995397 -0.877105
H 1.108972 0.039649 0.187321
O -1.174006 1.416048 -0.350508
H -0.335892 1.827667 -0.570100
H -1.519357 1.869013 0.421272
6
Structure 1916 | Energy: -10.131100 Hartree
O 1.053881 1.843318 0.333239
H 1.649833 2.258711 -0.293160
H 1.070143 0.900325 0.158340
O -0.738545 0.756836 1.322205
H -1.523893 1.169823 1.686563
H -0.966402 -0.150947 1.112207
6
Structure 1917 | Energy: -10.131089 Hartree
O -0.508601 1.064963 0.332845
H 0.070164 1.592669 -0.220909
H -1.041303 1.673766 0.848284
O -2.012517 -0.632980 -0.298070
H -2.219995 -1.204774 0.443611
H -2.741955 -0.695655 -0.917811
6
Structure 1918 | Energy: -10.131086 Hartree
O 1.199943 -0.380071 -1.337362
H 1.622800 -0.989134 -1.945901
H 0.339565 -0.164924 -1.702809
O 0.883397 1.235122 0.376281
H 0.148944 1.618991 -0.106741
H 1.354277 1.956688 0.797830
6
Structure 1919 | Energy: -10.131077 Hartree
O 0.080299 1.498609 -1.187891
H 0.344972 2.289926 -0.714761
H 0.694175 0.803102 -0.943932
O -1.345138 0.053773 -0.326798
H -1.810262 0.446507 -1.068085
H -2.005403 -0.196667 0.322370
6
Structure 1920 | Energy: -10.131046 Hartree
O 0.822863 0.565572 -0.002216
H 1.262670 0.474865 0.845386
H 0.020875 0.040766 0.036306
O -1.094617 1.945687 -0.473947
H -1.180715 2.229481 0.438267
H -1.841694 1.375444 -0.665746
6
Structure 1921 | Energy: -10.130996 Hartree
O 0.313144 -0.216874 -1.958886
H 1.082134 -0.789424 -1.989335
H 0.518911 0.503515 -1.359894
O -1.054016 -1.094235 -0.372433
H -1.357165 -0.241018 -0.055873
H -1.758004 -1.464914 -0.908236
6
Structure 1922 | Energy: -10.130668 Hartree
O 0.590285 -0.727066 -1.709023
H -0.198197 -0.479218 -2.195801
H 1.301645 -0.815215 -2.346430
O 0.873718 0.704579 0.102239
H 1.730816 0.365633 -0.163444
H 0.755690 1.551168 -0.333013
6
Structure 1923 | Energy: -10.130629 Hartree
O -0.142598 0.295380 -0.579824
H 0.204622 -0.284886 -1.260129
H -1.097710 0.297282 -0.668419
O 0.169633 -0.304169 1.635438
H -0.167375 -0.854730 2.344941
H 0.947917 -0.740086 1.282822
6
Structure 1924 | Energy: -10.130503 Hartree
O -0.609564 0.284048 0.440989
H 0.278584 0.076149 0.737731
H -1.064037 -0.548747 0.299576
O 0.510037 0.485404 -1.652590
H 0.707810 -0.427726 -1.435412
H 1.294348 0.856380 -2.061638
6
Structure 1925 | Energy: -10.130212 Hartree
O -1.743641 -0.656903 -0.636115
H -1.050879 -1.313779 -0.729289
H -2.547073 -1.123316 -0.397272
O -0.707950 0.671146 0.998123
H -0.076886 0.808845 1.707267
H -1.346239 0.025331 1.307311
6
Structure 1926 | Energy: -10.130121 Hartree
O 1.434429 -1.031706 -0.540891
H 2.164656 -1.567328 -0.857061
H 1.256539 -0.369559 -1.211717
O -0.228799 0.088122 0.575141
H 0.180696 0.955521 0.570575
H -1.111835 0.192769 0.934841
6
Structure 1927 | Energy: -10.130063 Hartree
O 1.272361 0.860748 -1.718527
H 1.324069 1.696732 -2.186012
H 0.401083 0.495672 -1.884915
O 0.451532 -0.054264 0.250660
H 0.788192 -0.925319 0.031544
H -0.505086 -0.118499 0.279721
6
Structure 1928 | Energy: -10.130054 Hartree
O -1.444039 -0.037244 0.422747
H -1.103588 0.301177 1.253199
H -2.365081 -0.264383 0.564806
O -1.335543 1.270267 -1.400175
H -0.773450 0.530770 -1.639516
H -2.033791 1.320225 -2.055951
6
Structure 1929 | Energy: -10.130036 Hartree
O 0.113025 -0.187467 -0.004694
H 1.067897 -0.096354 -0.002920
H -0.085959 -1.097002 0.226048
O -1.037037 1.397683 -1.258579
H -0.455055 1.465334 -2.018058
H -1.626458 2.154002 -1.284118
6
Structure 1930 | Energy: -10.129999 Hartree
O 1.539750 0.313761 0.079472
H 0.956047 -0.329999 -0.326669
H 1.204369 0.484453 0.961784
O 0.184071 1.993043 -0.491949
H -0.217488 2.863781 -0.517497
H -0.029245 1.557467 -1.319510
6
Structure 1931 | Energy: -10.129977 Hartree
O 1.556888 -0.514723 -1.377969
H 2.165801 0.226325 -1.390584
H 0.884270 -0.340973 -2.039396
O 1.569783 0.777698 0.541520
H 1.661233 1.679494 0.227692
H 1.354745 0.822305 1.475253
6
Structure 1932 | Energy: -10.129937 Hartree
O 0.601150 -0.284892 -0.139716
H 1.206735 -0.961613 -0.448586
H -0.288073 -0.626173 -0.253299
O 0.071300 1.425370 1.300758
H -0.595766 2.028693 1.634092
H -0.009444 0.609436 1.798573
6
Structure 1933 | Energy: -10.129599 Hartree
O 0.425023 0.519834 -1.360069
H 1.327953 0.268646 -1.564293
H 0.381243 0.678919 -0.415153
O -0.866855 -1.405343 -1.364851
H -1.263100 -0.656618 -0.914865
H -0.731348 -2.091847 -0.708773
6
Structure 1934 | Energy: -10.129564 Hartree
O -0.308006 -0.174158 0.443451
H 0.487927 0.263393 0.135027
H -0.974289 -0.065147 -0.237926
O 0.695175 -2.093577 0.340687
H 0.421325 -1.930342 1.245368
H 0.955432 -3.015100 0.284562
6
Structure 1935 | Energy: -10.129562 Hartree
O 0.829893 -0.044786 -0.275197
H 1.268786 -0.431130 -1.035590
H 1.080226 -0.564076 0.491459
O -0.891320 -0.949504 -1.445575
H -1.276529 -1.726164 -1.856063
H -0.674490 -0.334452 -2.148984
6
Structure 1936 | Energy: -10.129513 Hartree
O -0.437709 0.042513 -0.402556
H -0.196208 0.792268 -0.949941
H -1.392809 -0.038945 -0.437752
O -0.812703 1.169554 1.622651
H -1.340158 1.707757 1.029173
H -1.267119 1.149185 2.467150
6
Structure 1937 | Energy: -10.129286 Hartree
O 0.339797 0.577998 -0.113703
H 0.683351 1.405463 0.228874
H -0.342129 0.796130 -0.752049
O -1.260212 0.229143 1.498052
H -1.286256 0.522131 2.411050
H -2.157437 0.269134 1.161189
6
Structure 1938 | Energy: -10.128980 Hartree
O -0.750992 0.507480 -1.040953
H -0.524138 0.748728 -1.941188
H -0.847893 1.322383 -0.544331
O -1.848402 -0.463500 0.677409
H -2.464417 0.072023 1.181222
H -2.298673 -1.280629 0.454601
6
Structure 1939 | Energy: -10.128970 Hartree
O 0.555269 1.026542 1.604862
H 0.277635 0.234036 2.068479
H 1.465005 0.892084 1.332113
O -0.946803 0.996344 -0.012766
H -1.262561 1.433955 0.780255
H -0.357887 1.607807 -0.459285
6
Structure 1940 | Energy: -10.128685 Hartree
O -0.299833 0.184537 0.657932
H 0.135096 -0.220661 1.410752
H -0.986669 -0.419005 0.367962
O -0.562076 0.896875 -1.371077
H 0.350103 0.628175 -1.245311
H -0.565664 1.850539 -1.474034
6
Structure 1941 | Energy: -10.128473 Hartree
O -0.453101 1.322818 0.415089
H -1.061579 0.638640 0.129185
H -0.488152 2.024938 -0.237514
O 1.261564 0.186098 1.372688
H 1.371616 -0.038467 0.446650
H 2.099711 0.535442 1.681812
6
Structure 1942 | Energy: -10.128349 Hartree
O 0.114673 1.460472 0.099113
H 0.690220 1.705515 0.826290
H 0.650878 0.988180 -0.540821
O -1.683141 0.535495 1.073918
H -1.802940 -0.246252 0.531141
H -2.404849 0.556172 1.705423
6
Structure 1943 | Energy: -10.127990 Hartree
O 0.168900 0.285319 0.105524
H -0.219533 -0.370956 -0.476292
H -0.473245 0.470566 0.793581
O 1.850506 -0.716193 1.022975
H 2.530762 -0.918570 1.668252
H 2.153363 0.041797 0.519174
6
Structure 1944 | Energy: -10.126932 Hartree
O 0.574907 -0.156796 -0.351533
H 0.868858 -1.034420 -0.603434
H -0.234223 0.021393 -0.834905
O -0.726631 0.544286 1.288335
H -1.462774 0.015026 1.601491
H -0.401706 1.049609 2.036105
6
Structure 1945 | Energy: -10.126878 Hartree
O -0.631704 1.845835 0.498200
H -1.188141 2.195757 -0.200384
H 0.043559 1.307494 0.080707
O -1.426350 -0.146552 -0.277775
H -2.204258 0.414506 -0.290420
H -1.229938 -0.380358 -1.187085
6
Structure 1946 | Energy: -10.126806 Hartree
O -0.237148 -0.130353 -0.424288
H -0.159015 -0.282750 -1.368087
H 0.649218 -0.154081 -0.058388
O -2.187750 0.576229 0.346143
H -1.711791 0.913627 1.107532
H -2.776018 1.272522 0.047470
6
Structure 1947 | Energy: -10.126601 Hartree
O -1.278632 0.960740 -1.231419
H -0.910838 0.090008 -1.394639
H -1.321838 1.413695 -2.075845
O 0.584338 1.492439 -0.240602
H 0.180700 0.917588 0.412627
H 0.205820 2.365919 -0.122932
6
Structure 1948 | Energy: -10.126595 Hartree
O -0.363221 -0.038710 -0.902241
H 0.117754 0.190777 -0.104691
H -1.296644 0.077662 -0.714438
O -0.894253 -1.824083 0.310066
H -1.044074 -2.295323 -0.511866
H -1.753780 -1.651679 0.699396
6
Structure 1949 | Energy: -10.126288 Hartree
O -0.399607 -0.289950 -0.205936
H -0.120545 0.610114 -0.026784
H -1.036768 -0.252593 -0.921982
O 1.346472 -0.566676 -1.493581
H 1.913966 -1.321062 -1.323459
H 1.422764 -0.358561 -2.426831
6
Structure 1950 | Energy: -10.126239 Hartree
O -1.081832 0.309720 1.141130
H -0.977789 0.966943 1.832012
H -0.689879 -0.504666 1.462440
O -2.149558 -0.370030 -0.610483
H -1.844108 0.061933 -1.410606
H -2.957799 0.070471 -0.340683
6
Structure 1951 | Energy: -10.126139 Hartree
O -0.623065 -2.091529 0.381151
H -0.263898 -2.977988 0.308522
H -0.772588 -1.921111 1.313188
O -1.145622 0.003654 -0.019939
H -1.528575 0.332275 0.795808
H -1.855751 -0.060204 -0.661598
6
Structure 1952 | Energy: -10.126004 Hartree
O 0.578545 1.022560 1.456563
H 0.583039 1.507807 2.283970
H 0.167617 1.586763 0.798608
O 1.445006 -0.028514 -0.307585
H 1.540460 0.873551 -0.619442
H 2.255919 -0.491925 -0.526120
6
Structure 1953 | Energy: -10.125716 Hartree
O 0.599056 -0.080953 0.165508
H 1.456173 0.255508 0.434265
H 0.153966 0.623089 -0.310214
O -1.137039 -0.676069 1.287438
H -1.958164 -0.535420 1.762895
H -0.662784 -1.376018 1.740474
6
Structure 1954 | Energy: -10.125618 Hartree
O 0.515914 0.185306 -0.477414
H 0.755462 0.094341 0.446939
H 0.325818 1.112759 -0.631643
O -0.857638 -1.029880 -1.676102
H -1.320981 -1.126998 -0.841855
H -0.981634 -1.844904 -2.166458
6
Structure 1955 | Energy: -10.125389 Hartree
O 0.322720 -0.885035 -0.243494
H -0.628302 -0.915087 -0.364906
H 0.648116 -1.783611 -0.325773
O -0.019794 1.021232 -1.399649
H -0.963474 0.853436 -1.362246
H 0.151902 1.497879 -2.214153
6
Structure 1956 | Energy: -10.125382 Hartree
O -0.176492 -0.015749 0.307122
H -0.236160 -0.760768 0.908347
H -0.195707 -0.368243 -0.584769
O -0.066220 1.940008 -0.630889
H 0.202213 2.040841 -1.546238
H -0.112977 2.819151 -0.250088
6
Structure 1957 | Energy: -10.125218 Hartree
O -1.362640 -0.183554 0.236012
H -0.992985 -0.730698 0.931766
H -2.256630 -0.492450 0.076461
O -0.703822 1.564060 -0.868269
H -0.758337 2.145070 -1.629546
H -0.952943 2.079851 -0.098863
6
Structure 1958 | Energy: -10.124960 Hartree
O 0.397594 -0.296584 0.293057
H -0.023678 0.454637 -0.129179
H 0.289638 -1.048807 -0.292261
O -0.246120 0.882495 1.955506
H -0.295379 0.276867 2.697716
H -0.616027 1.718481 2.245997
6
Structure 1959 | Energy: -10.124908 Hartree
O 1.174733 -0.921330 -0.572638
H 0.940295 -1.648657 -1.152397
H 0.621260 -0.175985 -0.813926
O 1.571000 0.373648 1.071884
H 2.244298 0.787947 0.528640
H 1.511081 0.879284 1.884799
6
Structure 1960 | Energy: -10.124361 Hartree
O 0.194659 -0.217165 0.021835
H -0.680720 -0.454067 -0.290694
H 0.154495 -0.182106 0.979566
O 1.524356 1.411924 0.454824
H 2.196526 0.855338 0.852928
H 1.812672 2.321282 0.554969
6
Structure 1961 | Energy: -10.124007 Hartree
O 0.552970 -0.162378 0.034637
H 0.394770 -0.697613 -0.745480
H 0.673693 0.742078 -0.261126
O 0.670675 0.585007 2.037096
H 0.785668 0.003457 2.791193
H 0.973321 1.456023 2.301340
6
Structure 1962 | Energy: -10.123857 Hartree
O 0.171991 0.270380 0.900631
H 0.580404 0.745585 0.174364
H 0.879034 -0.121431 1.417026
O -1.944741 0.453358 0.595948
H -1.757929 -0.015406 -0.219803
H -2.842808 0.233011 0.850917
6
Structure 1963 | Energy: -10.123651 Hartree
O 1.347168 -0.282696 -1.187197
H 2.254769 -0.009056 -1.333717
H 1.194225 -1.060402 -1.727448
O -0.577591 -0.483029 -0.205314
H -0.763303 -0.826564 -1.081432
H -1.378800 -0.059998 0.109642
6
Structure 1964 | Energy: -10.123638 Hartree
O 0.136308 0.484344 1.172712
H 0.457886 0.721879 0.300789
H -0.764609 0.806548 1.240706
O 0.435731 -1.606419 0.548754
H 1.174354 -2.170998 0.784919
H 0.498480 -1.435677 -0.393052
6
Structure 1965 | Energy: -10.123623 Hartree
O 1.389697 -1.361160 0.592029
H 1.893232 -1.068787 1.354299
H 1.872237 -1.085626 -0.189846
O -0.749927 -0.921491 0.809723
H -1.639996 -0.570714 0.740295
H -0.174453 -0.191302 1.045822
6
Structure 1966 | Energy: -10.123048 Hartree
O 0.523072 -0.088934 -0.555284
H -0.300645 -0.411614 -0.926033
H 0.631754 0.817221 -0.850515
O 1.470446 -0.036491 1.426522
H 2.396535 0.096792 1.637905
H 1.097092 0.824960 1.230064
6
Structure 1967 | Energy: -10.122970 Hartree
O 0.825457 -0.065114 -0.472470
H 0.044048 0.491060 -0.459987
H 1.580525 0.502070 -0.304345
O 0.169972 -1.221692 1.239888
H 0.420243 -1.903187 1.866798
H -0.582459 -0.756756 1.611062
6
Structure 1968 | Energy: -10.122737 Hartree
O -1.807638 0.266998 0.873312
H -2.644845 -0.187791 0.762243
H -2.004276 1.197389 0.998999
O -0.435557 -0.660399 -0.502480
H 0.519699 -0.747362 -0.506008
H -0.767065 -1.137759 -1.265577
6
Structure 1969 | Energy: -10.121976 Hartree
O 0.959866 0.658670 -0.681681
H 0.175066 1.199938 -0.575837
H 1.140440 0.600979 -1.621977
O 1.466519 -0.984243 0.574448
H 2.299149 -0.514300 0.651711
H 1.672208 -1.887661 0.326224
6
Structure 1970 | Energy: -10.121824 Hartree
O -0.968468 0.497953 -0.211291
H -1.383203 1.241854 0.229947
H -1.662665 -0.128518 -0.425103
O 0.068795 0.984977 -1.964903
H 0.856972 1.168953 -1.450104
H 0.346382 0.860068 -2.874535
6
Structure 1971 | Energy: -10.121703 Hartree
O -0.072314 -0.211769 -0.817921
H -0.815324 -0.684188 -0.437340
H -0.288219 0.722563 -0.795559
O 1.570158 -1.528659 -0.595746
H 2.187138 -1.359242 -1.310394
H 1.876260 -1.034119 0.167025
6
Structure 1972 | Energy: -10.121647 Hartree
O -0.822042 1.170748 -0.845234
H -0.825588 2.069868 -0.511084
H -1.535498 0.702237 -0.407549
O 0.657925 0.108041 -1.943611
H 1.510470 -0.307269 -1.799487
H 0.183548 -0.430535 -2.580000
6
Structure 1973 | Energy: -10.121591 Hartree
O 0.682854 0.798984 -0.378081
H -0.264401 0.825949 -0.229526
H 1.107411 0.909508 0.474930
O 0.090487 -1.091697 -1.167017
H 0.374349 -1.326598 -0.281392
H 0.227711 -1.861349 -1.722799
6
Structure 1974 | Energy: -10.121121 Hartree
O 0.220809 -1.816921 -0.712410
H 1.075252 -1.858086 -0.278453
H -0.447320 -1.810856 -0.024182
O -1.025209 -0.156752 -1.392104
H -0.550688 0.578933 -1.784130
H -1.207872 0.076808 -0.479870
6
Structure 1975 | Energy: -10.121015 Hartree
O 1.916999 -0.861148 -0.121625
H 2.853041 -1.033016 -0.001740
H 1.773599 -0.709933 -1.057927
O 1.081230 0.544669 1.258937
H 1.815999 1.116885 1.488658
H 0.274936 1.036076 1.427747
6
Structure 1976 | Energy: -10.120731 Hartree
O -0.218990 0.259910 1.108937
H -0.346971 0.544106 2.016098
H -0.341483 -0.691248 1.089286
O -1.043430 1.663953 -0.244401
H -1.113971 2.114041 -1.088517
H -1.899148 1.272227 -0.058973
6
Structure 1977 | Energy: -10.120370 Hartree
O -0.668448 -0.436597 0.275724
H 0.078256 -0.798295 0.757070
H -1.370836 -1.089002 0.309042
O -1.226222 1.464619 1.047366
H -2.102617 1.106806 1.202252
H -1.221673 1.831292 0.161015
6
Structure 1978 | Energy: -10.120348 Hartree
O 0.680012 0.754412 -0.381549
H 0.780271 1.707237 -0.335089
H 1.555497 0.372121 -0.295123
O 1.151408 0.571002 1.672451
H 1.684601 -0.193716 1.898282
H 0.538666 0.713891 2.396480
6
Structure 1979 | Energy: -10.120270 Hartree
O 0.914169 -0.481949 0.283984
H 1.620245 -1.050830 0.596902
H 0.915460 -0.528402 -0.674103
O -0.370263 -0.794723 1.964894
H 0.153970 -1.316809 2.575380
H -1.267118 -1.133185 1.999266
6
Structure 1980 | Energy: -10.120028 Hartree
O -1.088766 1.365517 0.327482
H -1.318248 0.638395 0.909477
H -1.269031 1.078810 -0.569956
O 0.803184 1.723606 1.094866
H 1.693748 1.699681 1.450410
H 0.247982 2.153819 1.748132
6
Structure 1981 | Energy: -10.119677 Hartree
O -0.580534 0.389271 -0.293852
H -0.287517 -0.444544 0.078947
H -0.490044 1.054257 0.391491
O 1.536923 0.336068 -0.359825
H 2.142672 -0.238036 -0.832646
H 2.029342 0.739100 0.357933
6
Structure 1982 | Energy: -10.119534 Hartree
O 0.851515 1.249341 1.128601
H 1.687453 0.791706 1.019684
H 0.513710 1.021026 1.996847
O -0.989035 1.228069 0.102193
H -1.931518 1.256672 0.278246
H -0.833551 0.492591 -0.493613
6
Structure 1983 | Energy: -10.119294 Hartree
O 0.832112 -0.833133 0.131978
H 0.627663 -1.369603 0.900410
H 1.600865 -1.222154 -0.289651
O 1.548126 1.083354 -0.328264
H 1.207250 1.958939 -0.521245
H 2.419690 1.196191 0.056094
6
Structure 1984 | Energy: -10.119167 Hartree
O 0.494738 0.135512 -1.894243
H 1.005482 0.732106 -1.343514
H 0.497817 -0.721511 -1.463438
O -1.017969 1.016970 -0.714625
H -1.833126 1.294108 -1.137472
H -1.259337 0.526176 0.073380
6
Structure 1985 | Energy: -10.119110 Hartree
O -1.750924 0.352446 1.358312
H -2.002816 0.002169 0.501607
H -2.089458 1.248471 1.409534
O -0.002323 1.464233 0.786401
H 0.701096 1.906091 1.266037
H -0.491135 2.140026 0.312634
6
Structure 1986 | Energy: -10.118789 Hartree
O -2.096926 -0.081205 -0.860391
H -2.784364 -0.495932 -0.335494
H -2.506535 0.230096 -1.669961
O -0.472770 0.043338 0.382405
H -0.672672 0.967497 0.220987
H 0.388173 0.008352 0.803880
6
Structure 1987 | Energy: -10.118452 Hartree
O 0.591945 -0.659581 0.366099
H 1.437236 -1.083853 0.525984
H 0.764026 0.131702 -0.148050
O -0.827413 -0.521778 1.868205
H -1.498029 -0.859912 2.464886
H -1.254741 0.115231 1.292271
6
Structure 1988 | Energy: -10.118127 Hartree
O -0.859136 1.113862 -0.709060
H -1.187233 1.976140 -0.446543
H -1.139803 0.966716 -1.614414
O 1.134551 1.492150 -1.249711
H 2.061185 1.336633 -1.056702
H 0.882632 0.880765 -1.944574
6
Structure 1989 | Energy: -10.117911 Hartree
O -0.835498 -0.887356 0.337483
H -0.136562 -0.310591 0.651994
H -0.657141 -1.764258 0.682912
O -1.882048 0.827381 0.074151
H -2.549768 0.200914 -0.211814
H -2.342022 1.597819 0.413178
6
Structure 1990 | Energy: -10.117157 Hartree
O 0.891394 -0.865134 0.064351
H 1.229672 -0.146271 -0.473135
H 1.579631 -1.100472 0.689679
O -0.370896 -1.075189 1.618298
H -1.017190 -1.106190 0.910181
H -0.834997 -1.268771 2.435136
6
Structure 1991 | Energy: -10.115663 Hartree
O -0.348407 -0.983705 0.937367
H -1.172766 -1.448969 1.092442
H -0.571567 -0.121107 0.582099
O 1.704029 -1.076465 1.054579
H 1.697318 -0.497581 0.289768
H 2.438019 -0.805502 1.609489
6
Structure 1992 | Energy: -10.115597 Hartree
O 1.947918 0.647847 0.641952
H 1.906040 -0.280272 0.880546
H 2.805443 0.974528 0.921276
O -0.061743 0.348054 0.579226
H -0.490249 0.270057 1.433853
H 0.057074 1.283870 0.405389
6
Structure 1993 | Energy: -10.115441 Hartree
O -0.190142 -0.480627 -0.493681
H 0.343879 -0.070441 0.189441
H -0.597620 0.226048 -0.998322
O -2.014223 -0.064187 0.476646
H -2.493309 -0.887443 0.363446
H -2.401423 0.574818 -0.124882
6
Structure 1994 | Energy: -10.115398 Hartree
O 0.840998 -1.634896 -0.175854
H 1.488671 -2.299193 -0.419401
H 0.376437 -1.384065 -0.976702
O 0.361959 -0.042347 0.995124
H 0.635586 0.866297 1.135058
H -0.492858 -0.149740 1.416839
6
Structure 1995 | Energy: -10.114481 Hartree
O -0.643565 0.549302 0.604664
H 0.232281 0.244290 0.849506
H -1.011597 -0.098867 0.000909
O -0.074995 1.974299 -0.753090
H 0.710745 2.523653 -0.783256
H -0.827960 2.546468 -0.913572
6
Structure 1996 | Energy: -10.113852 Hartree
O -0.011893 -0.114613 0.417891
H -0.782118 -0.666091 0.568594
H -0.327544 0.733100 0.098769
O 1.773302 -0.707225 -0.409093
H 2.117298 -0.648037 -1.302543
H 1.586653 -1.632281 -0.237274
6
Structure 1997 | Energy: -10.111998 Hartree
O -1.942132 -0.090123 -0.706025
H -2.588522 0.498023 -0.310612
H -2.009717 0.011947 -1.657395
O -0.511805 0.113568 0.756700
H -0.953792 0.855922 1.173407
H 0.421019 0.330949 0.704990
6
Structure 1998 | Energy: -10.110162 Hartree
O 0.123985 -0.722833 0.706045
H 0.520711 -0.920341 -0.144652
H -0.087105 -1.560778 1.122435
O -0.817599 0.403451 2.134868
H -0.272459 -0.219882 2.618982
H -1.503922 -0.101660 1.694516
6
Structure 1999 | Energy: -10.108526 Hartree
O 0.283499 -0.193532 -0.169924
H 0.295130 -1.058886 -0.583585
H -0.624976 0.114127 -0.180402
O 0.867445 -1.460491 1.333775
H 0.586437 -0.900778 2.060303
H 0.340676 -2.261210 1.371869
6
Structure 2000 | Energy: -10.103106 Hartree
O -0.158996 -0.541221 0.106130
H 0.090726 -0.364268 -0.802942
H -0.091459 -1.488646 0.239981
O -2.142090 -0.634846 -0.187475
H -2.264935 -0.958333 -1.082099
H -2.601634 0.204677 -0.123372
