6
Structure 1 | Energy: -152.061277 Hartree
O 0.796081 1.510235 -2.047391
H 0.405034 1.334519 -2.909274
H 0.655163 0.667188 -1.590176
O 0.520156 -0.947237 -0.525531
H 1.433709 -1.057088 -0.230421
H 0.072985 -0.668148 0.284440
6
Structure 2 | Energy: -152.061165 Hartree
O 0.745515 1.420271 -2.029002
H 0.284698 1.255332 -2.857905
H 0.612062 0.583564 -1.558107
O 0.531723 -1.005298 -0.492544
H 1.465089 -1.091265 -0.257649
H 0.115632 -0.849739 0.365696
6
Structure 3 | Energy: -152.060878 Hartree
O 0.694707 1.330186 -2.010865
H 0.167213 1.178415 -2.801658
H 0.569940 0.499603 -1.526926
O 0.543024 -1.063662 -0.458763
H 1.491428 -1.117781 -0.281735
H 0.167553 -1.034190 0.431214
6
Structure 4 | Energy: -152.060440 Hartree
O 0.643635 1.239986 -1.992960
H 0.053013 1.103685 -2.740773
H 0.528715 0.415271 -1.496704
O 0.554121 -1.122433 -0.424217
H 1.512487 -1.137379 -0.301550
H 0.227998 -1.219088 0.480330
6
Structure 5 | Energy: -152.059888 Hartree
O 0.592280 1.149680 -1.975265
H -0.057488 1.031045 -2.675525
H 0.488298 0.330536 -1.467502
O 0.565079 -1.181709 -0.388952
H 1.528135 -1.150940 -0.316054
H 0.296046 -1.402008 0.512710
6
Structure 6 | Energy: -152.059263 Hartree
O 0.540622 1.059276 -1.957758
H -0.163905 0.960383 -2.606217
H 0.448597 0.245369 -1.439379
O 0.575969 -1.241578 -0.353026
H 1.538346 -1.159463 -0.324310
H 0.370627 -1.580566 0.528352
6
Structure 7 | Energy: -152.058617 Hartree
O 0.488646 0.968785 -1.940415
H -0.265878 0.891572 -2.533179
H 0.409513 0.159743 -1.412381
O 0.586860 -1.302114 -0.316511
H 1.543204 -1.164050 -0.325507
H 0.450537 -1.752467 0.527588
6
Structure 8 | Energy: -152.058004 Hartree
O 0.436336 0.878216 -1.923212
H -0.363080 0.824475 -2.456769
H 0.370943 0.073635 -1.386552
O 0.597823 -1.363379 -0.279491
H 1.542901 -1.165881 -0.318976
H 0.534468 -1.915545 0.511081
6
Structure 9 | Energy: -152.057480 Hartree
O 0.383681 0.787581 -1.906121
H -0.455214 0.758941 -2.377365
H 0.332782 -0.012975 -1.361922
O 0.608927 -1.425421 -0.242060
H 1.537730 -1.166193 -0.304202
H 0.621030 -2.067814 0.479806
6
Structure 10 | Energy: -152.057101 Hartree
O 0.330672 0.696889 -1.889116
H -0.542020 0.694809 -2.295368
H 0.294920 -0.100102 -1.338518
O 0.620237 -1.488272 -0.204320
H 1.528083 -1.166249 -0.280833
H 0.708782 -2.207502 0.435034
6
Structure 11 | Energy: -152.056914 Hartree
O 0.277301 0.606153 -1.872170
H -0.623274 0.631910 -2.211196
H 0.257247 -0.187761 -1.316356
O 0.631817 -1.551947 -0.166380
H 1.514441 -1.167321 -0.248691
H 0.796257 -2.333089 0.378306
6
Structure 12 | Energy: -152.056951 Hartree
O 0.223564 0.515385 -1.855255
H -0.698788 0.570064 -2.125281
H 0.219650 -0.275960 -1.295444
O 0.643723 -1.616446 -0.128351
H 1.497365 -1.170660 -0.207771
H 0.881995 -2.443338 0.311401
6
Structure 13 | Energy: -152.057220 Hartree
O 0.169458 0.424597 -1.838343
H -0.768416 0.509085 -2.038069
H 0.182017 -0.364705 -1.275782
O 0.656005 -1.681751 -0.090348
H 1.477483 -1.177470 -0.158247
H 0.964572 -2.537316 0.236302
6
Structure 14 | Energy: -152.057698 Hartree
O 0.114984 0.333801 -1.821406
H -0.832052 0.448781 -1.950013
H 0.144235 -0.453997 -1.257359
O 0.668705 -1.747829 -0.052485
H 1.455483 -1.188888 -0.100462
H 1.042624 -2.614417 0.155157
6
Structure 15 | Energy: -152.058331 Hartree
O 0.060145 0.243009 -1.804417
H -0.889629 0.388956 -1.861573
H 0.106193 -0.543835 -1.240159
O 0.681858 -1.814632 -0.014872
H 1.432090 -1.205956 -0.034925
H 1.114881 -2.674372 0.070233
6
Structure 16 | Energy: -152.059039 Hartree
O 0.004945 0.152234 -1.787347
H -0.941123 0.329409 -1.773210
H 0.067780 -0.634213 -1.224155
O 0.695489 -1.882095 0.022385
H 1.408061 -1.229605 0.037700
H 1.180185 -2.717255 -0.016126
6
Structure 17 | Energy: -152.059728 Hartree
O -0.050606 0.061487 -1.770169
H -0.986553 0.269939 -1.685386
H 0.028891 -0.725121 -1.209313
O 0.709614 -1.950143 0.059187
H 1.384165 -1.260635 0.116609
H 1.237520 -2.743481 -0.101550
6
Structure 18 | Energy: -152.060306 Hartree
O -0.106499 -0.029220 -1.752859
H -1.025976 0.210343 -1.598559
H -0.010580 -0.816547 -1.195592
O 0.724239 -2.018688 0.095444
H 1.361166 -1.299698 0.200868
H 1.286029 -2.753796 -0.183684
6
Structure 19 | Energy: -152.060701 Hartree
O -0.162721 -0.119874 -1.735390
H -1.059494 0.150420 -1.513180
H -0.050732 -0.908473 -1.182940
O 0.739359 -2.087630 0.131079
H 1.339813 -1.347284 0.289441
H 1.325029 -2.749267 -0.260242
6
Structure 20 | Energy: -152.060870 Hartree
O -0.219258 -0.210465 -1.717738
H -1.087246 0.089971 -1.429690
H -0.091660 -1.000881 -1.171302
O 0.754960 -2.156865 0.166024
H 1.320820 -1.403714 0.381204
H 1.354029 -2.731256 -0.329047
