6
Structure 1
O 2.131610 -2.034481 3.505166
H 2.712243 -1.292161 3.597497
H 2.700658 -2.788540 3.564834
O -5.189504 -2.869681 -3.843869
H -4.688590 -2.078716 -3.707235
H -5.986241 -2.566949 -4.254680
6
Structure 2
O 0.840946 -2.225495 1.931078
H 1.088749 -1.354018 2.206434
H 1.264224 -2.799379 2.553552
O -3.704236 -2.729608 -2.444702
H -3.328136 -1.861436 -2.450651
H -4.574265 -2.603642 -2.794535
6
Structure 3
O 2.173868 -1.911005 3.509433
H 2.841230 -1.390804 3.934541
H 2.582129 -2.754147 3.373726
O -5.280496 -2.855214 -3.772851
H -4.445945 -2.493148 -4.032932
H -5.894418 -2.154358 -3.937478
6
Structure 4
O 0.936488 -1.971089 1.948465
H 1.017531 -1.532492 2.783787
H 1.181363 -2.867723 2.127533
O -3.871797 -2.694944 -2.296419
H -3.269141 -2.753675 -3.023444
H -4.193252 -1.806041 -2.337896
6
Structure 5
O 2.165852 -2.071959 3.551726
H 2.520518 -1.240420 3.269853
H 1.955846 -2.524289 2.747192
O -5.284236 -2.818626 -3.909905
H -4.741709 -2.451576 -3.227154
H -5.262390 -2.165707 -4.594317
6
Structure 6
O 0.866732 -2.286090 1.968299
H 1.030039 -1.353337 1.969318
H 0.127575 -2.396017 1.387314
O -3.872358 -2.615435 -2.593964
H -3.747948 -2.428492 -1.674842
H -3.151734 -2.171281 -3.016609
6
Structure 7
O -0.852535 -1.057607 -3.347532
H -0.033126 -1.155864 -3.811873
H -0.909908 -1.829939 -2.803297
O -0.009497 0.581021 -1.826279
H -0.207560 1.094724 -2.595753
H 0.879426 0.824335 -1.612231
6
Structure 8
O -0.798539 -1.063124 -3.471341
H 0.084852 -1.282671 -3.732334
H -1.000286 -1.677306 -2.779922
O 0.077152 0.526897 -1.789980
H -0.486949 1.226034 -2.086976
H 0.925876 0.753859 -2.141202
6
Structure 9
O -0.909947 -1.087078 -3.146737
H -0.398674 -0.857721 -3.910081
H -0.391512 -1.743365 -2.703460
O -0.019581 0.716611 -1.869430
H 0.656866 1.001603 -2.466430
H 0.450534 0.231771 -1.206767
6
Structure 10
O -0.904444 -1.119892 -3.063809
H -0.669049 -0.873563 -3.947330
H -0.082247 -1.351528 -2.655988
O 0.087276 0.795075 -1.829571
H 0.921792 0.767282 -2.274567
H -0.092609 -0.111106 -1.625421
6
Structure 11
O -5.133750 -1.587112 0.474158
H -4.598123 -2.146021 -0.071207
H -4.624693 -1.468864 1.263372
O -3.576555 0.431431 0.236960
H -3.966220 0.829845 1.001576
H -4.290658 0.378234 -0.381447
6
Structure 12
O -5.091917 -1.541610 0.383631
H -4.540060 -2.230774 0.041280
H -4.602237 -1.186340 1.111627
O -3.665406 0.584475 0.190331
H -3.839629 0.441269 1.109216
H -4.417249 0.210187 -0.245377
