6
Structure 1 | Energy: -152.061097 Hartree
O -0.946878 -0.996364 0.873359
H -0.979744 -1.728830 1.498823
H -0.204408 -0.473730 1.212175
O 1.374887 0.636258 1.433809
H 1.028220 1.517813 1.244435
H 1.780777 0.389413 0.592890
6
Structure 2 | Energy: -152.058984 Hartree
O -0.942709 -0.883978 0.784203
H -1.008095 -1.619246 1.403798
H -0.248396 -0.340820 1.186835
O 1.301842 0.544604 1.393456
H 0.963828 1.417433 1.154508
H 1.829338 0.308928 0.619486
6
Structure 3 | Energy: -152.053050 Hartree
O -0.938248 -0.771448 0.695452
H -1.035422 -1.510456 1.306365
H -0.298051 -0.209416 1.157482
O 1.229016 0.452769 1.352076
H 0.906838 1.317146 1.065312
H 1.867031 0.231222 0.661658
6
Structure 4 | Energy: -152.042269 Hartree
O -0.933535 -0.658765 0.607130
H -1.061495 -1.402421 1.206623
H -0.352954 -0.079670 1.123636
O 1.156556 0.360760 1.309710
H 0.857067 1.217137 0.977893
H 1.891684 0.156005 0.717691
6
Structure 5 | Energy: -152.026965 Hartree
O -0.928614 -0.545924 0.519256
H -1.086098 -1.295096 1.104689
H -0.412642 0.048277 1.084855
O 1.084604 0.268586 1.266422
H 0.814178 1.117585 0.893260
H 1.901397 0.082935 0.785582
6
Structure 6 | Energy: -152.009421 Hartree
O -0.923528 -0.432921 0.431849
H -1.109024 -1.188429 1.000698
H -0.476614 0.174304 1.040741
O 1.013290 0.176262 1.222294
H 0.777692 1.018657 0.812362
H 1.894587 0.011625 0.863078
6
Structure 7 | Energy: -151.992964 Hartree
O -0.918324 -0.319752 0.344919
H -1.130082 -1.082363 0.894804
H -0.544329 0.298303 0.990938
O 0.942730 0.083805 1.177424
H 0.746994 0.920510 0.736072
H 1.870014 -0.058350 0.947726
6
Structure 8 | Energy: -151.980117 Hartree
O -0.913049 -0.206415 0.258477
H -1.149096 -0.976838 0.787175
H -0.615216 0.420183 0.935141
O 0.873026 -0.008765 1.131929
H 0.721348 0.823283 0.665165
H 1.826815 -0.127442 1.036921
6
Structure 9 | Energy: -151.971967 Hartree
O -0.907750 -0.092911 0.172525
H -1.165908 -0.871785 0.677997
H -0.688677 0.539872 0.873094
O 0.804260 -0.101427 1.085937
H 0.699911 0.727096 0.600303
H 1.764516 -0.196123 1.127961
6
Structure 10 | Energy: -151.969086 Hartree
O -0.902476 0.020760 0.087066
H -1.180379 -0.767134 0.567466
H -0.764093 0.657318 0.804595
O 0.736495 -0.194157 1.039586
H 0.681752 0.632047 0.542021
H 1.683043 -0.264871 1.218110
6
Structure 11 | Energy: -151.972026 Hartree
O -0.897274 0.134595 0.002094
H -1.192389 -0.662812 0.455791
H -0.840827 0.772485 0.729496
O 0.669773 -0.286928 0.993024
H 0.665873 0.538209 0.490716
H 1.582727 -0.334165 1.304646
6
Structure 12 | Energy: -151.980723 Hartree
O -0.892191 0.248591 -0.082397
H -1.201838 -0.558741 0.343190
H -0.918232 0.885359 0.647707
O 0.604116 -0.379715 0.946400
H 0.651226 0.445633 0.446639
H 1.464295 -0.404472 1.384925
6
Structure 13 | Energy: -151.993950 Hartree
O -0.887273 0.362741 -0.166421
H -1.208651 -0.454843 0.229891
H -0.995654 0.995943 0.559191
O 0.539520 -0.472491 0.899867
H 0.636737 0.354339 0.409887
H 1.328851 -0.476236 1.456435
6
Structure 14 | Energy: -152.009487 Hartree
O -0.882564 0.477041 -0.249993
H -1.212771 -0.351038 0.116123
H -1.072441 1.104262 0.463971
O 0.475962 -0.565230 0.853575
H 0.621330 0.264323 0.380406
H 1.177859 -0.549874 1.516847
6
Structure 15 | Energy: -152.024839 Hartree
O -0.878109 0.591481 -0.333133
H -1.214167 -0.247243 0.002125
H -1.147943 1.210358 0.362125
O 0.413395 -0.657905 0.807670
H 0.603948 0.175554 0.357988
H 1.013110 -0.625760 1.564065
6
Structure 16 | Energy: -152.038001 Hartree
O -0.873946 0.706053 -0.415865
H -1.212830 -0.143379 -0.111866
H -1.221524 1.314293 0.253790
O 0.351752 -0.750493 0.762288
H 0.583574 0.087975 0.342276
H 0.836682 -0.704222 1.596270
6
Structure 17 | Energy: -152.047905 Hartree
O -0.870115 0.820746 -0.498215
H -1.208774 -0.039364 -0.225613
H -1.292563 1.416147 0.139154
O 0.290947 -0.842971 0.717555
H 0.559256 0.001501 0.332774
H 0.650900 -0.785535 1.611960
6
Structure 18 | Energy: -152.054411 Hartree
O -0.866651 0.935550 -0.580213
H -1.202037 0.064881 -0.338878
H -1.360462 1.516017 0.018462
O 0.230876 -0.935319 0.673584
H 0.530123 -0.083972 0.328855
H 0.458283 -0.869913 1.609978
6
Structure 19 | Energy: -152.058004 Hartree
O -0.863585 1.050452 -0.661894
H -1.192679 0.169433 -0.451431
H -1.424646 1.614019 -0.107993
O 0.171420 -1.027520 0.630471
H 0.495407 -0.168572 0.329773
H 0.261496 -0.957506 1.589538
6
Structure 20 | Energy: -152.059440 Hartree
O -0.860948 1.165440 -0.743292
H -1.180781 0.274368 -0.563045
H -1.484576 1.710282 -0.239865
O 0.112446 -1.119559 0.588295
H 0.454456 -0.252443 0.334682
H 0.063290 -1.048396 1.550243
