6
Structure 1 | Energy: -152.061128 Hartree
O 1.491597 -0.701750 -1.069070
H 1.115424 -1.455772 -1.536903
H 0.733527 -0.388945 -0.550550
O -0.611024 0.453885 0.566858
H -0.522006 1.375488 0.289696
H -0.183195 0.457559 1.434357
6
Structure 2 | Energy: -152.058227 Hartree
O 1.524183 -0.626226 -0.976000
H 1.180191 -1.388027 -1.455844
H 0.784685 -0.410061 -0.386257
O -0.529602 0.390968 0.451638
H -0.472985 1.323564 0.204340
H -0.169335 0.393785 1.349305
6
Structure 3 | Energy: -152.049572 Hartree
O 1.556013 -0.550834 -0.882380
H 1.243716 -1.316828 -1.376997
H 0.849067 -0.432538 -0.228459
O -0.447919 0.328458 0.336845
H -0.426439 1.269384 0.117087
H -0.157136 0.325822 1.259366
6
Structure 4 | Energy: -152.032885 Hartree
O 1.587149 -0.475669 -0.788166
H 1.305532 -1.242199 -1.300070
H 0.926190 -0.454835 -0.078180
O -0.366032 0.266356 0.222508
H -0.382087 1.212868 0.027697
H -0.145981 0.253724 1.164328
6
Structure 5 | Energy: -152.007327 Hartree
O 1.617661 -0.400824 -0.693321
H 1.365197 -1.164224 -1.224737
H 1.015358 -0.475415 0.063678
O -0.284000 0.204658 0.108652
H -0.339623 1.153962 -0.064045
H -0.135245 0.177584 1.064029
6
Structure 6 | Energy: -151.973883 Hartree
O 1.647633 -0.326383 -0.597819
H 1.422306 -1.083040 -1.150647
H 1.115672 -0.492772 0.196355
O -0.201882 0.143360 -0.004706
H -0.298724 1.092631 -0.158336
H -0.124296 0.097538 0.958355
6
Structure 7 | Energy: -151.934780 Hartree
O 1.677154 -0.252427 -0.501646
H 1.476496 -0.998841 -1.077427
H 1.226049 -0.505450 0.319246
O -0.119740 0.082451 -0.117550
H -0.259051 1.028865 -0.255346
H -0.112505 0.013756 0.847248
6
Structure 8 | Energy: -151.893657 Hartree
O 1.706323 -0.179028 -0.404798
H 1.527455 -0.911869 -1.004691
H 1.345235 -0.512073 0.431908
O -0.037636 0.021916 -0.229871
H -0.220254 0.962678 -0.355218
H -0.099253 -0.073554 0.730699
6
Structure 9 | Energy: -151.856918 Hartree
O 1.735246 -0.106247 -0.307282
H 1.574923 -0.822412 -0.932043
H 1.471833 -0.511368 0.534068
O 0.044372 -0.038262 -0.341665
H -0.181974 0.894108 -0.458069
H -0.083933 -0.164150 0.608755
6
Structure 10 | Energy: -151.834311 Hartree
O 1.764030 -0.034135 -0.209119
H 1.618699 -0.730800 -0.859086
H 1.604317 -0.502181 0.625630
O 0.126221 -0.098103 -0.452931
H -0.143847 0.823214 -0.563986
H -0.065958 -0.257758 0.481512
6
Structure 11 | Energy: -151.835099 Hartree
O 1.792787 0.037265 -0.110336
H 1.658642 -0.637401 -0.785430
H 1.741068 -0.483501 0.706675
O 0.207855 -0.157633 -0.563676
H -0.105508 0.750079 -0.673027
H -0.044769 -0.354077 0.349120
6
Structure 12 | Energy: -151.860836 Hartree
O 1.821628 0.107926 -0.010976
H 1.694678 -0.542611 -0.710694
H 1.880393 -0.454478 0.777459
O 0.289216 -0.216878 -0.673911
H -0.066595 0.674809 -0.785218
H -0.019835 -0.452775 0.211779
6
Structure 13 | Energy: -151.903290 Hartree
O 1.850663 0.177831 0.088914
H 1.726797 -0.446849 -0.634518
H 2.020554 -0.414430 0.838409
O 0.370252 -0.275868 -0.783651
H -0.026748 0.597527 -0.900558
H 0.009336 -0.553502 0.069734
6
Structure 14 | Energy: -151.950024 Hartree
O 1.879999 0.246977 0.189273
H 1.755053 -0.350550 -0.556562
H 2.159803 -0.362864 0.890118
O 0.450912 -0.334637 -0.892917
H 0.014380 0.518379 -1.019011
H 0.043196 -0.655885 -0.076722
6
Structure 15 | Energy: -151.991095 Hartree
O 1.909737 0.315373 0.290037
H 1.779567 -0.254160 -0.476520
H 2.296405 -0.299477 0.933332
O 0.531148 -0.393218 -1.001734
H 0.057126 0.437528 -1.140514
H 0.082153 -0.759537 -0.227254
6
Structure 16 | Energy: -152.021815 Hartree
O 1.939973 0.383039 0.391131
H 1.800520 -0.158125 -0.394118
H 2.428669 -0.224163 0.968939
O 0.610919 -0.451648 -1.110132
H 0.101810 0.355152 -1.264974
H 0.126563 -0.864057 -0.381486
6
Structure 17 | Energy: -152.041893 Hartree
O 1.970794 0.450009 0.492477
H 1.818155 -0.062884 -0.309123
H 2.554979 -0.137017 0.997954
O 0.690186 -0.509966 -1.218143
H 0.148734 0.271446 -1.392269
H 0.176731 -0.969037 -0.539009
6
Structure 18 | Energy: -152.053369 Hartree
O 2.002275 0.516330 0.593992
H 1.832769 0.031134 -0.221345
H 2.673814 -0.038330 1.021504
O 0.768916 -0.568210 -1.325807
H 0.198178 0.186617 -1.522249
H 0.232905 -1.074064 -0.699379
6
Structure 19 | Energy: -152.058934 Hartree
O 2.034484 0.582057 0.695590
H 1.844709 0.123524 -0.130639
H 2.783783 0.071413 1.040805
O 0.847081 -0.626420 -1.433162
H 0.250397 0.100882 -1.654738
H 0.295276 -1.178723 -0.862128
6
Structure 20 | Energy: -152.060892 Hartree
O 2.067474 0.647256 0.797184
H 1.854369 0.213906 -0.036912
H 2.883639 0.191542 1.057145
O 0.924657 -0.684636 -1.540253
H 0.305621 0.014468 -1.789538
H 0.363974 -1.282607 -1.026762
