5
Structure 1
N -1.701423 0.450001 -3.242232
N -1.328930 -0.159579 -2.408889
O -0.002722 -0.953625 0.291998
H -0.034262 -1.891123 0.491093
H -0.428560 -0.832494 -0.561334
5
Structure 2
N -1.722318 0.090135 -0.774213
N -1.506383 0.727472 -1.641772
O -1.995437 1.863086 1.391796
H -2.056344 2.408358 2.178816
H -2.125845 0.952356 1.665904
5
Structure 3
N 1.935715 2.335507 0.896689
N 1.373599 1.394766 0.834926
O -0.456833 -0.946275 -0.109398
H 0.125717 -0.269819 0.247236
H -0.526306 -1.635033 0.554173
5
Structure 4
N -1.801808 0.994348 1.662335
N -2.007619 1.475860 2.626992
O -1.600423 -1.076268 -0.658624
H -1.145881 -0.724106 -1.426013
H -1.628193 -0.374999 -0.001668
5
Structure 5
N 1.870885 1.038913 -0.248278
N 1.794259 0.593699 -1.249047
O 1.706888 -1.010792 1.651886
H 1.697919 -0.124995 2.022032
H 2.145864 -1.579741 2.287456
5
Structure 6
N 0.182137 -2.642828 0.671891
N 0.828796 -1.835026 0.303094
O 0.166800 0.484874 1.431109
H 0.747190 0.718862 2.158358
H 0.609237 0.747216 0.620641
5
Structure 7
N 0.248327 -2.278831 -0.226360
N 0.430891 -1.198092 -0.167480
O 1.808094 1.536851 0.387818
H 1.286436 2.298409 0.128129
H 1.289875 0.755257 0.176226
5
Structure 8
N -1.113405 1.141826 2.164725
N -1.251219 0.426839 1.343389
O -0.996531 -1.117670 -1.352854
H -1.137594 -0.696883 -0.500103
H -1.608242 -1.854153 -1.406986
5
Structure 9
N 0.307410 0.446802 0.165787
N 1.243505 0.026036 -0.224261
O 0.524011 3.276683 0.190037
H -0.273250 2.877005 0.545772
H 0.339484 4.208640 0.056746
5
Structure 10
N -1.387194 -0.030220 -1.392642
N -0.875926 -0.804522 -0.806261
O 1.039657 -2.307791 1.140898
H 0.868900 -3.251218 1.159005
H 0.413056 -1.920230 0.523384
5
Structure 11
N -1.739014 1.715340 -0.145091
N -2.644998 1.628045 0.468914
O -0.278998 -0.749605 -0.407139
H 0.549655 -1.225191 -0.321001
H -0.086829 0.076519 -0.857680
5
Structure 12
N -2.337612 -0.597897 -0.085910
N -1.548065 -1.314802 -0.345620
O 0.612377 -2.958233 -1.878554
H 1.036460 -3.611342 -1.318976
H -0.034298 -2.499374 -1.335035
5
Structure 13
N 2.589657 0.344363 1.493607
N 2.247605 -0.107232 0.553484
O 0.887416 -0.729525 -2.186394
H 1.180906 -1.582049 -2.512857
H 1.326218 -0.585124 -1.343353
5
Structure 14
N 2.349973 -1.652163 -1.931455
N 2.214846 -1.063688 -1.014817
O 1.510770 -0.183004 1.891039
H 1.760247 -0.369306 0.981527
H 1.684321 0.747482 2.044684
5
Structure 15
N -1.989269 -0.888153 -1.100245
N -1.318119 -0.053251 -1.339604
O 0.316660 2.136456 -2.840555
H 0.848822 2.664313 -2.242471
H -0.152307 1.490725 -2.304589
5
Structure 16
N 2.483698 0.687534 -0.228524
N 1.957485 0.026152 -0.928861
O -0.088305 -1.152015 -2.964865
H 0.585531 -0.865158 -2.342127
H 0.148946 -2.037231 -3.247032
5
Structure 17
N -2.097149 -0.649357 0.707378
N -1.096041 -0.841586 1.114331
O 1.648060 -0.580672 2.570079
H 0.825571 -0.733135 2.096349
H 2.168057 -1.382808 2.494675
5
Structure 18
N 0.390404 -0.434472 0.972536
N -0.475341 -0.231287 1.616471
O 0.236712 -3.131218 0.094954
H 0.963051 -2.590626 -0.224539
H 0.415381 -4.034635 -0.173830
5
Structure 19
N 2.288275 0.336671 0.185541
N 1.752523 -0.145211 -0.643602
O -0.835865 0.482850 -0.581884
H -0.812654 -0.341212 -1.073662
H -1.057110 1.177805 -1.205259
5
Structure 20
N -0.411824 -0.582380 0.585022
N 0.339447 -0.009384 0.026393
O 3.064373 1.192292 -0.881956
H 2.174543 0.883603 -0.689275
H 3.002046 1.770746 -1.644217
