6
Structure 1 | Energy: -152.461713 Hartree
O -8.652893 -9.378061 1.907128
H -8.679155 -8.416421 1.838219
H -9.583035 -9.589021 2.049974
O -7.070369 -8.399326 -4.730925
H -6.366761 -8.312968 -5.384425
H -6.972657 -7.582607 -4.227983
6
Structure 2 | Energy: -152.462099 Hartree
O 3.473017 -0.786634 0.891102
H 3.444951 -0.058330 0.259302
H 4.258448 -0.567601 1.406208
O -1.772442 -0.051237 -2.302095
H -2.242736 -0.262926 -3.116657
H -1.139098 -0.776254 -2.246302
6
Structure 3 | Energy: -152.462215 Hartree
O -3.939483 2.213847 -0.202338
H -4.253330 1.482216 0.342356
H -3.815112 2.907316 0.456418
O -0.489490 -3.214032 -1.174004
H 0.037106 -3.623952 -1.869849
H -1.068990 -2.634593 -1.682151
6
Structure 4 | Energy: -152.461566 Hartree
O -8.430579 -9.289386 1.338299
H -8.492459 -8.355993 1.571926
H -9.304427 -9.455403 0.965497
O -7.221706 -8.485329 -3.954443
H -6.397576 -8.509866 -4.454591
H -7.527613 -7.587232 -4.125201
6
Structure 5 | Energy: -152.462110 Hartree
O -8.395393 -2.172870 3.548719
H -7.504971 -1.934253 3.832566
H -8.308277 -2.141640 2.588630
O -6.730425 -5.235535 8.941711
H -6.949305 -5.267133 9.880107
H -7.273059 -4.498504 8.638131
6
Structure 6 | Energy: -152.473733 Hartree
O -1.013967 -1.607099 1.577884
H -0.710311 -0.782663 1.170457
H -1.890742 -1.358757 1.901090
O -0.754110 -0.822302 -1.116490
H 0.100188 -1.090909 -1.473124
H -0.992801 -1.579148 -0.563029
6
Structure 7 | Energy: -152.473677 Hartree
O -0.893941 -1.901016 1.022901
H -0.552477 -1.291433 1.688213
H -1.146092 -1.296471 0.307636
O -0.720073 -0.566346 -1.491554
H 0.057408 -1.118835 -1.324768
H -1.220355 -1.112576 -2.114090
6
Structure 8 | Energy: -152.473759 Hartree
O -2.685620 0.890839 -0.674081
H -3.528401 0.529638 -0.370126
H -2.307956 1.237306 0.146546
O -1.483348 -1.743471 -0.592448
H -1.152537 -1.987920 -1.464129
H -1.784765 -0.834400 -0.739480
6
Structure 9 | Energy: -152.472777 Hartree
O -2.943930 0.855540 -0.654467
H -3.239812 0.635996 0.239432
H -2.270454 1.528573 -0.490561
O -1.644460 -1.729016 -0.836166
H -0.790211 -1.550193 -1.243540
H -2.116505 -0.891748 -0.982594
6
Structure 10 | Energy: -152.473741 Hartree
O 2.095156 -0.844637 -0.506643
H 2.065439 0.077587 -0.218013
H 2.163701 -1.321053 0.332160
O -0.703859 -0.566943 -1.176965
H -0.742779 -0.567831 -2.139739
H 0.212496 -0.843027 -1.014527
6
Structure 11 | Energy: -152.473690 Hartree
O -2.970271 0.641373 -0.574714
H -3.914712 0.516787 -0.409307
H -2.625380 0.819456 0.311236
O -1.643338 -1.936381 -0.546224
H -0.828859 -1.792475 -1.042274
H -2.130807 -1.116178 -0.720542
6
Structure 12 | Energy: -152.473768 Hartree
O -1.297591 -1.662566 1.380827
H -0.923207 -0.988417 1.961501
H -0.885766 -1.443480 0.529789
O -0.478482 -0.943047 -1.306458
H -0.331272 -1.765701 -1.791791
H -1.390437 -0.725672 -1.544458
6
Structure 13 | Energy: -152.473141 Hartree
O 2.071360 -0.869732 -0.356067
H 1.896272 0.047731 -0.607825
H 2.709720 -0.780882 0.362529
O -0.319919 0.199090 -1.287482
H -0.124384 -0.193375 -2.146982
H -0.010946 -0.499389 -0.691917
6
Structure 14 | Energy: -152.473787 Hartree
O -1.270077 -1.970018 1.454255
H -1.551712 -1.294426 2.083668
H -1.122121 -1.442812 0.653068
O -0.740862 -0.508136 -1.001754
H 0.202391 -0.659118 -1.147834
H -1.147094 -1.053232 -1.689405
6
Structure 15 | Energy: -152.473717 Hartree
O 2.346812 -0.894154 0.181156
H 2.007968 -0.268833 -0.477911
H 2.730075 -0.306099 0.844398
O 0.110819 0.202716 -1.147922
H -0.079307 -0.368310 -1.905327
H 0.073652 -0.424586 -0.411451
