6
Structure 1
O -1.135189 -1.671919 0.654771
H -1.953854 -1.716622 1.150831
H -0.969448 -0.731662 0.489759
O -0.365265 0.982476 0.018952
H 0.519552 1.032349 0.388227
H -0.274342 0.964466 -0.936615
6
Structure 2
O -0.295010 -0.522024 1.276595
H -0.814291 -0.328716 2.060638
H 0.626635 -0.376022 1.502467
O -0.877024 1.677235 -0.416450
H -1.217313 1.414301 -1.272798
H -0.714681 0.857539 0.074031
6
Structure 3
O -0.376493 -0.099900 1.276634
H -1.018530 0.612636 1.319038
H -0.569465 -0.700301 2.000535
O -1.224624 -1.570242 -0.994999
H -0.536748 -1.677301 -1.653496
H -0.830567 -1.059566 -0.271996
6
Structure 4
O -0.281902 0.789625 0.259816
H 0.208058 1.418227 -0.275492
H 0.238557 0.621099 1.048767
O -0.000654 -1.625412 -1.199589
H -0.212597 -0.817368 -0.708712
H -0.839590 -2.030611 -1.423891
6
Structure 5
O 0.955409 -0.288661 1.172823
H 0.527390 -0.185434 2.025990
H 1.635245 0.386490 1.111913
O -1.016657 0.655446 -0.633022
H -0.344728 0.232737 -0.077477
H -1.234088 0.022727 -1.319080
6
Structure 6
O -0.995454 -0.294593 1.111836
H -1.234246 0.510192 0.628019
H -1.737307 -0.492690 1.685152
O -1.385119 2.046129 -0.441424
H -1.233407 1.737323 -1.337726
H -0.632605 2.589636 -0.196347
6
Structure 7
O -1.299825 0.991319 -0.526794
H -2.045527 0.473407 -0.838932
H -1.619490 1.549523 0.185908
O 0.256963 -0.948772 0.834994
H -0.177680 -0.263201 0.305956
H 1.163067 -0.991594 0.526116
6
Structure 8
O -1.448179 -0.875651 -0.963776
H -2.363074 -0.588672 -0.915242
H -1.406860 -1.759260 -0.590580
O -0.191186 0.700541 1.030486
H -0.542054 0.206508 0.274413
H 0.550442 1.208215 0.698054
6
Structure 9
O 0.748692 1.131240 0.076669
H 1.496986 0.759871 0.546155
H 0.300572 0.386435 -0.351419
O -0.785556 -0.817741 -1.297912
H -0.785199 -0.489129 -2.199995
H -1.667688 -0.679644 -0.945052
6
Structure 10
O -0.261007 1.804361 0.407586
H 0.632416 1.453224 0.423024
H -0.306608 2.434784 -0.315062
O -1.774224 -0.382564 -0.576948
H -1.329867 0.364332 -0.148567
H -2.493442 -0.635413 0.003652
6
Structure 11
O -0.665554 0.500350 -1.742944
H -1.462987 1.009599 -1.905712
H 0.065135 1.121637 -1.700044
O -0.971890 -0.290036 0.963223
H -0.855485 -0.134068 0.014051
H -0.919238 -1.238768 1.087361
6
Structure 12
O 0.757560 -1.683492 0.288494
H 0.499216 -2.431160 -0.252356
H 0.243509 -0.927050 -0.031451
O -0.594612 0.712064 -0.400559
H -1.004051 0.968627 0.429070
H 0.127056 1.324057 -0.563025
6
Structure 13
O -1.368372 -0.214676 1.083518
H -1.273553 0.486037 1.732935
H -0.670799 -0.853054 1.249672
O -0.511173 1.034856 -1.313477
H -0.903799 0.583685 -0.551168
H -1.163491 0.994173 -2.014262
6
Structure 14
O 0.807938 -0.224510 -0.818641
H 1.046064 -1.052732 -0.395453
H 0.168034 -0.429029 -1.504520
O -0.778899 1.051119 1.155344
H -0.170100 0.711648 0.482346
H -0.458213 1.922639 1.391748
6
Structure 15
O 0.592899 -0.012300 -1.498286
H 1.354849 -0.582193 -1.370197
H 0.850628 0.872386 -1.228744
O -1.147726 -0.819408 0.589932
H -2.012410 -1.089109 0.277137
H -0.641487 -0.567065 -0.196748
6
Structure 16
O 0.758715 0.133916 -1.131496
H 0.395848 0.485280 -0.304643
H 0.516191 -0.792753 -1.158235
O -0.168173 1.463407 1.195603
H -0.674655 2.194431 0.833916
H 0.638491 1.830917 1.564331
6
Structure 17
O 0.365796 0.045907 -0.857461
H -0.227401 0.673416 -1.272942
H -0.086121 -0.266765 -0.059465
O -0.680632 -1.065480 1.532434
H -0.643068 -2.009288 1.360626
H 0.003655 -0.865841 2.175557
6
Structure 18
O -0.131207 0.367240 2.177191
H -0.235891 -0.409138 2.732202
H 0.800216 0.434096 1.954177
O -1.298605 -0.461106 -0.270682
H -0.973680 -0.086148 0.561568
H -2.012474 0.108558 -0.560723
6
Structure 19
O -1.298746 -0.658538 0.765477
H -2.050578 -1.247377 0.666768
H -0.577998 -1.176201 1.131963
O -0.453527 -0.247403 -1.909970
H -0.753516 -0.271212 -0.988969
H -0.409388 0.678292 -2.153664
6
Structure 20
O -1.461438 0.082304 0.693982
H -1.135482 -0.529466 0.017016
H -2.416070 0.089897 0.611148
O -0.192926 -1.635467 -1.172022
H 0.422091 -1.047220 -1.616349
H 0.324584 -2.215206 -0.608289
