5
Structure 1 | Energy: -10.834754 Hartree
N 1.528004 0.327942 0.331153
N 1.448935 0.713560 1.356402
O 0.101679 -2.000665 -1.189686
H -0.691921 -1.967852 -0.651889
H 0.007691 -1.336683 -1.875522
5
Structure 2 | Energy: -10.834754 Hartree
N 1.528004 0.327942 0.331153
N 1.448935 0.713560 1.356402
O 0.045381 -1.982897 -1.172392
H -0.741530 -1.939390 -0.625601
H -0.047642 -1.317994 -1.857468
5
Structure 3 | Energy: -10.834943 Hartree
N 1.910011 0.341650 0.540878
N 1.066929 0.699852 1.146677
O 0.045381 -1.982897 -1.172392
H -0.741530 -1.939390 -0.625601
H -0.047642 -1.317994 -1.857468
5
Structure 4 | Energy: -10.835196 Hartree
N 0.837940 0.052743 1.494364
N 1.087628 -0.797607 2.142939
O 0.045381 -1.982897 -1.172392
H -0.741530 -1.939390 -0.625601
H -0.047642 -1.317994 -1.857468
5
Structure 5 | Energy: -10.835235 Hartree
N 0.837940 0.052743 1.494364
N 1.087628 -0.797607 2.142939
O 0.065851 -1.949632 -1.108887
H -0.721059 -1.906124 -0.562096
H -0.027172 -1.284729 -1.793963
5
Structure 6 | Energy: -10.833736 Hartree
N 0.951337 -0.001843 2.223688
N 0.974230 -0.743022 1.413615
O 0.065851 -1.949632 -1.108887
H -0.721059 -1.906124 -0.562096
H -0.027172 -1.284729 -1.793963
5
Structure 7 | Energy: -10.834200 Hartree
N 1.099148 0.046699 2.146152
N 0.826419 -0.791563 1.491151
O 0.065851 -1.949632 -1.108887
H -0.721059 -1.906124 -0.562096
H -0.027172 -1.284729 -1.793963
5
Structure 8 | Energy: -10.834939 Hartree
N -1.069637 1.582792 0.388943
N -0.506020 0.844845 -0.197452
O 0.065851 -1.949632 -1.108887
H -0.721059 -1.906124 -0.562096
H -0.027172 -1.284729 -1.793963
5
Structure 9 | Energy: -10.834755 Hartree
N -1.043806 1.482485 0.350013
N -0.480189 0.744538 -0.236382
O 0.065851 -1.949632 -1.108887
H -0.721059 -1.906124 -0.562096
H -0.027172 -1.284729 -1.793963
5
Structure 10 | Energy: -10.835099 Hartree
N -1.043806 1.482485 0.350013
N -0.480189 0.744538 -0.236382
O 0.796709 -1.352192 1.764968
H 0.800865 -0.486548 2.178182
H 1.114755 -1.239841 0.867025
5
Structure 11 | Energy: -10.835405 Hartree
N 0.532928 -0.928496 2.031043
N 1.096546 -1.666443 1.444648
O -0.780026 1.058789 0.083938
H -0.775869 1.924433 0.497151
H -0.461979 1.171140 -0.814006
5
Structure 12 | Energy: -10.835439 Hartree
N -0.248425 -1.492218 1.697128
N -0.071389 -2.315328 0.991978
O -0.780026 1.058789 0.083938
H -0.775869 1.924433 0.497151
H -0.461979 1.171140 -0.814006
5
Structure 13 | Energy: -10.835402 Hartree
N -0.240099 -1.533945 1.714936
N -0.063062 -2.357055 1.009787
O -0.780026 1.058789 0.083938
H -0.775869 1.924433 0.497151
H -0.461979 1.171140 -0.814006
5
Structure 14 | Energy: -10.835236 Hartree
N -0.240099 -1.533945 1.714936
N -0.063062 -2.357055 1.009787
O -0.702540 1.103033 0.077068
H -1.390786 1.573322 0.551671
H -1.076920 0.820015 -0.759484
5
Structure 15 | Energy: -10.835282 Hartree
N -0.669180 -2.051799 0.002369
N -1.115859 -2.429137 0.931982
O -0.702540 1.103033 0.077068
H -1.390786 1.573322 0.551671
H -1.076920 0.820015 -0.759484
5
Structure 16 | Energy: -10.834641 Hartree
N -0.669180 -2.051799 0.002369
N -1.115859 -2.429137 0.931982
O -0.910644 1.801680 -1.164195
H -1.598890 2.271969 -0.689592
H -1.285024 1.518663 -2.000747
5
Structure 17 | Energy: -10.834780 Hartree
N 0.039492 1.935772 -0.873483
N -0.407187 1.558433 0.056131
O -0.454952 -2.526006 0.408457
H 0.330998 -2.916503 0.021292
H -0.283094 -2.411038 1.345113
5
Structure 18 | Energy: -10.834763 Hartree
N 0.042019 1.985593 -0.883333
N -0.404660 1.608254 0.046281
O -0.454952 -2.526006 0.408457
H 0.330998 -2.916503 0.021292
H -0.283094 -2.411038 1.345113
5
Structure 19 | Energy: -10.834728 Hartree
N -0.178020 -2.352753 -0.025604
N -0.624699 -2.730092 0.904010
O -0.234913 1.812340 -0.449272
H 0.551037 1.421843 -0.836437
H -0.063056 1.927308 0.487384
5
Structure 20 | Energy: -10.834752 Hartree
N -0.174287 -2.279159 -0.040154
N -0.620967 -2.656498 0.889459
O -0.234913 1.812340 -0.449272
H 0.551037 1.421843 -0.836437
H -0.063056 1.927308 0.487384
5
Structure 21 | Energy: -10.834822 Hartree
N -0.174287 -2.279159 -0.040154
N -0.620967 -2.656498 0.889459
O -0.234913 1.812341 -0.449272
H 0.359003 1.091383 -0.667415
H 0.128971 2.257756 0.318368
5
Structure 22 | Energy: -10.834912 Hartree
N -0.174287 -2.279159 -0.040154
N -0.620967 -2.656498 0.889459
O -0.245174 1.610027 -0.409273
H 0.348742 0.889070 -0.627416
H 0.118710 2.055443 0.358367
5
Structure 23 | Energy: -10.834912 Hartree
N -0.174287 -2.279159 -0.040154
N -0.620967 -2.656498 0.889459
O 1.214330 1.365633 0.192817
H 0.765617 0.819264 -0.455442
H 0.566757 1.980417 0.543200
5
Structure 24 | Energy: -10.835001 Hartree
N -0.174287 -2.279159 -0.040154
N -0.620967 -2.656498 0.889459
O 1.189143 1.353478 0.226075
H 0.343300 1.804787 0.257252
H 1.388846 1.187833 -0.697374
5
Structure 25 | Energy: -10.834802 Hartree
N -0.919865 -2.416076 0.586243
N 0.124611 -2.519580 0.263062
O 1.189143 1.353478 0.226075
H 0.343300 1.804787 0.257252
H 1.388846 1.187833 -0.697374
5
Structure 26 | Energy: -10.834907 Hartree
N 0.630751 1.421214 0.337740
N 1.675227 1.317709 0.014559
O -0.361473 -2.483812 0.474578
H -1.207316 -2.032502 0.505755
H -0.161770 -2.649456 -0.448871
5
Structure 27 | Energy: -10.834729 Hartree
N 0.630751 1.421214 0.337740
N 1.675227 1.317709 0.014559
O 1.438320 -2.745334 0.642431
H 1.290660 -2.541631 1.568068
H 0.577278 -2.865603 0.237189
5
Structure 28 | Energy: -10.834636 Hartree
N 0.630751 1.421214 0.337740
N 1.675227 1.317709 0.014559
O 1.562147 -2.513762 -0.371635
H 1.414486 -2.310060 0.554002
H 0.701105 -2.634032 -0.776876
5
Structure 29 | Energy: -10.834658 Hartree
N 0.630751 1.421214 0.337740
N 1.675227 1.317709 0.014559
O 1.552687 -2.409747 -0.357725
H 1.405027 -2.206044 0.567912
H 0.691646 -2.530016 -0.762967
5
Structure 30 | Energy: -10.835198 Hartree
N 3.027838 1.222960 -0.898852
N 2.155912 1.277954 -0.233413
O 1.552687 -2.409747 -0.357725
H 1.405027 -2.206044 0.567912
H 0.691646 -2.530016 -0.762967
5
Structure 31 | Energy: -10.835294 Hartree
N 3.027838 1.222960 -0.898852
N 2.155912 1.277954 -0.233413
O 1.591574 -2.280003 -0.366155
H 1.443913 -2.076301 0.559482
H 0.730532 -2.400273 -0.771397
5
Structure 32 | Energy: -10.835375 Hartree
N 2.996773 1.119313 -0.892118
N 2.124847 1.174306 -0.226678
O 1.591574 -2.280003 -0.366155
H 1.443913 -2.076301 0.559482
H 0.730532 -2.400273 -0.771397
5
Structure 33 | Energy: -10.835454 Hartree
N 2.967503 1.021656 -0.885772
N 2.095577 1.076649 -0.220333
O 1.591574 -2.280003 -0.366155
H 1.443913 -2.076301 0.559482
H 0.730532 -2.400273 -0.771397
5
Structure 34 | Energy: -10.834715 Hartree
N 1.971096 -2.302832 -0.669757
N 1.099171 -2.247838 -0.004318
O 2.587981 1.044484 -0.582170
H 2.440320 1.248187 0.343467
H 1.726939 0.924215 -0.987412
5
Structure 35 | Energy: -10.834715 Hartree
N 1.971096 -2.302832 -0.669757
N 1.099171 -2.247838 -0.004318
O 1.288780 1.126426 0.409358
H 2.234065 1.261196 0.500877
H 1.113787 0.962887 -0.519464
5
Structure 36 | Energy: -10.834143 Hartree
N 1.971096 -2.302832 -0.669757
N 1.099171 -2.247838 -0.004318
O 1.343122 1.180460 0.391362
H 1.760070 0.340448 0.592946
H 0.725269 1.026011 -0.325911
5
Structure 37 | Energy: -10.834422 Hartree
N 1.971096 -2.302832 -0.669757
N 1.099171 -2.247838 -0.004318
O 1.287775 1.136173 0.318000
H 1.666154 1.778866 0.921223
H 1.697649 0.290516 0.510212
5
Structure 38 | Energy: -10.834873 Hartree
N 1.971096 -2.302832 -0.669757
N 1.099171 -2.247838 -0.004318
O 1.392044 1.120452 0.382915
H 0.838691 1.903629 0.406074
H 0.870153 0.415283 -0.004958
5
Structure 39 | Energy: -10.834854 Hartree
N 1.971096 -2.302832 -0.669757
N 1.099171 -2.247838 -0.004318
O 1.396632 1.043699 0.367124
H 0.843279 1.826876 0.390283
H 0.874741 0.338531 -0.020749
5
Structure 40 | Energy: -10.834304 Hartree
N 1.971096 -2.302832 -0.669757
N 1.099171 -2.247838 -0.004318
O 1.294267 1.078905 0.310343
H 1.451447 1.222144 1.245693
H 1.891313 0.384478 0.025062
5
Structure 41 | Energy: -10.834644 Hartree
N 0.954620 -2.421024 -2.091680
N 0.082694 -2.366031 -1.426241
O 1.294267 1.078905 0.310343
H 1.451447 1.222144 1.245693
H 1.891313 0.384478 0.025062
5
Structure 42 | Energy: -10.834666 Hartree
N 0.909076 -2.387739 -2.130933
N 0.334572 -2.550106 -1.209157
O 1.294267 1.078905 0.310343
H 1.451447 1.222144 1.245693
H 1.891313 0.384478 0.025062
5
Structure 43 | Energy: -10.834495 Hartree
N 0.909076 -2.387739 -2.130933
N 0.334572 -2.550106 -1.209157
O -0.099982 1.064870 -0.301428
H 0.057197 1.208109 0.633922
H 0.497063 0.370443 -0.586709
5
Structure 44 | Energy: -10.834959 Hartree
N 0.909076 -2.387739 -2.130933
N 0.334572 -2.550106 -1.209157
O -0.078731 1.035770 -0.325164
H -0.387202 1.581316 0.401009
H 0.604170 0.459105 0.022946
5
Structure 45 | Energy: -10.834801 Hartree
N 0.909076 -2.387739 -2.130933
N 0.334572 -2.550106 -1.209157
O -0.118984 1.017538 -0.271164
H 0.321882 1.278262 0.539861
H 0.533979 1.051546 -0.972991
5
Structure 46 | Energy: -10.834519 Hartree
N 1.229062 -1.765853 -2.539954
N 0.654559 -1.928220 -1.618178
O -0.118984 1.017538 -0.271164
H 0.321882 1.278262 0.539861
H 0.533979 1.051546 -0.972991
5
Structure 47 | Energy: -10.834892 Hartree
N 1.850329 -1.740925 -1.013487
N 1.275825 -1.903291 -0.091711
O -0.118984 1.017538 -0.271164
H 0.321882 1.278262 0.539861
H 0.533979 1.051546 -0.972991
5
Structure 48 | Energy: -10.834890 Hartree
N 1.870804 -1.777004 -1.017120
N 1.296301 -1.939371 -0.095344
O -0.118984 1.017538 -0.271164
H 0.321882 1.278262 0.539861
H 0.533979 1.051546 -0.972991
5
Structure 49 | Energy: -10.834404 Hartree
N 1.115954 -1.712209 -0.804353
N 2.051151 -2.004166 -0.308111
O -0.118984 1.017538 -0.271164
H 0.321882 1.278262 0.539861
H 0.533979 1.051546 -0.972991
5
Structure 50 | Energy: -10.834423 Hartree
N 1.142658 -1.759264 -0.809090
N 2.077855 -2.051221 -0.312848
O -0.118984 1.017538 -0.271164
H 0.321882 1.278262 0.539861
H 0.533979 1.051546 -0.972991
5
Structure 51 | Energy: -10.834494 Hartree
N 1.142658 -1.759264 -0.809090
N 2.077855 -2.051221 -0.312848
O -0.378744 1.988158 0.716998
H 0.062122 2.248882 1.528024
H 0.274219 2.022166 0.015171
5
Structure 52 | Energy: -10.834907 Hartree
N -0.785139 2.150628 0.474988
N 0.150058 1.858671 0.971229
O 1.549053 -1.921734 -0.567079
H 1.989919 -1.661010 0.243946
H 2.202015 -1.887726 -1.268906
5
Structure 53 | Energy: -10.834505 Hartree
N -0.785139 2.150628 0.474988
N 0.150058 1.858671 0.971229
O 1.638407 -1.945516 -0.601474
H 1.298218 -1.073337 -0.810463
H 1.475482 -2.097920 0.331428
5
Structure 54 | Energy: -10.834556 Hartree
N -0.785139 2.150628 0.474988
N 0.150058 1.858671 0.971229
O 1.657093 -1.948075 -0.566147
H 1.597318 -1.246111 0.084833
H 0.879800 -1.884529 -1.124588
5
Structure 55 | Energy: -10.834450 Hartree
N -0.785139 2.150628 0.474988
N 0.150058 1.858671 0.971229
O 1.652375 -1.880963 -0.519839
H 1.401178 -2.803300 -0.599191
H 1.150820 -1.392545 -1.175559
5
Structure 56 | Energy: -10.834461 Hartree
N -0.700705 1.979383 0.418748
N 0.234492 1.687426 0.914989
O 1.652375 -1.880963 -0.519839
H 1.401178 -2.803300 -0.599191
H 1.150820 -1.392545 -1.175559
5
Structure 57 | Energy: -10.835005 Hartree
N -0.212282 2.299710 0.956088
N -0.253932 1.367099 0.377649
O 1.652375 -1.880963 -0.519839
H 1.401178 -2.803300 -0.599191
H 1.150820 -1.392545 -1.175559
5
Structure 58 | Energy: -10.834703 Hartree
N -0.212282 2.299710 0.956088
N -0.253932 1.367099 0.377649
O 1.567445 -1.939308 -0.593556
H 2.452268 -2.219383 -0.351173
H 1.447740 -1.050408 -0.253550
5
Structure 59 | Energy: -10.834687 Hartree
N -0.242023 2.360030 0.975899
N -0.283673 1.427420 0.397459
O 1.567445 -1.939308 -0.593556
H 2.452268 -2.219383 -0.351173
H 1.447740 -1.050408 -0.253550
5
Structure 60 | Energy: -10.834687 Hartree
N -0.242023 2.360030 0.975899
N -0.283673 1.427420 0.397459
O 1.442447 -0.831747 -2.370262
H 2.278883 -0.683076 -2.815656
H 1.345212 -0.141942 -1.710874
5
Structure 61 | Energy: -10.834698 Hartree
N -0.242023 2.360030 0.975899
N -0.283673 1.427420 0.397459
O 1.424088 -0.803592 -2.338256
H 2.260523 -0.654921 -2.783650
H 1.326853 -0.113788 -1.678868
5
Structure 62 | Energy: -10.834654 Hartree
N -0.235624 2.013360 1.274686
N -0.300311 1.168238 0.576349
O 1.424088 -0.803592 -2.338256
H 2.260523 -0.654921 -2.783650
H 1.326853 -0.113788 -1.678868
5
Structure 63 | Energy: -10.835145 Hartree
N 1.497792 -0.334116 -1.977114
N 1.433105 -1.179238 -2.675451
O -0.309328 1.543884 0.913544
H 0.527107 1.692555 0.468150
H -0.406563 2.233688 1.572932
5
Structure 64 | Energy: -10.834931 Hartree
N 1.497792 -0.334116 -1.977114
N 1.433105 -1.179238 -2.675451
O 0.542114 2.102775 0.821713
H 1.397705 1.745528 0.575865
H 0.686910 2.712475 1.547921
5
Structure 65 | Energy: -10.833816 Hartree
N 1.497792 -0.334116 -1.977114
N 1.433105 -1.179238 -2.675451
O 1.492573 0.763760 0.561173
H 2.348164 0.406513 0.315324
H 1.637369 1.373460 1.287381
5
Structure 66 | Energy: -10.833941 Hartree
N 1.497792 -0.334116 -1.977114
N 1.433105 -1.179238 -2.675451
O -0.602472 0.559121 -0.171696
H -1.046024 0.123309 -0.902061
H -1.259826 0.710479 0.510253
5
Structure 67 | Energy: -10.835475 Hartree
N -0.631728 0.965765 0.174763
N -0.696415 0.120644 -0.523573
O 1.527048 -0.740761 -2.323573
H 1.083496 -1.176572 -3.053938
H 0.869695 -0.589403 -1.641624
5
Structure 68 | Energy: -10.834517 Hartree
N -1.176606 0.737003 -0.138735
N -0.151536 0.349407 -0.210075
O 1.527048 -0.740761 -2.323573
H 1.083496 -1.176572 -3.053938
H 0.869695 -0.589403 -1.641624
5
Structure 69 | Energy: -10.835017 Hartree
N 0.405742 1.895822 0.089948
N 0.760328 0.865718 -0.048777
O 1.527048 -0.740761 -2.323573
H 1.083496 -1.176572 -3.053938
H 0.869695 -0.589403 -1.641624
5
Structure 70 | Energy: -10.835142 Hartree
N 0.405742 1.895822 0.089948
N 0.760328 0.865718 -0.048777
O 1.540940 -0.774410 -2.360519
H 1.097387 -1.210221 -3.090884
H 0.883586 -0.623052 -1.678570
5
Structure 71 | Energy: -10.835208 Hartree
N 0.395145 1.921491 0.118132
N 0.749731 0.891387 -0.020593
O 1.540940 -0.774410 -2.360519
H 1.097387 -1.210221 -3.090884
H 0.883586 -0.623052 -1.678570
5
Structure 72 | Energy: -10.835208 Hartree
N 1.094634 -1.011262 1.443314
N 1.051285 -0.372941 0.550702
O 1.540940 -0.774410 -2.360519
H 1.097387 -1.210221 -3.090884
H 0.883586 -0.623052 -1.678570
5
Structure 73 | Energy: -10.834255 Hartree
N 3.292542 1.860581 -0.272398
N 3.206441 0.797587 -0.534544
O 1.540940 -0.774410 -2.360519
H 1.097387 -1.210221 -3.090884
H 0.883586 -0.623052 -1.678570
5
Structure 74 | Energy: -10.834255 Hartree
N 3.292542 1.860581 -0.272398
N 3.206441 0.797587 -0.534544
O 1.540940 -1.443142 0.351170
H 1.097387 -2.168563 0.795162
H 0.883586 -0.992070 -0.182213
5
Structure 75 | Energy: -10.835423 Hartree
N 2.861512 1.424770 -0.026857
N 3.637471 1.233398 -0.780086
O 1.540940 -1.443142 0.351170
H 1.097387 -2.168563 0.795162
H 0.883586 -0.992070 -0.182213
5
Structure 76 | Energy: -10.835408 Hartree
N 2.975522 1.548411 0.018854
N 3.523462 1.109757 -0.825796
O 1.540940 -1.443142 0.351170
H 1.097387 -2.168563 0.795162
H 0.883586 -0.992070 -0.182213
5
Structure 77 | Energy: -10.835412 Hartree
N 2.975522 1.548411 0.018854
N 3.523462 1.109757 -0.825796
O 0.933143 -1.080196 -0.342090
H 0.303868 -1.756960 -0.084980
H 0.444769 -0.402755 -0.813941
5
Structure 78 | Energy: -10.833758 Hartree
N 0.596636 -0.860832 0.068219
N 1.144577 -1.299485 -0.776431
O 3.312028 1.329046 -0.391456
H 2.682753 0.652282 -0.134346
H 2.823654 2.006488 -0.863306
5
Structure 79 | Energy: -10.833454 Hartree
N 0.670957 -0.785562 0.066677
N 1.218898 -1.224216 -0.777973
O 3.312028 1.329046 -0.391456
H 2.682753 0.652282 -0.134346
H 2.823654 2.006488 -0.863306
5
Structure 80 | Energy: -10.833228 Hartree
N 0.123757 0.381482 -0.300249
N 0.671697 -0.057172 -1.144899
O 3.312028 1.329046 -0.391456
H 2.682753 0.652282 -0.134346
H 2.823654 2.006488 -0.863306
5
Structure 81 | Energy: -10.832541 Hartree
N 0.186317 1.283082 -0.761115
N 0.734257 0.844429 -1.605765
O 3.312028 1.329046 -0.391456
H 2.682753 0.652282 -0.134346
H 2.823654 2.006488 -0.863306
5
Structure 82 | Energy: -10.832806 Hartree
N 0.186317 1.283082 -0.761115
N 0.734257 0.844429 -1.605765
O 3.345304 1.332212 -0.382150
H 2.716029 0.655448 -0.125040
H 2.856931 2.009653 -0.854001
5
Structure 83 | Energy: -10.832764 Hartree
N 0.186317 1.283082 -0.761115
N 0.734257 0.844429 -1.605765
O -1.326330 1.788057 -3.490137
H -1.345354 0.997565 -2.947124
H -0.703370 2.395297 -3.086084
5
Structure 84 | Energy: -10.835856 Hartree
N -1.566507 1.997130 -3.014820
N -1.018567 1.558477 -3.859470
O 0.426494 1.074009 -1.236432
H 0.407470 0.283517 -0.693419
H 1.049454 1.681249 -0.832379
5
Structure 85 | Energy: -10.835758 Hartree
N -1.566507 1.997130 -3.014820
N -1.018567 1.558477 -3.859470
O 0.378079 1.093732 -1.298682
H 0.359055 0.303240 -0.755669
H 1.001038 1.700972 -0.894630
5
Structure 86 | Energy: -10.835392 Hartree
N -1.566507 1.997130 -3.014820
N -1.018567 1.558477 -3.859470
O -1.114514 0.659095 -0.878095
H -1.824734 0.361739 -0.306022
H -0.305800 0.635089 -0.362843
5
Structure 87 | Energy: -10.835392 Hartree
N -1.566507 1.997130 -3.014820
N -1.018567 1.558477 -3.859470
O 0.314959 -0.485269 -3.081628
H 0.278868 -1.322300 -3.548725
H 1.106909 -0.495856 -2.540535
5
Structure 88 | Energy: -10.835509 Hartree
N -1.566507 1.997130 -3.014820
N -1.018567 1.558477 -3.859470
O 0.701479 -0.833855 -2.366309
H 0.665388 -1.670885 -2.833406
H 1.493429 -0.844441 -1.825216
5
Structure 89 | Energy: -10.835160 Hartree
N -1.657540 2.410245 -2.637600
N -1.109599 1.971592 -3.482249
O 0.701479 -0.833855 -2.366309
H 0.665388 -1.670885 -2.833406
H 1.493429 -0.844441 -1.825216
5
Structure 90 | Energy: -10.835160 Hartree
N -1.972955 2.095427 -3.021643
N -0.897055 2.183733 -3.223460
O 0.701479 -0.833855 -2.366309
H 0.665388 -1.670885 -2.833406
H 1.493429 -0.844441 -1.825216
5
Structure 91 | Energy: -10.835219 Hartree
N -1.922519 2.025498 -3.004041
N -0.846620 2.113804 -3.205859
O 0.701479 -0.833855 -2.366309
H 0.665388 -1.670885 -2.833406
H 1.493429 -0.844441 -1.825216
5
Structure 92 | Energy: -10.834851 Hartree
N -1.922519 2.025498 -3.004041
N -0.846620 2.113804 -3.205859
O 0.783103 -0.927555 -2.381326
H 0.920104 0.015895 -2.487322
H -0.056823 -1.044008 -1.932950
5
Structure 93 | Energy: -10.834873 Hartree
N 0.432028 1.546947 0.796471
N 1.098992 1.722090 -0.058265
O 0.783103 -0.927555 -2.381326
H 0.920104 0.015895 -2.487322
H -0.056823 -1.044008 -1.932950
5
Structure 94 | Energy: -10.834702 Hartree
N 0.446551 2.042868 0.776876
N 1.113515 2.218011 -0.077859
O 0.783103 -0.927555 -2.381326
H 0.920104 0.015895 -2.487322
H -0.056823 -1.044008 -1.932950
5
Structure 95 | Energy: -10.834702 Hartree
N 0.446551 2.042868 0.776876
N 1.113515 2.218011 -0.077859
O -2.929179 3.820307 -0.091960
H -2.401782 3.646526 0.690188
H -2.387291 4.337951 -0.690692
5
Structure 96 | Energy: -10.834587 Hartree
N 0.446551 2.042868 0.776876
N 1.113515 2.218011 -0.077859
O -0.915708 -1.591121 0.060994
H -1.301152 -0.732521 0.246306
H -0.432308 -1.513422 -0.763848
5
Structure 97 | Energy: -10.834780 Hartree
N 0.503540 1.683781 0.024455
N 1.170503 1.858924 -0.830280
O -0.915708 -1.591121 0.060994
H -1.301152 -0.732521 0.246306
H -0.432308 -1.513422 -0.763848
5
Structure 98 | Energy: -10.834806 Hartree
N 0.503540 1.683781 0.024455
N 1.170503 1.858924 -0.830280
O -0.878849 -1.521293 0.051962
H -1.264293 -0.662692 0.237274
H -0.395448 -1.443594 -0.772880
5
Structure 99 | Energy: -10.834821 Hartree
N 0.503540 1.683781 0.024455
N 1.170503 1.858924 -0.830280
O -0.857871 -1.481550 0.046822
H -1.243314 -0.622950 0.232134
H -0.374470 -1.403851 -0.778020
5
Structure 100 | Energy: -10.835301 Hartree
N 0.043814 -2.709559 3.025426
N 0.593387 -3.656257 2.936989
O -0.857871 -1.481550 0.046822
H -1.243314 -0.622950 0.232134
H -0.374470 -1.403851 -0.778020
5
Structure 101 | Energy: -10.835281 Hartree
N 0.052200 -2.722118 3.046695
N 0.601772 -3.668816 2.958259
O -0.857871 -1.481550 0.046822
H -1.243314 -0.622950 0.232134
H -0.374470 -1.403851 -0.778020
5
Structure 102 | Energy: -10.835261 Hartree
N 0.052200 -2.722118 3.046695
N 0.601772 -3.668816 2.958259
O -0.866318 -1.468899 0.025396
H -1.251761 -0.610299 0.210708
H -0.382917 -1.391200 -0.799446
5
Structure 103 | Energy: -10.835261 Hartree
N 0.052200 -2.722118 3.046695
N 0.601772 -3.668816 2.958259
O -0.327035 -1.158546 0.054388
H -0.890335 -0.402300 0.230138
H -0.568886 -1.498224 -0.809444
5
Structure 104 | Energy: -10.835366 Hartree
N 0.026994 -2.647834 2.939010
N 0.576567 -3.594532 2.850574
O -0.327035 -1.158546 0.054388
H -0.890335 -0.402300 0.230138
H -0.568886 -1.498224 -0.809444
5
Structure 105 | Energy: -10.835401 Hartree
N 0.019387 -2.625416 2.906513
N 0.568960 -3.572114 2.818077
O -0.327035 -1.158546 0.054388
H -0.890335 -0.402300 0.230138
H -0.568886 -1.498224 -0.809444
5
Structure 106 | Energy: -10.835215 Hartree
N 0.019387 -2.625416 2.906513
N 0.568960 -3.572114 2.818077
O -0.889410 -1.316716 -0.160617
H -1.452710 -0.560470 0.015133
H -1.131261 -1.656394 -1.024449
5
Structure 107 | Energy: -10.835190 Hartree
N 0.019387 -2.625416 2.906513
N 0.568960 -3.572114 2.818077
O -0.901028 -1.299645 -0.189565
H -1.464328 -0.543399 -0.013815
H -1.142878 -1.639323 -1.053396
5
Structure 108 | Energy: -10.835190 Hartree
N 2.038834 -0.825305 1.633276
N 2.806048 -1.578000 1.407619
O -0.901028 -1.299645 -0.189565
H -1.464328 -0.543399 -0.013815
H -1.142878 -1.639323 -1.053396
5
Structure 109 | Energy: -10.835161 Hartree
N 2.076595 -0.824468 1.652877
N 2.843809 -1.577163 1.427220
O -0.901028 -1.299645 -0.189565
H -1.464328 -0.543399 -0.013815
H -1.142878 -1.639323 -1.053396
5
Structure 110 | Energy: -10.835048 Hartree
N 2.076595 -0.824468 1.652877
N 2.843809 -1.577163 1.427220
O -0.901029 -1.299644 -0.189563
H -0.766049 -0.926948 -1.063050
H -1.841133 -1.255788 -0.004198
5
Structure 111 | Energy: -10.835113 Hartree
N 2.076595 -0.824468 1.652877
N 2.843809 -1.577163 1.427220
O -0.798694 -1.297375 -0.136443
H -0.663714 -0.924679 -1.009930
H -1.738798 -1.253519 0.048921
5
Structure 112 | Energy: -10.835095 Hartree
N 2.105290 -0.823832 1.667772
N 2.872505 -1.576527 1.442115
O -0.798694 -1.297375 -0.136443
H -0.663714 -0.924679 -1.009930
H -1.738798 -1.253519 0.048921
5
Structure 113 | Energy: -10.834795 Hartree
N 2.105290 -0.823832 1.667772
N 2.872505 -1.576527 1.442115
O -0.998792 -1.600853 -1.565710
H -0.863812 -1.228156 -2.439198
H -1.938896 -1.556997 -1.380346
5
Structure 114 | Energy: -10.834388 Hartree
N -1.427449 -1.201198 -1.491385
N -0.660234 -1.953893 -1.717042
O 2.533947 -1.223487 1.593446
H 2.668927 -0.850791 0.719959
H 1.593843 -1.179631 1.778811
5
Structure 115 | Energy: -10.834850 Hartree
N -1.144203 -1.677095 -2.134816
N -0.943480 -1.477996 -1.073610
O 2.533947 -1.223487 1.593446
H 2.668927 -0.850791 0.719959
H 1.593843 -1.179631 1.778811
5
Structure 116 | Energy: -10.834838 Hartree
N -1.144203 -1.677095 -2.134816
N -0.943480 -1.477996 -1.073610
O 2.557986 -1.220919 1.614944
H 2.692967 -0.848223 0.741456
H 1.617883 -1.177063 1.800308
5
Structure 117 | Energy: -10.835257 Hartree
N -1.144203 -1.677095 -2.134816
N -0.943480 -1.477996 -1.073610
O 1.945865 -1.406663 1.168086
H 2.080846 -1.033967 0.294599
H 1.005762 -1.362807 1.353450
5
Structure 118 | Energy: -10.834931 Hartree
N -1.144203 -1.677095 -2.134816
N -0.943480 -1.477996 -1.073610
O 2.104713 -1.002592 1.844486
H 2.239693 -0.629895 0.970999
H 1.164609 -0.958736 2.029851
5
Structure 119 | Energy: -10.834984 Hartree
N -1.066041 -1.662027 -2.048929
N -0.865317 -1.462928 -0.987723
O 2.104713 -1.002592 1.844486
H 2.239693 -0.629895 0.970999
H 1.164609 -0.958736 2.029851
5
Structure 120 | Energy: -10.834812 Hartree
N -1.066041 -1.662027 -2.048929
N -0.865317 -1.462928 -0.987723
O 2.218767 -0.438704 2.055698
H 2.353748 -0.066008 1.182211
H 1.278664 -0.394849 2.241063
5
Structure 121 | Energy: -10.834812 Hartree
N -1.066041 -1.662027 -2.048929
N -0.865317 -1.462928 -0.987723
O -2.600469 -0.273500 2.936245
H -3.010269 0.117872 2.162298
H -1.654794 -0.294289 2.777050
5
Structure 122 | Energy: -10.834513 Hartree
N -1.379324 -1.216323 -1.621264
N -0.552033 -1.908633 -1.415389
O -2.600469 -0.273500 2.936245
H -3.010269 0.117872 2.162298
H -1.654794 -0.294289 2.777050
5
Structure 123 | Energy: -10.834467 Hartree
N -1.028464 -0.231625 -1.604987
N -0.201173 -0.923936 -1.399113
O -2.600469 -0.273500 2.936245
H -3.010269 0.117872 2.162298
H -1.654794 -0.294289 2.777050
5
Structure 124 | Energy: -10.834463 Hartree
N -1.010024 -0.234690 -1.646342
N -0.182733 -0.927000 -1.440468
O -2.600469 -0.273500 2.936245
H -3.010269 0.117872 2.162298
H -1.654794 -0.294289 2.777050
5
Structure 125 | Energy: -10.834372 Hartree
N -3.214521 1.104966 -1.665852
N -2.495670 1.932347 -1.596698
O -2.600469 -0.273500 2.936245
H -3.010269 0.117872 2.162298
H -1.654794 -0.294289 2.777050
5
Structure 126 | Energy: -10.834788 Hartree
N -3.214521 1.104966 -1.665852
N -2.495670 1.932347 -1.596698
O -2.528712 -0.229895 2.841758
H -3.361040 -0.662933 2.642233
H -2.442958 -0.205577 3.796815
5
Structure 127 | Energy: -10.834782 Hartree
N -3.214521 1.104966 -1.665852
N -2.495670 1.932347 -1.596698
O -2.528714 -0.229896 2.841756
H -2.391219 -0.318270 3.786948
H -3.412746 -0.550228 2.652140
5
Structure 128 | Energy: -10.834793 Hartree
N -3.214521 1.104966 -1.665852
N -2.495670 1.932347 -1.596698
O -2.528712 -0.229895 2.841758
H -3.242250 -0.844988 2.661128
H -2.561744 -0.023528 3.777921
5
Structure 129 | Energy: -10.834755 Hartree
N -3.214521 1.104966 -1.665852
N -2.495670 1.932347 -1.596698
O -2.599257 -0.200069 2.862806
H -2.682418 -1.081680 2.494094
H -2.001891 -0.260229 3.610879
5
Structure 130 | Energy: -10.834583 Hartree
N -3.323237 -0.384733 -2.487917
N -2.604386 0.442649 -2.418763
O -2.599257 -0.200069 2.862806
H -2.682418 -1.081680 2.494094
H -2.001891 -0.260229 3.610879
5
Structure 131 | Energy: -10.834454 Hartree
N -2.929910 -0.666455 2.849456
N -2.211060 0.160926 2.918610
O -2.992583 0.081653 -2.474566
H -3.075744 -0.799958 -2.843279
H -2.395217 0.021493 -1.726494
5
Structure 132 | Energy: -10.834436 Hartree
N -2.929910 -0.666455 2.849456
N -2.211060 0.160926 2.918610
O -2.992584 0.081651 -2.474569
H -2.532380 -0.018084 -1.638885
H -2.938562 -0.760353 -2.930846
5
Structure 133 | Energy: -10.834437 Hartree
N -2.929910 -0.666455 2.849456
N -2.211060 0.160926 2.918610
O -2.980283 0.072841 -2.307650
H -2.520079 -0.026895 -1.471966
H -2.926262 -0.769164 -2.763927
5
Structure 134 | Energy: -10.834430 Hartree
N -2.929910 -0.666455 2.849456
N -2.211060 0.160926 2.918610
O -2.735918 -0.959367 -2.283255
H -2.317063 -0.785264 -1.438062
H -2.437146 -1.822613 -2.575865
5
Structure 135 | Energy: -10.834439 Hartree
N -2.929910 -0.666455 2.849456
N -2.211060 0.160926 2.918610
O -2.319410 -1.081100 -2.757295
H -1.900555 -0.906996 -1.912102
H -2.020638 -1.944345 -3.049905
5
Structure 136 | Energy: -10.834439 Hartree
N -2.929910 -0.666455 2.849456
N -2.211060 0.160926 2.918610
O -2.328971 -1.052640 -2.573106
H -1.910116 -0.878536 -1.727913
H -2.030199 -1.915885 -2.865716
5
Structure 137 | Energy: -10.834470 Hartree
N -2.483555 0.287537 2.929192
N -2.657415 -0.793066 2.838874
O -2.328971 -1.052640 -2.573106
H -1.910116 -0.878536 -1.727913
H -2.030199 -1.915885 -2.865716
5
Structure 138 | Energy: -10.834473 Hartree
N -2.483555 0.287537 2.929192
N -2.657415 -0.793066 2.838874
O -2.335907 -1.031994 -2.439489
H -1.917052 -0.857890 -1.594296
H -2.037135 -1.895239 -2.732099
5
Structure 139 | Energy: -10.834485 Hartree
N -2.468326 1.169346 3.503434
N -2.642186 0.088743 3.413116
O -2.335907 -1.031994 -2.439489
H -1.917052 -0.857890 -1.594296
H -2.037135 -1.895239 -2.732099
5
Structure 140 | Energy: -10.834465 Hartree
N -2.468326 1.169346 3.503434
N -2.642186 0.088743 3.413116
O -2.314872 -1.114424 -2.366558
H -2.083984 -0.203735 -2.173065
H -2.204073 -1.241059 -3.310891
5
Structure 141 | Energy: -10.834467 Hartree
N -2.468326 1.169346 3.503434
N -2.642186 0.088743 3.413116
O -2.320733 -1.076039 -2.234056
H -2.089845 -0.165350 -2.040564
H -2.209934 -1.202674 -3.178389
5
Structure 142 | Energy: -10.834467 Hartree
N -2.468326 1.169346 3.503434
N -2.642186 0.088743 3.413116
O -1.653060 3.073795 -1.887207
H -1.722501 2.117826 -1.849733
H -1.483773 3.310684 -2.801156
5
Structure 143 | Energy: -10.834498 Hartree
N -1.560543 3.573862 -1.891090
N -1.734403 2.493258 -1.981408
O -2.560842 0.669279 3.507317
H -2.630284 -0.286689 3.544791
H -2.391556 0.906169 2.593367
5
Structure 144 | Energy: -10.834675 Hartree
N -1.615840 2.604070 -1.595572
N -1.679106 3.463049 -2.276925
O -2.560842 0.669279 3.507317
H -2.630284 -0.286689 3.544791
H -2.391556 0.906169 2.593367
5
Structure 145 | Energy: -10.834504 Hartree
N -1.615840 2.604070 -1.595572
N -1.679106 3.463049 -2.276925
O -2.496158 0.635437 3.481117
H -3.143610 -0.018125 3.752712
H -2.904902 1.174743 2.801296
5
Structure 146 | Energy: -10.834612 Hartree
N -1.615840 2.604070 -1.595572
N -1.679106 3.463049 -2.276925
O -2.526484 0.671698 3.495798
H -3.417111 0.331107 3.600125
H -2.150063 0.249979 2.720855
5
Structure 147 | Energy: -10.834613 Hartree
N -1.615840 2.604070 -1.595572
N -1.679106 3.463049 -2.276925
O 0.486479 -0.097285 2.700803
H -0.212108 -0.534628 3.191526
H 0.407233 -0.374286 1.785888
5
Structure 148 | Energy: -10.834766 Hartree
N -1.501173 2.258183 -0.652789
N -1.564438 3.117162 -1.334142
O 0.486479 -0.097285 2.700803
H -0.212108 -0.534628 3.191526
H 0.407233 -0.374286 1.785888
5
Structure 149 | Energy: -10.834563 Hartree
N -1.630281 3.355623 -0.479459
N -1.693547 4.214602 -1.160812
O 0.486479 -0.097285 2.700803
H -0.212108 -0.534628 3.191526
H 0.407233 -0.374286 1.785888
5
Structure 150 | Energy: -10.834593 Hartree
N -2.232348 3.086220 -0.156900
N -2.295613 3.945199 -0.838252
O 0.486479 -0.097285 2.700803
H -0.212108 -0.534628 3.191526
H 0.407233 -0.374286 1.785888
5
Structure 151 | Energy: -10.834499 Hartree
N -1.533642 3.831842 0.392868
N -1.596907 4.690821 -0.288485
O 0.486479 -0.097285 2.700803
H -0.212108 -0.534628 3.191526
H 0.407233 -0.374286 1.785888
5
Structure 152 | Energy: -10.834443 Hartree
N 0.474589 -0.566744 3.017744
N 0.411324 0.292234 2.336391
O -1.521752 4.301301 0.075926
H -2.220339 3.863958 0.566649
H -1.600999 4.024300 -0.838988
5
Structure 153 | Energy: -10.834443 Hartree
N 0.474589 -0.566744 3.017744
N 0.411324 0.292234 2.336391
O -1.469776 4.187460 0.143862
H -2.168364 3.750117 0.634585
H -1.549023 3.910459 -0.771053
5
Structure 154 | Energy: -10.834584 Hartree
N 0.474589 -0.566744 3.017744
N 0.411324 0.292234 2.336391
O -1.469778 4.187461 0.143863
H -1.327304 3.270932 -0.100632
H -2.390053 4.389627 -0.035861
5
Structure 155 | Energy: -10.834373 Hartree
N 0.373318 -0.671592 2.571444
N 0.512595 0.397082 2.782692
O -1.469778 4.187461 0.143863
H -1.327304 3.270932 -0.100632
H -2.390053 4.389627 -0.035861
5
Structure 156 | Energy: -10.834677 Hartree
N 1.496435 0.359864 3.183984
N 0.481101 0.368158 2.765515
O -1.469778 4.187461 0.143863
H -1.327304 3.270932 -0.100632
H -2.390053 4.389627 -0.035861
5
Structure 157 | Energy: -10.834677 Hartree
N 1.496435 0.359864 3.183984
N 0.481101 0.368158 2.765515
O -1.469778 -3.344260 -0.005422
H -1.327304 -2.418762 -0.213407
H -2.390053 -3.539145 -0.193016
5
Structure 158 | Energy: -10.834373 Hartree
N -1.005632 -3.307527 0.181679
N -2.020966 -3.299232 -0.236790
O 1.032288 0.323131 2.996884
H 1.174762 1.248628 2.788898
H 0.112013 0.128246 2.809289
5
Structure 159 | Energy: -10.834373 Hartree
N -1.005632 -3.307527 0.181679
N -2.020966 -3.299232 -0.236790
O 1.032290 0.323133 2.996883
H 0.101064 0.141615 2.855568
H 1.185674 1.235220 2.742622
5
Structure 160 | Energy: -10.834373 Hartree
N 4.326650 2.068845 -0.373554
N 4.261671 3.035352 -0.890981
O 1.032290 0.323133 2.996883
H 0.101064 0.141615 2.855568
H 1.185674 1.235220 2.742622
5
Structure 161 | Energy: -10.834371 Hartree
N 4.294976 2.047877 -0.338989
N 4.229997 3.014384 -0.856416
O 1.032290 0.323133 2.996883
H 0.101064 0.141615 2.855568
H 1.185674 1.235220 2.742622
5
Structure 162 | Energy: -10.834373 Hartree
N 4.294976 2.047877 -0.338989
N 4.229997 3.014384 -0.856416
O 1.001398 0.302683 3.030595
H 0.070171 0.121165 2.889279
H 1.154782 1.214770 2.776334
5
Structure 163 | Energy: -10.834377 Hartree
N 4.326364 3.012782 -0.853542
N 4.198609 2.049479 -0.341864
O 1.001398 0.302683 3.030595
H 0.070171 0.121165 2.889279
H 1.154782 1.214770 2.776334
5
Structure 164 | Energy: -10.834416 Hartree
N 4.920819 1.587227 -0.634609
N 4.793064 0.623924 -0.122932
O 1.001398 0.302683 3.030595
H 0.070171 0.121165 2.889279
H 1.154782 1.214770 2.776334
5
Structure 165 | Energy: -10.834638 Hartree
N 1.021752 0.825212 2.752623
N 0.893997 -0.138091 3.264300
O 4.900464 1.064698 -0.356637
H 3.969237 0.883180 -0.497952
H 5.053848 1.976785 -0.610898
5
Structure 166 | Energy: -10.834393 Hartree
N 1.021752 0.825212 2.752623
N 0.893997 -0.138091 3.264300
O 4.881208 1.151683 -0.415381
H 4.422821 0.365762 -0.719210
H 4.905895 1.113563 0.542750
5
Structure 167 | Energy: -10.834391 Hartree
N 1.120478 0.844507 2.666856
N 0.992724 -0.118797 3.178534
O 4.881208 1.151683 -0.415381
H 4.422821 0.365762 -0.719210
H 4.905895 1.113563 0.542750
5
Structure 168 | Energy: -10.834392 Hartree
N 1.101308 0.840760 2.683510
N 0.973553 -0.122543 3.195188
O 4.881208 1.151683 -0.415381
H 4.422821 0.365762 -0.719210
H 4.905895 1.113563 0.542750
5
Structure 169 | Energy: -10.834685 Hartree
N 4.920819 1.587227 -0.634609
N 4.793064 0.623924 -0.122932
O 1.061698 0.405216 2.902738
H 0.603310 -0.380704 2.598910
H 1.086385 0.367096 3.860870
5
Structure 170 | Energy: -10.834685 Hartree
N 4.920819 1.587227 -0.634609
N 4.793064 0.623924 -0.122932
O 0.623360 -1.607218 -0.995388
H 0.298787 -1.778788 -0.109206
H 0.482565 -2.405076 -1.508884
5
Structure 171 | Energy: -10.834392 Hartree
N 0.661198 -1.179809 -1.230374
N 0.533444 -2.143113 -0.718696
O 4.882980 1.159818 -0.399624
H 4.558408 0.988248 0.486559
H 4.742185 0.361960 -0.913119
5
Structure 172 | Energy: -10.834465 Hartree
N 0.661198 -1.179809 -1.230374
N 0.533444 -2.143113 -0.718696
O 4.111318 1.278926 -0.906464
H 3.786745 1.107357 -0.020282
H 3.970523 0.481068 -1.419959
5
Structure 173 | Energy: -10.834610 Hartree
N 1.238700 -1.063675 -0.870870
N 1.110945 -2.026978 -0.359192
O 4.111318 1.278926 -0.906464
H 3.786745 1.107357 -0.020282
H 3.970523 0.481068 -1.419959
5
Structure 174 | Energy: -10.834449 Hartree
N 1.238700 -1.063675 -0.870870
N 1.110945 -2.026978 -0.359192
O 3.726871 0.819015 -0.740034
H 3.402299 0.647446 0.146148
H 3.586077 0.021158 -1.253530
5
Structure 175 | Energy: -10.834471 Hartree
N 1.216259 -1.084198 -0.869945
N 1.088505 -2.047501 -0.358267
O 3.726871 0.819015 -0.740034
H 3.402299 0.647446 0.146148
H 3.586077 0.021158 -1.253530
5
Structure 176 | Energy: -10.834471 Hartree
N 1.216259 -1.084198 -0.869945
N 1.088505 -2.047501 -0.358267
O 3.726871 -0.126247 -2.519620
H 3.402299 -0.956568 -2.873628
H 3.586077 -0.147494 -1.571040
5
Structure 177 | Energy: -10.834403 Hartree
N 1.275364 -1.051915 -0.913367
N 1.147610 -2.015218 -0.401689
O 3.726871 -0.126247 -2.519620
H 3.402299 -0.956568 -2.873628
H 3.586077 -0.147494 -1.571040
5
Structure 178 | Energy: -10.834426 Hartree
N 1.275364 -1.051915 -0.913367
N 1.147610 -2.015218 -0.401689
O 3.743902 -0.116945 -2.532131
H 3.419329 -0.947266 -2.886139
H 3.603107 -0.138192 -1.583551
5
Structure 179 | Energy: -10.835130 Hartree
N 3.781740 0.317059 -2.754702
N 3.653985 -0.646245 -2.243024
O 1.237526 -1.485918 -0.690796
H 0.912953 -2.316239 -1.044804
H 1.096731 -1.507166 0.257783
5
Structure 180 | Energy: -10.835588 Hartree
N 3.781740 0.317059 -2.754702
N 3.653985 -0.646245 -2.243024
O 1.187281 -1.482062 -0.686102
H 1.311691 -2.346843 -1.082054
H 1.495484 -1.537771 0.220532
5
Structure 181 | Energy: -10.835424 Hartree
N 3.781740 0.317059 -2.754702
N 3.653985 -0.646245 -2.243024
O 1.180698 0.361820 -0.328297
H 0.577647 0.588426 -1.038988
H 0.917363 -0.498511 0.004214
5
Structure 182 | Energy: -10.835458 Hartree
N 3.746110 0.323824 -2.725083
N 3.618356 -0.639480 -2.213405
O 1.180698 0.361820 -0.328297
H 0.577647 0.588426 -1.038988
H 0.917363 -0.498511 0.004214
5
Structure 183 | Energy: -10.835323 Hartree
N 3.746110 0.323824 -2.725083
N 3.618356 -0.639480 -2.213405
O 1.213989 -0.071917 -1.382543
H 0.610938 0.154689 -2.093233
H 0.950654 -0.932248 -1.050032
5
Structure 184 | Energy: -10.835618 Hartree
N 3.746110 0.323824 -2.725083
N 3.618356 -0.639480 -2.213405
O 1.713802 0.771788 -4.063492
H 2.115758 1.423585 -4.641154
H 1.361382 0.076121 -4.621995
5
Structure 185 | Energy: -10.835679 Hartree
N 3.746110 0.323824 -2.725083
N 3.618356 -0.639480 -2.213405
O 1.696637 0.779885 -4.077969
H 2.098593 1.431682 -4.655632
H 1.344217 0.084218 -4.636472
5
Structure 186 | Energy: -10.835679 Hartree
N 3.746110 0.323824 -2.725083
N 3.618356 -0.639480 -2.213405
O 1.485487 1.266090 -3.215340
H 1.777750 2.170473 -3.344864
H 0.825912 1.277699 -2.518990
5
Structure 187 | Energy: -10.835319 Hartree
N 3.746110 0.323824 -2.725083
N 3.618356 -0.639480 -2.213405
O 1.562756 1.214683 -3.190445
H 1.855019 2.119065 -3.319969
H 0.903181 1.226292 -2.494095
5
Structure 188 | Energy: -10.834764 Hartree
N 3.746110 0.323824 -2.725083
N 3.618356 -0.639480 -2.213405
O 1.622023 1.175252 -3.171350
H 1.914286 2.079635 -3.300874
H 0.962447 1.186861 -2.475000
5
Structure 189 | Energy: -10.834764 Hartree
N 3.746110 0.323824 -2.725083
N 3.618356 -0.639480 -2.213405
O 1.818734 0.722294 -3.974993
H 2.220690 1.374091 -4.552656
H 1.466314 0.026627 -4.533496
5
Structure 190 | Energy: -10.835007 Hartree
N 3.746110 0.323824 -2.725083
N 3.618356 -0.639480 -2.213405
O 1.799075 0.731566 -3.991573
H 2.201031 1.383363 -4.569236
H 1.446656 0.035899 -4.550076
5
Structure 191 | Energy: -10.835684 Hartree
N 3.746110 0.323824 -2.725083
N 3.618356 -0.639480 -2.213405
O 1.952494 0.586044 -4.517223
H 2.354450 1.237842 -5.094885
H 1.600074 -0.109622 -5.075726
5
Structure 192 | Energy: -10.835565 Hartree
N 3.706066 0.341016 -2.774046
N 3.578311 -0.622288 -2.262368
O 1.952494 0.586044 -4.517223
H 2.354450 1.237842 -5.094885
H 1.600074 -0.109622 -5.075726
5
Structure 193 | Energy: -10.835016 Hartree
N 3.085140 -0.942581 -2.912661
N 2.347274 -1.635521 -2.486660
O 1.952494 0.586044 -4.517223
H 2.354450 1.237842 -5.094885
H 1.600074 -0.109622 -5.075726
5
Structure 194 | Energy: -10.833744 Hartree
N 3.085140 -0.942581 -2.912661
N 2.347274 -1.635521 -2.486660
O 1.966446 0.610212 -4.524037
H 2.220120 0.964416 -5.378608
H 1.512960 -0.219783 -4.683838
5
Structure 195 | Energy: -10.833790 Hartree
N 3.085140 -0.942581 -2.912661
N 2.347274 -1.635521 -2.486660
O 2.060463 0.502274 -4.664056
H 2.434497 0.933640 -5.434850
H 1.831281 -0.392559 -4.922566
5
Structure 196 | Energy: -10.835229 Hartree
N 3.524306 -0.752812 -2.300904
N 2.786439 -1.445751 -1.874903
O 2.060463 0.502274 -4.664056
H 2.434497 0.933640 -5.434850
H 1.831281 -0.392559 -4.922566
5
Structure 197 | Energy: -10.835229 Hartree
N -0.777507 0.714750 -3.567088
N -0.890141 -0.191487 -2.957058
O 2.060463 0.502274 -4.664056
H 2.434497 0.933640 -5.434850
H 1.831281 -0.392559 -4.922566
5
Structure 198 | Energy: -10.835110 Hartree
N -0.696899 0.588190 -4.231189
N -0.809534 -0.318047 -3.621159
O 2.060463 0.502274 -4.664056
H 2.434497 0.933640 -5.434850
H 1.831281 -0.392559 -4.922566
5
Structure 199 | Energy: -10.835036 Hartree
N -0.731343 1.108107 -4.781005
N -0.843977 0.201869 -4.170975
O 2.060463 0.502274 -4.664056
H 2.434497 0.933640 -5.434850
H 1.831281 -0.392559 -4.922566
5
Structure 200 | Energy: -10.834357 Hartree
N 2.124885 0.929460 -5.026664
N 2.012251 0.023223 -4.416634
O -0.795765 0.680921 -4.418397
H -0.421731 1.112286 -5.189192
H -1.024948 -0.213912 -4.676908
5
Structure 201 | Energy: -10.834438 Hartree
N 2.144418 0.928238 -5.028344
N 2.031784 0.022001 -4.418314
O -0.795765 0.680921 -4.418397
H -0.421731 1.112286 -5.189192
H -1.024948 -0.213912 -4.676908
5
Structure 202 | Energy: -10.835268 Hartree
N 2.376922 0.827279 -4.416591
N 1.799279 0.122960 -5.030066
O -0.795765 0.680921 -4.418397
H -0.421731 1.112286 -5.189192
H -1.024948 -0.213912 -4.676908
5
Structure 203 | Energy: -10.835982 Hartree
N 0.281710 1.084573 -1.523077
N 0.913560 1.061568 -2.421033
O -0.795765 0.680921 -4.418397
H -0.421731 1.112286 -5.189192
H -1.024948 -0.213912 -4.676908
5
Structure 204 | Energy: -10.835718 Hartree
N 0.281710 1.084573 -1.523077
N 0.913560 1.061568 -2.421033
O -1.446064 0.210935 -4.458619
H -1.072030 0.642301 -5.229413
H -1.675247 -0.683898 -4.717129
5
Structure 205 | Energy: -10.835718 Hartree
N 0.281710 1.084573 -1.523077
N 0.913560 1.061568 -2.421033
O -2.453332 0.247608 -3.027134
H -3.041724 0.714014 -2.430173
H -2.795576 -0.643109 -3.124967
5
Structure 206 | Energy: -10.835330 Hartree
N 0.281710 1.084573 -1.523077
N 0.913560 1.061568 -2.421033
O -2.308494 -0.083017 -3.824887
H -2.896885 0.383389 -3.227926
H -2.650738 -0.973734 -3.922720
5
Structure 207 | Energy: -10.834922 Hartree
N -0.979800 -0.041275 -0.382193
N -1.464973 0.942119 -0.321930
O -2.308494 -0.083017 -3.824887
H -2.896885 0.383389 -3.227926
H -2.650738 -0.973734 -3.922720
5
Structure 208 | Energy: -10.834955 Hartree
N -1.008204 -0.055180 -0.468165
N -1.493378 0.928214 -0.407902
O -2.308494 -0.083017 -3.824887
H -2.896885 0.383389 -3.227926
H -2.650738 -0.973734 -3.922720
5
Structure 209 | Energy: -10.834943 Hartree
N -1.008204 -0.055180 -0.468165
N -1.493378 0.928214 -0.407902
O -2.273062 -0.158321 -3.823378
H -2.870793 0.314614 -3.241011
H -2.606888 -1.053691 -3.906748
5
Structure 210 | Energy: -10.834495 Hartree
N -1.008204 -0.055180 -0.468165
N -1.493378 0.928214 -0.407902
O 1.281373 -1.894744 0.568346
H 1.410655 -1.400553 -0.243543
H 1.840888 -1.494387 1.236729
5
Structure 211 | Energy: -10.834495 Hartree
N -1.008204 -0.055180 -0.468165
N -1.493378 0.928214 -0.407902
O -0.998891 -3.015541 0.499663
H -1.429340 -2.796469 -0.329085
H -1.689164 -3.229481 1.130401
5
Structure 212 | Energy: -10.834133 Hartree
N -1.058131 0.035738 1.098247
N -1.597259 0.869140 1.568215
O -0.998891 -3.015541 0.499663
H -1.429340 -2.796469 -0.329085
H -1.689164 -3.229481 1.130401
5
Structure 213 | Energy: -10.834266 Hartree
N -1.058131 0.035738 1.098247
N -1.597259 0.869140 1.568215
O -0.418864 -2.963738 0.216845
H -0.849313 -2.744666 -0.611903
H -1.109137 -3.177678 0.847584
5
Structure 214 | Energy: -10.834987 Hartree
N -1.058131 0.035738 1.098247
N -1.597259 0.869140 1.568215
O -0.310877 -0.608612 4.736584
H -1.239701 -0.550902 4.969087
H 0.037507 0.285090 4.734640
5
Structure 215 | Energy: -10.835276 Hartree
N -1.058131 0.035738 1.098247
N -1.597259 0.869140 1.568215
O -0.403358 0.841787 4.902064
H -1.181375 0.317079 5.100744
H -0.702577 1.733510 4.713979
5
Structure 216 | Energy: -10.834797 Hartree
N -0.982882 0.824679 1.543143
N -1.672509 0.080199 1.123319
O -0.403358 0.841787 4.902064
H -1.181375 0.317079 5.100744
H -0.702577 1.733510 4.713979
5
Structure 217 | Energy: -10.834860 Hartree
N -3.134226 2.955080 4.688976
N -3.698905 2.996851 3.747975
O -0.403358 0.841787 4.902064
H -1.181375 0.317079 5.100744
H -0.702577 1.733510 4.713979
5
Structure 218 | Energy: -10.834880 Hartree
N -3.061084 2.902727 4.705922
N -3.625763 2.944498 3.764922
O -0.403358 0.841787 4.902064
H -1.181375 0.317079 5.100744
H -0.702577 1.733510 4.713979
5
Structure 219 | Energy: -10.834881 Hartree
N -3.061084 2.902727 4.705922
N -3.625763 2.944498 3.764922
O -0.400252 0.863313 4.896571
H -0.937726 0.103836 5.129847
H -0.995521 1.605088 4.772063
5
Structure 220 | Energy: -10.834865 Hartree
N -2.761250 3.106573 4.605515
N -3.325928 3.148344 3.664514
O -0.400252 0.863313 4.896571
H -0.937726 0.103836 5.129847
H -0.995521 1.605088 4.772063
5
Structure 221 | Energy: -10.834201 Hartree
N -2.761250 3.106573 4.605515
N -3.325928 3.148344 3.664514
O -0.302388 0.758210 4.009587
H -0.839862 -0.001267 4.242864
H -0.897657 1.499985 3.885079
5
Structure 222 | Energy: -10.834153 Hartree
N -2.721297 3.071210 4.603734
N -3.285976 3.112980 3.662734
O -0.302388 0.758210 4.009587
H -0.839862 -0.001267 4.242864
H -0.897657 1.499985 3.885079
5
Structure 223 | Energy: -10.834569 Hartree
N -2.721297 3.071210 4.603734
N -3.285976 3.112980 3.662734
O 0.546623 3.409260 4.365862
H 0.706120 3.224423 3.438232
H -0.403124 3.474675 4.483249
5
Structure 224 | Energy: -10.835292 Hartree
N -2.637461 3.473218 4.282172
N -3.369812 2.710972 3.984295
O 0.546623 3.409260 4.365862
H 0.706120 3.224423 3.438232
H -0.403124 3.474675 4.483249
5
Structure 225 | Energy: -10.835292 Hartree
N -2.637461 3.473218 4.282172
N -3.369812 2.710972 3.984295
O -4.076863 1.476262 1.133847
H -4.330994 2.287886 0.690241
H -3.848891 1.705530 2.036921
5
Structure 226 | Energy: -10.835245 Hartree
N -2.637461 3.473218 4.282172
N -3.369812 2.710972 3.984295
O -4.045078 1.522329 1.221795
H -4.299209 2.333953 0.778190
H -3.817106 1.751597 2.124870
5
Structure 227 | Energy: -10.835244 Hartree
N -3.145095 4.454795 3.635613
N -3.850988 3.627421 3.483116
O -4.045078 1.522329 1.221795
H -4.299209 2.333953 0.778190
H -3.817106 1.751597 2.124870
5
Structure 228 | Energy: -10.835257 Hartree
N -3.145095 4.454795 3.635613
N -3.850988 3.627421 3.483116
O -4.049662 1.501766 1.202475
H -4.303793 2.313390 0.758869
H -3.821690 1.731033 2.105549
5
Structure 229 | Energy: -10.835003 Hartree
N -3.145095 4.454795 3.635613
N -3.850988 3.627421 3.483116
O -4.031756 2.140436 0.659352
H -4.229813 3.043985 0.405434
H -3.840892 2.144891 1.599368
5
Structure 230 | Energy: -10.835410 Hartree
N -3.145095 4.454795 3.635613
N -3.850988 3.627421 3.483116
O -3.969301 2.192252 0.687595
H -4.577331 2.923955 0.565074
H -4.484675 1.442499 0.991465
5
Structure 231 | Energy: -10.835392 Hartree
N -3.145095 4.454795 3.635613
N -3.850988 3.627421 3.483116
O -3.973066 2.179212 0.667422
H -4.581097 2.910915 0.544901
H -4.488440 1.429458 0.971293
5
Structure 232 | Energy: -10.835118 Hartree
N -3.145095 4.454795 3.635613
N -3.850988 3.627421 3.483116
O -2.345661 2.818203 0.520917
H -2.076258 3.738277 0.489485
H -3.146203 2.738628 -0.001460
5
Structure 233 | Energy: -10.835152 Hartree
N -3.145095 4.454795 3.635613
N -3.850988 3.627421 3.483116
O -2.369512 2.843185 0.586127
H -2.100109 3.763259 0.554695
H -3.170054 2.763609 0.063750
5
Structure 234 | Energy: -10.835272 Hartree
N -3.145095 4.454795 3.635613
N -3.850988 3.627421 3.483116
O -2.587450 4.018138 0.285371
H -2.271286 4.873609 0.582543
H -3.416586 4.165590 -0.173834
5
Structure 235 | Energy: -10.835673 Hartree
N -0.325569 2.424613 2.210589
N -1.120608 1.669608 2.273587
O -2.587450 4.018138 0.285371
H -2.271286 4.873609 0.582543
H -3.416586 4.165590 -0.173834
5
Structure 236 | Energy: -10.835760 Hartree
N -0.382122 2.485172 2.151864
N -1.177160 1.730166 2.214862
O -2.587450 4.018138 0.285371
H -2.271286 4.873609 0.582543
H -3.416586 4.165590 -0.173834
5
Structure 237 | Energy: -10.835742 Hartree
N -1.026185 1.640760 2.334143
N -0.533097 2.574577 2.032582
O -2.587450 4.018138 0.285371
H -2.271286 4.873609 0.582543
H -3.416586 4.165590 -0.173834
5
Structure 238 | Energy: -10.835682 Hartree
N -1.121501 2.410755 2.487983
N -0.437782 1.804583 1.878743
O -2.587450 4.018138 0.285371
H -2.271286 4.873609 0.582543
H -3.416586 4.165590 -0.173834
5
Structure 239 | Energy: -10.835682 Hartree
N -3.240887 1.100517 1.088296
N -2.454459 0.557842 0.546888
O -2.587450 4.018138 0.285371
H -2.271286 4.873609 0.582543
H -3.416586 4.165590 -0.173834
5
Structure 240 | Energy: -10.835767 Hartree
N -3.240887 1.100517 1.088296
N -2.454459 0.557842 0.546888
O -2.594758 3.915713 0.302456
H -2.278594 4.771184 0.599627
H -3.423894 4.063165 -0.156749
5
Structure 241 | Energy: -10.835797 Hartree
N -3.240887 1.100517 1.088296
N -2.454459 0.557842 0.546888
O -2.597753 3.873730 0.309459
H -2.281589 4.729201 0.606630
H -3.426889 4.021182 -0.149746
5
Structure 242 | Energy: -10.835526 Hartree
N -3.240887 1.100517 1.088296
N -2.454459 0.557842 0.546888
O -4.636188 -1.157060 2.381565
H -5.509009 -1.395237 2.700246
H -4.177234 -1.973260 2.173583
5
Structure 243 | Energy: -10.835449 Hartree
N -3.240887 1.100517 1.088296
N -2.454459 0.557842 0.546888
O -4.636190 -1.157059 2.381564
H -4.771639 -1.631765 3.204005
H -4.914579 -1.736740 1.669842
5
Structure 244 | Energy: -10.835758 Hartree
N -3.240887 1.100517 1.088296
N -2.454459 0.557842 0.546888
O -4.401845 -1.503286 2.006380
H -4.537295 -1.977991 2.828822
H -4.680234 -2.082967 1.294658
5
Structure 245 | Energy: -10.835911 Hartree
N -3.240887 1.100517 1.088296
N -2.454459 0.557842 0.546888
O -4.396163 -1.527297 1.967859
H -4.527101 -1.281839 2.885850
H -4.780619 -2.398016 1.849035
5
Structure 246 | Energy: -10.835911 Hartree
N -3.240887 1.100517 1.088296
N -2.454459 0.557842 0.546888
O -4.396163 1.973935 -1.541567
H -4.527101 2.892497 -1.298256
H -4.780619 1.853075 -2.412006
5
Structure 247 | Energy: -10.835870 Hartree
N -3.240887 1.100517 1.088296
N -2.454459 0.557842 0.546888
O -2.355936 3.021235 -1.238377
H -3.200292 3.473573 -1.288926
H -1.752257 3.480098 -1.825824
5
Structure 248 | Energy: -10.835864 Hartree
N -3.240887 1.100517 1.088296
N -2.454459 0.557842 0.546888
O -1.629918 3.279235 -0.519653
H -2.361965 3.897633 -0.561992
H -0.861696 3.723082 -0.884224
5
Structure 249 | Energy: -10.835767 Hartree
N -2.929029 0.719650 1.186383
N -2.142601 0.176975 0.644975
O -1.629918 3.279235 -0.519653
H -2.361965 3.897633 -0.561992
H -0.861696 3.723082 -0.884224
5
Structure 250 | Energy: -10.835506 Hartree
N -2.929029 0.719650 1.186383
N -2.142601 0.176975 0.644975
O -1.806588 3.736170 -0.324397
H -2.538635 4.354569 -0.366736
H -1.038366 4.180017 -0.688969
5
Structure 251 | Energy: -10.835475 Hartree
N -2.929029 0.719650 1.186383
N -2.142601 0.176975 0.644975
O -1.450617 3.865258 0.753216
H -2.135780 4.534582 0.701643
H -0.606655 4.318052 0.700448
5
Structure 252 | Energy: -10.835723 Hartree
N -2.929029 0.719650 1.186383
N -2.142601 0.176975 0.644975
O -0.745150 3.219854 0.798068
H -1.430313 3.889178 0.746495
H 0.098812 3.672649 0.745300
5
Structure 253 | Energy: -10.834091 Hartree
N -1.129478 3.553978 1.062934
N -0.343050 3.011303 0.521526
O -2.544701 0.385526 0.921517
H -3.229864 1.054850 0.869944
H -1.700739 0.838320 0.868749
5
Structure 254 | Energy: -10.835375 Hartree
N -1.129478 3.553978 1.062934
N -0.343050 3.011303 0.521526
O -2.550197 0.500884 0.882746
H -2.145358 0.466661 1.751675
H -2.698010 -0.404451 0.602392
5
Structure 255 | Energy: -10.835406 Hartree
N -3.044639 0.976057 -2.417070
N -1.947065 0.994145 -2.384008
O -2.550197 0.500884 0.882746
H -2.145358 0.466661 1.751675
H -2.698010 -0.404451 0.602392
5
Structure 256 | Energy: -10.834970 Hartree
N -3.044639 0.976057 -2.417070
N -1.947065 0.994145 -2.384008
O -3.949421 -0.207180 0.334965
H -4.137208 -0.208334 1.275623
H -3.347490 -0.934317 0.164586
5
Structure 257 | Energy: -10.835008 Hartree
N -3.044639 0.976057 -2.417070
N -1.947065 0.994145 -2.384008
O -3.749262 0.019185 0.812215
H -3.937049 0.018031 1.752873
H -3.147331 -0.707952 0.641836
5
Structure 258 | Energy: -10.835022 Hartree
N -3.044639 0.976057 -2.417070
N -1.947065 0.994145 -2.384008
O -3.738878 0.027682 0.784733
H -3.926665 0.026528 1.725391
H -3.136947 -0.699455 0.614354
5
Structure 259 | Energy: -10.835259 Hartree
N -2.862590 0.788943 -2.759074
N -2.129114 1.181259 -2.042003
O -3.738878 0.027682 0.784733
H -3.926665 0.026528 1.725391
H -3.136947 -0.699455 0.614354
5
Structure 260 | Energy: -10.835259 Hartree
N -2.862590 0.788943 -2.759074
N -2.129114 1.181259 -2.042003
O -2.809857 -1.103808 0.453507
H -2.597906 -1.591819 1.251646
H -3.394129 -0.386223 0.706047
5
Structure 261 | Energy: -10.835455 Hartree
N -2.862590 0.788943 -2.759074
N -2.129114 1.181259 -2.042003
O -2.866125 -1.726978 -0.138847
H -2.786827 -2.594850 0.261916
H -2.378609 -1.113186 0.414023
5
Structure 262 | Energy: -10.835258 Hartree
N -2.725749 0.637352 -3.369915
N -1.992274 1.029668 -2.652844
O -2.866125 -1.726978 -0.138847
H -2.786827 -2.594850 0.261916
H -2.378609 -1.113186 0.414023
5
Structure 263 | Energy: -10.835258 Hartree
N -2.725749 0.637352 -3.369915
N -1.992274 1.029668 -2.652844
O -1.020766 -2.521780 -1.591579
H -1.093912 -3.323995 -1.070807
H -0.298285 -2.009188 -1.223682
5
Structure 264 | Energy: -10.835220 Hartree
N -2.751687 -3.364396 -5.098625
N -2.063414 -2.523685 -5.258545
O -1.020766 -2.521780 -1.591579
H -1.093912 -3.323995 -1.070807
H -0.298285 -2.009188 -1.223682
5
Structure 265 | Energy: -10.834911 Hartree
N -2.482545 -2.858745 -5.866675
N -1.794272 -2.018035 -6.026595
O -1.020766 -2.521780 -1.591579
H -1.093912 -3.323995 -1.070807
H -0.298285 -2.009188 -1.223682
5
Structure 266 | Energy: -10.834919 Hartree
N -2.482545 -2.858745 -5.866675
N -1.794272 -2.018035 -6.026595
O -1.662817 -2.565021 -1.545362
H -1.735963 -3.367236 -1.024590
H -0.940336 -2.052429 -1.177465
5
Structure 267 | Energy: -10.835334 Hartree
N -2.490427 -2.253460 -5.026177
N -1.802154 -1.412749 -5.186097
O -1.662817 -2.565021 -1.545362
H -1.735963 -3.367236 -1.024590
H -0.940336 -2.052429 -1.177465
5
Structure 268 | Energy: -10.834601 Hartree
N -1.970621 -3.001582 -1.415678
N -1.282348 -2.160871 -1.575598
O -2.182623 -1.816899 -5.155861
H -2.255768 -2.619114 -4.635089
H -1.460141 -1.304307 -4.787964
5
Structure 269 | Energy: -10.834605 Hartree
N -1.976617 -2.992953 -1.457324
N -1.288344 -2.152242 -1.617244
O -2.182623 -1.816899 -5.155861
H -2.255768 -2.619114 -4.635089
H -1.460141 -1.304307 -4.787964
5
Structure 270 | Energy: -10.834611 Hartree
N -1.976617 -2.992953 -1.457324
N -1.288344 -2.152242 -1.617244
O -2.114835 -1.365200 -5.097466
H -2.187980 -2.167415 -4.576694
H -1.392354 -0.852609 -4.729568
5
Structure 271 | Energy: -10.834615 Hartree
N -1.976617 -2.992953 -1.457324
N -1.288344 -2.152242 -1.617244
O -2.105706 -1.389582 -5.025613
H -2.178851 -2.191797 -4.504841
H -1.383225 -0.876990 -4.657716
5
Structure 272 | Energy: -10.834546 Hartree
N -2.002106 -2.172477 -1.676761
N -1.313832 -1.331767 -1.836681
O -2.105706 -1.389582 -5.025613
H -2.178851 -2.191797 -4.504841
H -1.383225 -0.876990 -4.657716
5
Structure 273 | Energy: -10.834398 Hartree
N -2.002106 -2.172477 -1.676761
N -1.313832 -1.331767 -1.836681
O -0.561753 -2.487830 -4.802144
H -1.241012 -2.936264 -4.294585
H 0.117676 -2.210342 -4.184524
5
Structure 274 | Energy: -10.834398 Hartree
N -2.002106 -2.172477 -1.676761
N -1.313832 -1.331767 -1.836681
O -1.272806 -3.356366 -4.636931
H -0.895549 -2.514288 -4.374853
H -1.280629 -3.918342 -3.859628
5
Structure 275 | Energy: -10.835782 Hartree
N -1.596271 -3.761048 -4.498814
N -0.907998 -2.920338 -4.658735
O -1.678640 -1.767795 -1.814878
H -1.301383 -0.925717 -1.552799
H -1.686463 -2.329771 -1.037575
5
Structure 276 | Energy: -10.835640 Hartree
N -1.259434 -3.880083 -4.476172
N -1.244835 -2.801303 -4.681377
O -1.678640 -1.767795 -1.814878
H -1.301383 -0.925717 -1.552799
H -1.686463 -2.329771 -1.037575
5
Structure 277 | Energy: -10.835686 Hartree
N -1.259434 -3.880083 -4.476172
N -1.244835 -2.801303 -4.681377
O -1.671283 -1.796591 -1.866034
H -1.294026 -0.954514 -1.603955
H -1.679107 -2.358567 -1.088731
5
Structure 278 | Energy: -10.835896 Hartree
N -1.325857 -3.201988 -4.523903
N -1.311259 -2.123209 -4.729108
O -1.671283 -1.796591 -1.866034
H -1.294026 -0.954514 -1.603955
H -1.679107 -2.358567 -1.088731
5
Structure 279 | Energy: -10.835746 Hartree
N -1.325857 -3.201988 -4.523903
N -1.311259 -2.123209 -4.729108
O -2.364791 -1.023967 -2.455130
H -1.931909 -0.188372 -2.269395
H -2.736442 -1.340995 -1.629632
5
Structure 280 | Energy: -10.835679 Hartree
N -1.325857 -3.201988 -4.523903
N -1.311259 -2.123209 -4.729108
O -2.329730 -1.080036 -2.530037
H -1.896848 -0.244441 -2.344302
H -2.701381 -1.397063 -1.704539
5
Structure 281 | Energy: -10.835575 Hartree
N -1.347142 -3.167951 -4.478429
N -1.332543 -2.089171 -4.683634
O -2.329730 -1.080036 -2.530037
H -1.896848 -0.244441 -2.344302
H -2.701381 -1.397063 -1.704539
5
Structure 282 | Energy: -10.835616 Hartree
N -1.347142 -3.167951 -4.478429
N -1.332543 -2.089171 -4.683634
O -2.357140 -1.153048 -2.490014
H -1.964763 -0.297086 -2.307061
H -2.689702 -1.496642 -1.658495
5
Structure 283 | Energy: -10.835561 Hartree
N -1.347142 -3.167951 -4.478429
N -1.332543 -2.089171 -4.683634
O -2.370253 -0.727735 -2.313788
H -1.977876 0.128227 -2.130835
H -2.702816 -1.071329 -1.482269
5
Structure 284 | Energy: -10.835706 Hartree
N -1.347142 -3.167951 -4.478429
N -1.332543 -2.089171 -4.683634
O -2.376644 -0.737761 -2.306654
H -1.944536 0.118333 -2.328751
H -2.634723 -0.902297 -1.397587
5
Structure 285 | Energy: -10.836114 Hartree
N -2.225718 -0.389661 -5.714521
N -1.963268 0.400951 -4.998880
O -2.376644 -0.737761 -2.306654
H -1.944536 0.118333 -2.328751
H -2.634723 -0.902297 -1.397587
5
Structure 286 | Energy: -10.835584 Hartree
N -2.225718 -0.389661 -5.714521
N -1.963268 0.400951 -4.998880
O -3.557619 -1.670081 -3.123709
H -3.054338 -0.998237 -2.659557
H -4.147964 -2.074635 -2.485033
5
Structure 287 | Energy: -10.834721 Hartree
N -2.225718 -0.389661 -5.714521
N -1.963268 0.400951 -4.998880
O -2.980657 -2.824415 -4.288748
H -2.154040 -2.624117 -3.845254
H -3.359572 -3.589395 -3.851362
5
Structure 288 | Energy: -10.834380 Hartree
N -3.086832 -3.251317 -4.597280
N -2.824381 -2.460705 -3.881639
O -2.119544 0.037241 -5.405989
H -1.292926 0.237539 -4.962495
H -2.498459 -0.727739 -4.968603
5
Structure 289 | Energy: -10.834380 Hartree
N 1.295876 0.257889 -4.575019
N 0.462594 0.171155 -3.864944
O -2.119544 0.037241 -5.405989
H -1.292926 0.237539 -4.962495
H -2.498459 -0.727739 -4.968603
5
Structure 290 | Energy: -10.834541 Hartree
N 1.295876 0.257889 -4.575019
N 0.462594 0.171155 -3.864944
O -1.428274 -2.039563 -4.378800
H -0.866445 -1.276326 -4.230744
H -1.105748 -2.743731 -3.812936
5
Structure 291 | Energy: -10.833678 Hartree
N 0.450347 0.256097 -4.560347
N 1.308122 0.172947 -3.879615
O -1.428274 -2.039563 -4.378800
H -0.866445 -1.276326 -4.230744
H -1.105748 -2.743731 -3.812936
5
Structure 292 | Energy: -10.833678 Hartree
N 0.450347 0.256097 -4.560347
N 1.308122 0.172947 -3.879615
O 0.851724 1.463321 -1.241650
H 0.960515 1.241778 -2.168572
H -0.048176 1.775277 -1.127885
5
Structure 293 | Energy: -10.833678 Hartree
N 0.450347 0.256097 -4.560347
N 1.308122 0.172947 -3.879615
O -1.850866 1.725302 -3.386429
H -1.003495 1.432163 -3.727214
H -1.726052 1.937925 -2.459450
5
Structure 294 | Energy: -10.834103 Hartree
N -0.479557 3.651650 -5.138915
N 0.547225 3.879415 -4.822797
O -1.850866 1.725302 -3.386429
H -1.003495 1.432163 -3.727214
H -1.726052 1.937925 -2.459450
5
Structure 295 | Energy: -10.834103 Hartree
N -0.479557 3.651650 -5.138915
N 0.547225 3.879415 -4.822797
O 1.377118 2.441347 -2.392623
H 1.040166 1.885496 -3.098027
H 0.702328 2.476598 -1.711819
5
Structure 296 | Energy: -10.835049 Hartree
N 0.941354 1.831105 0.610097
N 0.690889 1.924292 -0.455112
O -0.694540 -1.081018 -1.790323
H -0.447994 -1.967035 -1.517760
H -0.021312 -0.773931 -2.400683
5
Structure 297 | Energy: -10.835149 Hartree
N 0.878682 1.702638 0.529064
N 0.628217 1.795825 -0.536146
O -0.694540 -1.081018 -1.790323
H -0.447994 -1.967035 -1.517760
H -0.021312 -0.773931 -2.400683
5
Structure 298 | Energy: -10.835193 Hartree
N 0.883834 1.726907 0.496120
N 0.691655 1.787714 -0.583444
O -0.694540 -1.081018 -1.790323
H -0.447994 -1.967035 -1.517760
H -0.021312 -0.773931 -2.400683
5
Structure 299 | Energy: -10.835193 Hartree
N 0.883834 1.726907 0.496120
N 0.691655 1.787714 -0.583444
O -0.163182 -1.238158 1.807554
H -0.074263 -2.090866 1.377339
H 0.694093 -1.014793 2.175340
5
Structure 300 | Energy: -10.835122 Hartree
N -0.471714 -1.233115 -1.597156
N 0.114930 -0.429818 -2.062614
O -0.163182 -1.238158 1.807554
H -0.074263 -2.090866 1.377339
H 0.694093 -1.014793 2.175340
5
Structure 301 | Energy: -10.835232 Hartree
N -0.471714 -1.233115 -1.597156
N 0.114930 -0.429818 -2.062614
O -0.166351 -1.217613 1.638601
H -0.077432 -2.070320 1.208385
H 0.690924 -0.994247 2.006386
5
Structure 302 | Energy: -10.835217 Hartree
N 0.096666 -0.359201 -1.883089
N -0.453450 -1.303732 -1.776682
O -0.166351 -1.217613 1.638601
H -0.077432 -2.070320 1.208385
H 0.690924 -0.994247 2.006386
5
Structure 303 | Energy: -10.835330 Hartree
N 0.096666 -0.359201 -1.883089
N -0.453450 -1.303732 -1.776682
O -0.170810 -1.188696 1.400810
H -0.081891 -2.041404 0.970594
H 0.686464 -0.965331 1.768596
5
Structure 304 | Energy: -10.835676 Hartree
N 0.053822 -1.319614 -1.733393
N -0.410606 -0.343319 -1.926378
O -0.170810 -1.188696 1.400810
H -0.081891 -2.041404 0.970594
H 0.686464 -0.965331 1.768596
5
Structure 305 | Energy: -10.834770 Hartree
N 0.114346 -1.712057 1.493810
N -0.350082 -0.735763 1.300825
O -0.231335 -0.796252 -1.826392
H -0.142416 -1.648960 -2.256608
H 0.625940 -0.572887 -1.458606
5
Structure 306 | Energy: -10.835088 Hartree
N -1.138171 -1.320273 1.448526
N -1.581731 -0.448424 0.949305
O -0.231335 -0.796252 -1.826392
H -0.142416 -1.648960 -2.256608
H 0.625940 -0.572887 -1.458606
5
Structure 307 | Energy: -10.835392 Hartree
N 0.043388 -1.267391 -1.580275
N -0.400173 -0.395542 -2.079496
O -1.412894 -0.849135 1.202409
H -1.323975 -1.701842 0.772193
H -0.555619 -0.625770 1.570194
5
Structure 308 | Energy: -10.835410 Hartree
N 0.043388 -1.267391 -1.580275
N -0.400173 -0.395542 -2.079496
O -1.371766 -0.847294 1.096981
H -1.282847 -1.700002 0.666765
H -0.514491 -0.623929 1.464767
5
Structure 309 | Energy: -10.835410 Hartree
N 0.043388 -1.267391 -1.580275
N -0.400173 -0.395542 -2.079496
O 1.710517 0.333648 0.420774
H 2.039457 -0.427098 -0.062099
H 1.124743 0.004125 1.105143
5
Structure 310 | Energy: -10.835005 Hartree
N 0.043388 -1.267391 -1.580275
N -0.400173 -0.395542 -2.079496
O 2.353487 0.249695 1.295218
H 2.682427 -0.511052 0.812345
H 1.767713 -0.079828 1.979587
5
Structure 311 | Energy: -10.834637 Hartree
N 2.560897 -0.247234 1.556103
N 2.117336 0.624615 1.056882
O -0.164021 -0.770462 -1.841160
H 0.164918 -1.531208 -2.324032
H -0.749796 -1.099985 -1.156790
5
Structure 312 | Energy: -10.835005 Hartree
N 0.043388 -1.267391 -1.580275
N -0.400173 -0.395542 -2.079496
O 2.353487 0.249695 1.295218
H 2.682427 -0.511052 0.812345
H 1.767713 -0.079828 1.979587
5
Structure 313 | Energy: -10.835005 Hartree
N -1.412061 -0.581215 0.276989
N -1.702987 0.218674 -0.417006
O 2.353487 0.249695 1.295218
H 2.682427 -0.511052 0.812345
H 1.767713 -0.079828 1.979587
5
Structure 314 | Energy: -10.835005 Hartree
N 0.043388 -1.267391 -1.580275
N -0.400173 -0.395542 -2.079496
O 2.353487 0.249695 1.295218
H 2.682427 -0.511052 0.812345
H 1.767713 -0.079828 1.979587
5
Structure 315 | Energy: -10.834983 Hartree
N 0.017856 -1.277737 -1.612083
N -0.425705 -0.405888 -2.111304
O 2.353487 0.249695 1.295218
H 2.682427 -0.511052 0.812345
H 1.767713 -0.079828 1.979587
5
Structure 316 | Energy: -10.834628 Hartree
N 0.655148 1.427370 -2.112084
N -0.160119 0.721442 -2.319675
O 2.353487 0.249695 1.295218
H 2.682427 -0.511052 0.812345
H 1.767713 -0.079828 1.979587
5
Structure 317 | Energy: -10.834757 Hartree
N 0.424564 1.573076 -2.069236
N 0.070464 0.575737 -2.362522
O 2.353487 0.249695 1.295218
H 2.682427 -0.511052 0.812345
H 1.767713 -0.079828 1.979587
5
Structure 318 | Energy: -10.834557 Hartree
N 0.424564 1.573076 -2.069236
N 0.070464 0.575737 -2.362522
O 2.360389 0.139753 1.341245
H 2.627653 0.361428 0.447080
H 1.712937 0.792686 1.614307
5
Structure 319 | Energy: -10.834588 Hartree
N 0.539439 1.524431 -1.875781
N 0.185339 0.527092 -2.169067
O 2.360389 0.139753 1.341245
H 2.627653 0.361428 0.447080
H 1.712937 0.792686 1.614307
5
Structure 320 | Energy: -10.834588 Hartree
N -0.605152 2.064051 -0.415196
N -1.303282 1.228906 -0.269473
O 2.360389 0.139753 1.341245
H 2.627653 0.361428 0.447080
H 1.712937 0.792686 1.614307
5
Structure 321 | Energy: -10.834588 Hartree
N 0.539439 1.524431 -1.875781
N 0.185339 0.527092 -2.169067
O 2.360389 0.139753 1.341245
H 2.627653 0.361428 0.447080
H 1.712937 0.792686 1.614307
5
Structure 322 | Energy: -10.834588 Hartree
N 0.539439 1.524431 -1.875781
N 0.185339 0.527092 -2.169067
O 1.884557 -1.200449 0.947135
H 2.120420 -1.067217 0.026961
H 0.942327 -1.377773 0.976045
5
Structure 323 | Energy: -10.834604 Hartree
N 0.587531 1.452141 -1.781077
N 0.233431 0.454801 -2.074363
O 1.884557 -1.200449 0.947135
H 2.120420 -1.067217 0.026961
H 0.942327 -1.377773 0.976045
5
Structure 324 | Energy: -10.834741 Hartree
N 0.587531 1.452141 -1.781077
N 0.233431 0.454801 -2.074363
O -0.252845 1.474497 1.862477
H 0.307839 1.911673 1.218573
H -0.104214 0.530973 1.774441
5
Structure 325 | Energy: -10.835265 Hartree
N -0.036106 1.944835 1.968165
N -0.390206 0.947495 1.674880
O 0.370792 0.981803 -1.886765
H 0.931477 1.418979 -2.530669
H 0.519423 0.038279 -1.974802
5
Structure 326 | Energy: -10.834661 Hartree
N -0.036106 1.944835 1.968165
N -0.390206 0.947495 1.674880
O 0.433197 0.894013 -1.925769
H 0.860266 1.653474 -2.326933
H -0.399859 1.197194 -1.559467
5
Structure 327 | Energy: -10.835268 Hartree
N 0.587531 1.452141 -1.781077
N 0.233431 0.454801 -2.074363
O -0.190440 1.386707 1.823473
H 0.236628 2.146168 1.422309
H -1.023496 1.689888 2.189775
5
Structure 328 | Energy: -10.834933 Hartree
N -1.483935 -0.756734 -0.852840
N -2.562226 -0.734305 -0.645780
O -0.190440 1.386707 1.823473
H 0.236628 2.146168 1.422309
H -1.023496 1.689888 2.189775
5
Structure 329 | Energy: -10.834936 Hartree
N 0.325989 1.434951 1.717992
N -0.752302 1.457379 1.925052
O -2.000364 -0.804978 -0.747359
H -1.573296 -0.045516 -1.148523
H -2.833420 -0.501797 -0.381057
5
Structure 330 | Energy: -10.834936 Hartree
N 0.325989 1.434951 1.717992
N -0.752302 1.457379 1.925052
O 0.404115 -0.854992 -1.209082
H -0.110304 -0.075947 -1.429456
H 1.325028 -0.588294 -1.179588
5
Structure 331 | Energy: -10.835330 Hartree
N 0.325989 1.434951 1.717992
N -0.752302 1.457379 1.925052
O 0.367132 -0.774773 -1.215693
H 1.104292 -0.520540 -0.657068
H 0.697432 -1.416938 -1.847044
5
Structure 332 | Energy: -10.835314 Hartree
N 0.443244 1.513831 1.658093
N -0.624664 1.535385 1.913426
O 0.367132 -0.774773 -1.215693
H 1.104292 -0.520540 -0.657068
H 0.697432 -1.416938 -1.847044
5
Structure 333 | Energy: -10.835396 Hartree
N 0.456460 1.454563 1.581348
N -0.611448 1.476117 1.836681
O 0.367132 -0.774773 -1.215693
H 1.104292 -0.520540 -0.657068
H 0.697432 -1.416938 -1.847044
5
Structure 334 | Energy: -10.835444 Hartree
N 0.463754 1.421856 1.538997
N -0.604155 1.443410 1.794329
O 0.367132 -0.774773 -1.215693
H 1.104292 -0.520540 -0.657068
H 0.697432 -1.416938 -1.847044
5
Structure 335 | Energy: -10.835307 Hartree
N 0.463754 1.421856 1.538997
N -0.604155 1.443410 1.794329
O 0.054928 -0.093023 -0.810138
H 0.792089 0.161211 -0.251513
H 0.385229 -0.735188 -1.441489
5
Structure 336 | Energy: -10.834547 Hartree
N 0.463754 1.421856 1.538997
N -0.604155 1.443410 1.794329
O 0.157935 -0.159002 -0.799303
H 0.297135 0.606932 -1.359725
H -0.754735 -0.133700 -0.505241
5
Structure 337 | Energy: -10.834957 Hartree
N 0.463754 1.421856 1.538997
N -0.604155 1.443410 1.794329
O 0.025711 0.494755 -1.122158
H 0.945596 0.738624 -1.242331
H -0.478649 1.308589 -1.064076
5
Structure 338 | Energy: -10.835361 Hartree
N 0.978059 1.429216 1.403448
N 0.232803 0.860366 1.975368
O 0.025711 0.494755 -1.122158
H 0.945596 0.738624 -1.242331
H -0.478649 1.308589 -1.064076
5
Structure 339 | Energy: -10.835619 Hartree
N -0.008204 0.467381 1.753382
N -0.753460 -0.101469 2.325301
O 0.025711 0.494755 -1.122158
H 0.945596 0.738624 -1.242331
H -0.478649 1.308589 -1.064076
5
Structure 340 | Energy: -10.835674 Hartree
N 0.003147 0.477179 1.669787
N -0.742109 -0.091671 2.241706
O 0.025711 0.494755 -1.122158
H 0.945596 0.738624 -1.242331
H -0.478649 1.308589 -1.064076
5
Structure 341 | Energy: -10.835674 Hartree
N 0.623943 0.228754 1.592089
N 0.880893 -0.741151 2.038575
O 0.025711 0.494755 -1.122158
H 0.945596 0.738624 -1.242331
H -0.478649 1.308589 -1.064076
5
Structure 342 | Energy: -10.835220 Hartree
N 0.085752 -0.397336 1.504213
N 0.759864 -1.195072 1.843737
O 0.025711 0.494755 -1.122158
H 0.945596 0.738624 -1.242331
H -0.478649 1.308589 -1.064076
5
Structure 343 | Energy: -10.835771 Hartree
N -0.002782 -0.892176 2.007419
N 0.848397 -0.700232 1.340531
O 0.025711 0.494755 -1.122158
H 0.945596 0.738624 -1.242331
H -0.478649 1.308589 -1.064076
5
Structure 344 | Energy: -10.835771 Hartree
N -0.002782 -0.892176 2.007419
N 0.848397 -0.700232 1.340531
O -2.478943 -0.070057 0.840208
H -2.843410 -0.115815 1.726307
H -2.543174 0.843029 0.553453
5
Structure 345 | Energy: -10.835771 Hartree
N 0.353164 0.244534 0.616964
N 0.896743 -0.545841 1.151676
O -2.478943 -0.070057 0.840208
H -2.843410 -0.115815 1.726307
H -2.543174 0.843029 0.553453
5
Structure 346 | Energy: -10.835863 Hartree
N 0.353164 0.244534 0.616964
N 0.896743 -0.545841 1.151676
O -2.366391 -0.074703 0.840588
H -2.730858 -0.120461 1.726688
H -2.430622 0.838382 0.553834
5
Structure 347 | Energy: -10.835903 Hartree
N 0.353164 0.244534 0.616964
N 0.896743 -0.545841 1.151676
O -2.228810 -0.080383 0.841053
H -2.593276 -0.126141 1.727153
H -2.293040 0.832703 0.554299
5
Structure 348 | Energy: -10.835903 Hartree
N 0.013384 -0.840552 1.944271
N 0.864563 -0.648608 1.277383
O -2.228810 -0.080383 0.841053
H -2.593276 -0.126141 1.727153
H -2.293040 0.832703 0.554299
5
Structure 349 | Energy: -10.834236 Hartree
N 0.013384 -0.840552 1.944271
N 0.864563 -0.648608 1.277383
O -1.792687 -0.182256 0.453833
H -2.157154 -0.228014 1.339932
H -1.856917 0.730829 0.167078
5
Structure 350 | Energy: -10.832697 Hartree
N 0.013384 -0.840552 1.944271
N 0.864563 -0.648608 1.277383
O -1.711174 -0.204331 0.494432
H -2.075640 -0.250089 1.380532
H -1.775404 0.708755 0.207677
5
Structure 351 | Energy: -10.833586 Hartree
N 0.013384 -0.840552 1.944271
N 0.864563 -0.648608 1.277383
O -1.752868 -0.193039 0.473665
H -2.117334 -0.238797 1.359765
H -1.817098 0.720046 0.186911
5
Structure 352 | Energy: -10.833717 Hartree
N 0.013384 -0.840552 1.944271
N 0.864563 -0.648608 1.277383
O -1.767198 -0.207043 0.514374
H -2.159149 0.385822 1.158570
H -1.547827 0.317693 -0.258029
5
Structure 353 | Energy: -10.834269 Hartree
N 0.454535 -1.282248 1.000700
N 1.305714 -1.090303 0.333812
O -1.767198 -0.207043 0.514374
H -2.159149 0.385822 1.158570
H -1.547827 0.317693 -0.258029
5
Structure 354 | Energy: -10.834269 Hartree
N 0.073890 -1.239816 1.882751
N 0.180759 -0.964898 2.940620
O -1.767198 -0.207043 0.514374
H -2.159149 0.385822 1.158570
H -1.547827 0.317693 -0.258029
5
Structure 355 | Energy: -10.835194 Hartree
N -1.401941 -1.231575 2.786415
N -0.446722 -1.737238 2.981222
O -1.767198 -0.207043 0.514374
H -2.159149 0.385822 1.158570
H -1.547827 0.317693 -0.258029
5
Structure 356 | Energy: -10.835371 Hartree
N -1.385717 -1.257074 2.831644
N -0.430498 -1.762737 3.026451
O -1.767198 -0.207043 0.514374
H -2.159149 0.385822 1.158570
H -1.547827 0.317693 -0.258029
5
Structure 357 | Energy: -10.835042 Hartree
N -1.412170 -1.215498 2.757901
N -0.456950 -1.721161 2.952707
O -1.767198 -0.207043 0.514374
H -2.159149 0.385822 1.158570
H -1.547827 0.317693 -0.258029
5
Structure 358 | Energy: -10.835286 Hartree
N -1.412170 -1.215498 2.757901
N -0.456950 -1.721161 2.952707
O -1.748515 -0.199561 0.522077
H -2.307418 0.326447 1.097442
H -1.696102 0.258316 -0.319160
5
Structure 359 | Energy: -10.835406 Hartree
N -1.403377 -1.229318 2.782413
N -0.448158 -1.734981 2.977219
O -1.748515 -0.199561 0.522077
H -2.307418 0.326447 1.097442
H -1.696102 0.258316 -0.319160
5
Structure 360 | Energy: -10.835404 Hartree
N -1.293641 -1.827672 2.678412
N -0.338422 -2.333335 2.873219
O -1.748515 -0.199561 0.522077
H -2.307418 0.326447 1.097442
H -1.696102 0.258316 -0.319160
5
Structure 361 | Energy: -10.835390 Hartree
N -1.293641 -1.827672 2.678412
N -0.338422 -2.333335 2.873219
O -1.736049 -0.224680 0.551512
H -2.294952 0.301328 1.126876
H -1.683636 0.233197 -0.289725
5
Structure 362 | Energy: -10.835390 Hartree
N -1.677369 -2.066850 2.524322
N -1.649094 -3.150276 2.346906
O -1.736049 -0.224680 0.551512
H -2.294952 0.301328 1.126876
H -1.683636 0.233197 -0.289725
5
Structure 363 | Energy: -10.835431 Hartree
N -2.109235 -2.925498 2.389189
N -1.217229 -2.291627 2.482039
O -1.736049 -0.224680 0.551512
H -2.294952 0.301328 1.126876
H -1.683636 0.233197 -0.289725
5
Structure 364 | Energy: -10.835431 Hartree
N -2.109235 -2.925498 2.389189
N -1.217229 -2.291627 2.482039
O 0.289880 -3.015753 0.142670
H 0.683558 -3.802094 0.525799
H 0.620392 -2.941007 -0.754689
5
Structure 365 | Energy: -10.835890 Hartree
N -1.073586 -0.757530 2.087100
N -0.757675 -0.506629 1.065661
O 0.289880 -3.015753 0.142670
H 0.683558 -3.802094 0.525799
H 0.620392 -2.941007 -0.754689
5
Structure 366 | Energy: -10.835917 Hartree
N -1.073586 -0.757530 2.087100
N -0.757675 -0.506629 1.065661
O 0.264972 -2.967309 0.171904
H 0.658651 -3.753650 0.555033
H 0.595485 -2.892563 -0.725455
5
Structure 367 | Energy: -10.836081 Hartree
N -1.073586 -0.757530 2.087100
N -0.757675 -0.506629 1.065661
O 0.275434 -2.976113 0.189926
H 0.578199 -2.600280 -0.639040
H 0.509893 -3.906195 0.182561
5
Structure 368 | Energy: -10.835180 Hartree
N -1.560641 0.413231 1.685894
N -1.244731 0.664132 0.664455
O 0.275434 -2.976113 0.189926
H 0.578199 -2.600280 -0.639040
H 0.509893 -3.906195 0.182561
5
Structure 369 | Energy: -10.835064 Hartree
N -1.269772 0.802143 0.712094
N -1.535600 0.275220 1.638256
O 0.275434 -2.976113 0.189926
H 0.578199 -2.600280 -0.639040
H 0.509893 -3.906195 0.182561
5
Structure 370 | Energy: -10.834388 Hartree
N 0.438408 -2.743664 -0.319950
N 0.172579 -3.270587 0.606212
O -1.432746 0.569693 1.221970
H -1.129980 0.945527 0.393004
H -1.198286 -0.360389 1.214605
5
Structure 371 | Energy: -10.834335 Hartree
N -0.071774 -3.281358 -0.146675
N 0.682761 -2.732892 0.432936
O -1.432746 0.569693 1.221970
H -1.129980 0.945527 0.393004
H -1.198286 -0.360389 1.214605
5
Structure 372 | Energy: -10.834731 Hartree
N 1.831172 -0.739049 3.628923
N 1.915335 0.307239 3.305990
O -1.432746 0.569693 1.221970
H -1.129980 0.945527 0.393004
H -1.198286 -0.360389 1.214605
5
Structure 373 | Energy: -10.834955 Hartree
N 2.172803 1.744227 3.143385
N 1.930301 2.357133 2.264962
O -1.432746 0.569693 1.221970
H -1.129980 0.945527 0.393004
H -1.198286 -0.360389 1.214605
5
Structure 374 | Energy: -10.834955 Hartree
N 2.161262 1.523597 3.282195
N 1.832513 0.487844 3.441031
O -1.432746 0.569693 1.221970
H -1.129980 0.945527 0.393004
H -1.198286 -0.360389 1.214605
5
Structure 375 | Energy: -10.834499 Hartree
N -2.930828 -1.136380 -2.426251
N -3.585111 -1.295941 -1.558758
O -1.432746 0.569693 1.221970
H -1.129980 0.945527 0.393004
H -1.198286 -0.360389 1.214605
5
Structure 376 | Energy: -10.834621 Hartree
N -2.930828 -1.136380 -2.426251
N -3.585111 -1.295941 -1.558758
O -0.772171 -2.914807 0.798368
H -0.340615 -2.836623 -0.054714
H -1.534371 -3.484981 0.679920
5
Structure 377 | Energy: -10.835080 Hartree
N -2.930828 -1.136380 -2.426251
N -3.585111 -1.295941 -1.558758
O -0.807702 -2.969058 0.688772
H -1.258794 -3.064217 1.529940
H -0.052238 -2.396316 0.834783
5
Structure 378 | Energy: -10.834617 Hartree
N -0.463530 -2.862555 0.310261
N -1.117812 -3.022116 1.177754
O -3.275000 -1.242883 -2.047740
H -3.726092 -1.338042 -1.206572
H -2.519536 -0.670141 -1.901728
5
Structure 379 | Energy: -10.834539 Hartree
N -0.463530 -2.862555 0.310261
N -1.117812 -3.022116 1.177754
O -3.204793 -1.040509 -1.977933
H -3.729879 -1.446299 -1.285314
H -2.628809 -0.398370 -1.558436
5
Structure 380 | Energy: -10.835097 Hartree
N -2.874804 -0.947505 -2.349452
N -3.529086 -1.107065 -1.481960
O -0.793519 -2.955560 0.681781
H -1.318606 -3.361350 1.374400
H -0.217535 -2.313420 1.101277
5
Structure 381 | Energy: -10.835186 Hartree
N -2.874804 -0.947505 -2.349452
N -3.529086 -1.107065 -1.481960
O -0.876617 -2.889563 0.590121
H -1.401704 -3.295353 1.282740
H -0.300633 -2.247423 1.009617
5
Structure 382 | Energy: -10.834733 Hartree
N -3.497530 -0.601264 -1.734990
N -2.906360 -1.453305 -2.096422
O -0.876617 -2.889563 0.590121
H -1.401704 -3.295353 1.282740
H -0.300633 -2.247423 1.009617
5
Structure 383 | Energy: -10.834721 Hartree
N -3.520961 -0.582655 -1.760836
N -2.929792 -1.434696 -2.122267
O -0.876617 -2.889563 0.590121
H -1.401704 -3.295353 1.282740
H -0.300633 -2.247423 1.009617
5
Structure 384 | Energy: -10.834721 Hartree
N -3.520961 -0.582655 -1.760836
N -2.929792 -1.434696 -2.122267
O -2.911820 0.043735 1.834410
H -3.226140 -0.665828 2.398171
H -1.984645 0.179711 2.039195
5
Structure 385 | Energy: -10.834762 Hartree
N -3.520961 -0.582655 -1.760836
N -2.929792 -1.434696 -2.122267
O -2.923624 0.009110 1.704813
H -3.237944 -0.700452 2.268574
H -1.996450 0.145087 1.909598
5
Structure 386 | Energy: -10.834535 Hartree
N -1.275485 0.209942 -1.471511
N -0.282208 -0.257003 -1.433418
O -2.923624 0.009110 1.704813
H -3.237944 -0.700452 2.268574
H -1.996450 0.145087 1.909598
5
Structure 387 | Energy: -10.834703 Hartree
N -2.719750 3.165251 0.065786
N -1.682634 3.525360 0.037480
O -2.923624 0.009110 1.704813
H -3.237944 -0.700452 2.268574
H -1.996450 0.145087 1.909598
5
Structure 388 | Energy: -10.834733 Hartree
N -3.407890 -0.203038 1.761969
N -2.370775 0.157071 1.733663
O -2.235483 3.377400 0.008630
H -2.549804 2.667837 0.572390
H -1.308309 3.513376 0.213415
5
Structure 389 | Energy: -10.834719 Hartree
N -3.407890 -0.203038 1.761969
N -2.370775 0.157071 1.733663
O 0.306650 -2.213963 1.761869
H -0.588959 -1.877401 1.830517
H 0.827642 -1.774833 2.437006
5
Structure 390 | Energy: -10.834716 Hartree
N -3.273388 -0.294015 1.764327
N -2.236272 0.066094 1.736021
O 0.306650 -2.213963 1.761869
H -0.588959 -1.877401 1.830517
H 0.827642 -1.774833 2.437006
5
Structure 391 | Energy: -10.835999 Hartree
N -3.273388 -0.294015 1.764327
N -2.236272 0.066094 1.736021
O 0.049668 2.318356 1.712359
H -0.497495 1.531202 1.679129
H -0.189977 2.862841 0.959906
5
Structure 392 | Energy: -10.835485 Hartree
N -3.273388 -0.294015 1.764327
N -2.236272 0.066094 1.736021
O 0.790837 2.391755 1.851592
H 0.243674 1.604601 1.818362
H 0.551191 2.936240 1.099139
5
Structure 393 | Energy: -10.834442 Hartree
N -2.646729 -0.408609 2.200750
N -2.862931 0.180687 1.299598
O 0.790837 2.391755 1.851592
H 0.243674 1.604601 1.818362
H 0.551191 2.936240 1.099139
5
Structure 394 | Energy: -10.834879 Hartree
N 0.854913 2.083528 2.258206
N 0.638711 2.672825 1.357054
O -2.710806 -0.100383 1.794136
H -3.257969 -0.887536 1.760906
H -2.950451 0.444102 1.041684
5
Structure 395 | Energy: -10.834934 Hartree
N 0.854913 2.083528 2.258206
N 0.638711 2.672825 1.357054
O -2.609475 -0.028265 1.795799
H -3.156638 -0.815419 1.762569
H -2.849121 0.516220 1.043346
5
Structure 396 | Energy: -10.835088 Hartree
N 0.612657 2.285086 1.283360
N 0.880968 2.471267 2.331900
O -2.609475 -0.028265 1.795799
H -3.156638 -0.815419 1.762569
H -2.849121 0.516220 1.043346
5
Structure 397 | Energy: -10.834942 Hartree
N 0.612657 2.285086 1.283360
N 0.880968 2.471267 2.331900
O -2.655962 0.021468 1.758226
H -2.388650 -0.608352 2.430516
H -2.879268 -0.480207 0.971756
5
Structure 398 | Energy: -10.834606 Hartree
N -2.787655 -0.134934 1.227567
N -2.519344 0.051247 2.276107
O 0.744350 2.441487 1.814019
H 1.011662 1.811668 2.486309
H 0.521044 1.939813 1.027549
5
Structure 399 | Energy: -10.834606 Hartree
N -1.858645 -0.377619 3.989793
N -2.263940 -0.015472 3.035501
O 0.744350 2.441487 1.814019
H 1.011662 1.811668 2.486309
H 0.521044 1.939813 1.027549
5
Structure 400 | Energy: -10.834597 Hartree
N -1.858645 -0.377619 3.989793
N -2.263940 -0.015472 3.035501
O 0.774731 2.469343 1.795572
H 1.042043 1.839524 2.467862
H 0.551425 1.967669 1.009102
5
Structure 401 | Energy: -10.834592 Hartree
N -1.858645 -0.377619 3.989793
N -2.263940 -0.015472 3.035501
O 0.794617 2.487577 1.783498
H 1.061929 1.857758 2.455788
H 0.571311 1.985902 0.997028
5
Structure 402 | Energy: -10.834492 Hartree
N -1.858645 -0.377619 3.989793
N -2.263940 -0.015472 3.035501
O 0.588256 3.397250 1.155054
H 0.855568 2.767431 1.827345
H 0.364950 2.895576 0.368584
5
Structure 403 | Energy: -10.834492 Hartree
N -3.265024 -0.010231 -0.191794
N -2.996713 0.175950 0.856745
O 0.588256 3.397250 1.155054
H 0.855568 2.767431 1.827345
H 0.364950 2.895576 0.368584
5
Structure 404 | Energy: -10.834489 Hartree
N -3.265024 -0.010231 -0.191794
N -2.996713 0.175950 0.856745
O 0.624859 3.429226 1.163082
H 0.892172 2.799407 1.835372
H 0.401553 2.927551 0.376612
5
Structure 405 | Energy: -10.834498 Hartree
N -3.159695 0.081782 -0.168694
N -2.891384 0.267963 0.879845
O 0.624859 3.429226 1.163082
H 0.892172 2.799407 1.835372
H 0.401553 2.927551 0.376612
5
Structure 406 | Energy: -10.834639 Hartree
N 0.493166 3.272825 0.632424
N 0.761477 3.459006 1.680963
O -3.028002 0.238184 0.361964
H -2.760689 -0.391636 1.034254
H -3.251308 -0.263491 -0.424506
5
Structure 407 | Energy: -10.834388 Hartree
N 0.493166 3.272825 0.632424
N 0.761477 3.459006 1.680963
O -3.045757 0.195484 0.298816
H -2.834027 0.740013 1.059580
H -2.896159 -0.717406 0.552451
5
Structure 408 | Energy: -10.834471 Hartree
N 0.493166 3.272825 0.632424
N 0.761477 3.459006 1.680963
O -3.014353 0.216380 0.308595
H -3.775332 -0.362223 0.387535
H -2.453303 0.053172 1.069295
5
Structure 409 | Energy: -10.834469 Hartree
N 0.493166 3.272825 0.632424
N 0.761477 3.459006 1.680963
O -3.047319 0.187581 0.301365
H -3.808298 -0.391021 0.380305
H -2.486269 0.024373 1.062065
5
Structure 410 | Energy: -10.834636 Hartree
N -3.192661 0.052984 -0.175924
N -2.924350 0.239165 0.872615
O 0.638509 3.407422 1.109712
H -0.122471 2.828819 1.188653
H 1.199558 3.244214 1.870413
5
Structure 411 | Energy: -10.834500 Hartree
N -3.555963 -0.796927 0.253242
N -3.287652 -0.610746 1.301781
O 0.638509 3.407422 1.109712
H -0.122471 2.828819 1.188653
H 1.199558 3.244214 1.870413
5
Structure 412 | Energy: -10.834442 Hartree
N -3.646974 -0.404449 1.124424
N -3.378663 -0.218268 2.172963
O 0.638509 3.407422 1.109712
H -0.122471 2.828819 1.188653
H 1.199558 3.244214 1.870413
5
Structure 413 | Energy: -10.834438 Hartree
N -3.646974 -0.404449 1.124424
N -3.378663 -0.218268 2.172963
O 0.635780 3.411184 1.112712
H -0.100816 2.798966 1.164851
H 1.221213 3.214360 1.846610
5
Structure 414 | Energy: -10.834517 Hartree
N -3.353387 -0.113050 0.385914
N -3.085076 0.073131 1.434453
O 0.635780 3.411184 1.112712
H -0.100816 2.798966 1.164851
H 1.221213 3.214360 1.846610
5
Structure 415 | Energy: -10.834602 Hartree
N -3.422556 0.748037 -1.142990
N -3.166179 0.422206 -0.126037
O 0.635780 3.411184 1.112712
H -0.100816 2.798966 1.164851
H 1.221213 3.214360 1.846610
5
Structure 416 | Energy: -10.834630 Hartree
N -3.279286 0.849627 -1.077552
N -3.022909 0.523796 -0.060599
O 0.635780 3.411184 1.112712
H -0.100816 2.798966 1.164851
H 1.221213 3.214360 1.846610
5
Structure 417 | Energy: -10.834621 Hartree
N -3.323839 0.818035 -1.097902
N -3.067462 0.492204 -0.080948
O 0.635780 3.411184 1.112712
H -0.100816 2.798966 1.164851
H 1.221213 3.214360 1.846610
5
Structure 418 | Energy: -10.834709 Hartree
N -2.952848 0.509838 -0.118828
N -3.438453 0.800402 -1.060023
O 0.635780 3.411184 1.112712
H -0.100816 2.798966 1.164851
H 1.221213 3.214360 1.846610
5
Structure 419 | Energy: -10.834399 Hartree
N 0.870124 3.220633 1.627291
N 0.384519 3.511197 0.686096
O -3.187192 0.700388 -0.633407
H -3.923789 0.088171 -0.581268
H -2.601759 0.503565 0.100492
5
Structure 420 | Energy: -10.834513 Hartree
N 0.870124 3.220633 1.627291
N 0.384519 3.511197 0.686096
O -2.278145 -0.349435 2.773616
H -2.772411 -1.167694 2.694523
H -2.207791 0.026093 1.893783
5
Structure 421 | Energy: -10.834571 Hartree
N 1.242043 3.644787 2.450226
N 0.756437 3.935352 1.509031
O -2.278145 -0.349435 2.773616
H -2.772411 -1.167694 2.694523
H -2.207791 0.026093 1.893783
5
Structure 422 | Energy: -10.834577 Hartree
N 1.242043 3.644787 2.450226
N 0.756437 3.935352 1.509031
O -1.543935 -1.413037 1.312765
H -2.038200 -2.231296 1.233672
H -1.473580 -1.037509 0.432931
5
Structure 423 | Energy: -10.834625 Hartree
N 1.242043 3.644787 2.450226
N 0.756437 3.935352 1.509031
O -2.592914 -0.078322 -0.029759
H -3.087180 -0.896581 -0.108852
H -2.522559 0.297206 -0.909592
5
Structure 424 | Energy: -10.835043 Hartree
N 0.951832 1.944758 1.812056
N 0.466227 2.235323 0.870861
O -2.592914 -0.078322 -0.029759
H -3.087180 -0.896581 -0.108852
H -2.522559 0.297206 -0.909592
5
Structure 425 | Energy: -10.834705 Hartree
N 1.762499 1.836557 2.260347
N 1.276894 2.127122 1.319152
O -2.592914 -0.078322 -0.029759
H -3.087180 -0.896581 -0.108852
H -2.522559 0.297206 -0.909592
5
Structure 426 | Energy: -10.834389 Hartree
N 1.762499 1.836557 2.260347
N 1.276894 2.127122 1.319152
O -2.621133 -0.047133 -0.113469
H -2.695882 -0.915650 -0.513709
H -2.465970 -0.178749 0.823911
5
Structure 427 | Energy: -10.834327 Hartree
N 1.762499 1.836557 2.260347
N 1.276894 2.127122 1.319152
O -2.414507 1.296534 -0.144522
H -2.489257 0.428016 -0.544762
H -2.259344 1.164918 0.792857
5
Structure 428 | Energy: -10.834322 Hartree
N 1.762499 1.836557 2.260347
N 1.276894 2.127122 1.319152
O -2.362213 1.306398 -0.119182
H -2.436962 0.437881 -0.519422
H -2.207050 1.174782 0.818198
5
Structure 429 | Energy: -10.834322 Hartree
N 0.890731 -0.957664 -2.811555
N 0.628081 0.047525 -2.455607
O -2.362213 1.306398 -0.119182
H -2.436962 0.437881 -0.519422
H -2.207050 1.174782 0.818198
5
Structure 430 | Energy: -10.834881 Hartree
N -2.226388 0.747843 -0.267101
N -2.489038 1.753032 0.088847
O 0.754907 -0.399109 -2.663635
H 0.680158 -1.267626 -3.063876
H 0.910070 -0.530725 -1.726256
5
Structure 431 | Energy: -10.835368 Hartree
N -2.226388 0.747843 -0.267101
N -2.489038 1.753032 0.088847
O 0.102811 0.282615 -2.491553
H 0.028061 -0.585902 -2.891793
H 0.257974 0.150999 -1.554174
5
Structure 432 | Energy: -10.835440 Hartree
N -2.226388 0.747843 -0.267101
N -2.489038 1.753032 0.088847
O 0.305849 0.252300 -1.643388
H 0.231100 -0.616217 -2.043629
H 0.461012 0.120684 -0.706009
5
Structure 433 | Energy: -10.835422 Hartree
N -2.226388 0.747843 -0.267101
N -2.489038 1.753032 0.088847
O 0.340346 0.238671 -1.663096
H 0.265597 -0.629847 -2.063336
H 0.495510 0.107055 -0.725717
5
Structure 434 | Energy: -10.835330 Hartree
N -2.094310 1.130367 -0.237018
N -2.200048 2.165396 0.114579
O 0.340346 0.238671 -1.663096
H 0.265597 -0.629847 -2.063336
H 0.495510 0.107055 -0.725717
5
Structure 435 | Energy: -10.835430 Hartree
N -2.226715 1.114503 -0.164679
N -2.067643 2.181260 0.042240
O 0.340346 0.238671 -1.663096
H 0.265597 -0.629847 -2.063336
H 0.495510 0.107055 -0.725717
5
Structure 436 | Energy: -10.835430 Hartree
N -2.226715 1.114503 -0.164679
N -2.067643 2.181260 0.042240
O 0.719941 2.784278 -1.169323
H 0.914567 3.722222 -1.219162
H 0.854465 2.514256 -0.258790
5
Structure 437 | Energy: -10.835271 Hartree
N -2.235733 2.178167 0.050483
N -2.058625 1.117596 -0.172922
O 0.719941 2.784278 -1.169323
H 0.914567 3.722222 -1.219162
H 0.854465 2.514256 -0.258790
5
Structure 438 | Energy: -10.835496 Hartree
N -0.486858 -0.076812 -1.975452
N 0.307472 -0.550549 -1.383251
O 0.719941 2.784278 -1.169323
H 0.914567 3.722222 -1.219162
H 0.854465 2.514256 -0.258790
5
Structure 439 | Energy: -10.835194 Hartree
N -0.294234 0.078448 -1.353897
N 0.114848 -0.705808 -2.004806
O 0.719941 2.784278 -1.169323
H 0.914567 3.722222 -1.219162
H 0.854465 2.514256 -0.258790
5
Structure 440 | Energy: -10.834668 Hartree
N 0.533817 3.213778 -0.795709
N 0.942899 2.429522 -1.446619
O -0.108110 -0.351053 -1.727510
H 0.086516 0.586891 -1.777350
H 0.026415 -0.621075 -0.816978
5
Structure 441 | Energy: -10.835037 Hartree
N 0.533817 3.213778 -0.795709
N 0.942899 2.429522 -1.446619
O -0.103232 -1.128987 -2.352777
H 0.091393 -0.191043 -2.402617
H 0.031292 -1.399010 -1.442245
5
Structure 442 | Energy: -10.835060 Hartree
N 0.525744 3.175401 -0.807315
N 0.934826 2.391145 -1.458225
O -0.103232 -1.128987 -2.352777
H 0.091393 -0.191043 -2.402617
H 0.031292 -1.399010 -1.442245
5
Structure 443 | Energy: -10.834493 Hartree
N 3.755899 -0.502664 0.087907
N 3.238418 -1.163436 -0.620388
O -0.103232 -1.128987 -2.352777
H 0.091393 -0.191043 -2.402617
H 0.031292 -1.399010 -1.442245
5
Structure 444 | Energy: -10.835172 Hartree
N 4.021051 -0.879594 -0.424014
N 2.973266 -0.786506 -0.108467
O -0.103232 -1.128987 -2.352777
H 0.091393 -0.191043 -2.402617
H 0.031292 -1.399010 -1.442245
5
Structure 445 | Energy: -10.835179 Hartree
N 4.020676 -0.722891 -0.389999
N 2.973640 -0.943209 -0.142482
O -0.103232 -1.128987 -2.352777
H 0.091393 -0.191043 -2.402617
H 0.031292 -1.399010 -1.442245
5
Structure 446 | Energy: -10.835179 Hartree
N -2.598592 0.725411 1.017449
N -1.721789 0.084156 0.855901
O -0.103232 -1.128987 -2.352777
H 0.091393 -0.191043 -2.402617
H 0.031292 -1.399010 -1.442245
5
Structure 447 | Energy: -10.835250 Hartree
N -3.633465 -0.592872 0.490936
N -2.535580 -0.619990 0.492224
O -0.103232 -1.128987 -2.352777
H 0.091393 -0.191043 -2.402617
H 0.031292 -1.399010 -1.442245
5
Structure 448 | Energy: -10.835257 Hartree
N -3.633465 -0.592872 0.490936
N -2.535580 -0.619990 0.492224
O -0.023677 -0.858438 -2.304711
H 0.128506 0.088631 -2.306402
H 0.104142 -1.165063 -1.404866
5
Structure 449 | Energy: -10.835400 Hartree
N -3.633465 -0.592872 0.490936
N -2.535580 -0.619990 0.492224
O -0.023676 -0.858436 -2.304713
H -0.308976 -0.992935 -1.398834
H 0.541609 -0.083534 -2.312402
5
Structure 450 | Energy: -10.835312 Hartree
N -3.633465 -0.592872 0.490936
N -2.535580 -0.619990 0.492224
O -0.023677 -0.858435 -2.304713
H -0.023270 -1.135372 -1.386341
H 0.255913 0.058898 -2.324895
5
Structure 451 | Energy: -10.835318 Hartree
N -3.726624 -0.938694 0.370866
N -2.632033 -0.857454 0.407724
O -0.023677 -0.858435 -2.304713
H -0.023270 -1.135372 -1.386341
H 0.255913 0.058898 -2.324895
5
Structure 452 | Energy: -10.834519 Hartree
N 3.344335 2.131501 -1.377570
N 3.031960 1.345681 -2.078282
O -0.023677 -0.858435 -2.304713
H -0.023270 -1.135372 -1.386341
H 0.255913 0.058898 -2.324895
5
Structure 453 | Energy: -10.834454 Hartree
N 3.344335 2.131501 -1.377570
N 3.031960 1.345681 -2.078282
O 0.359018 -0.031838 -3.036597
H 0.359425 -0.308775 -2.118224
H 0.638608 0.885495 -3.056779
5
Structure 454 | Energy: -10.834454 Hartree
N 3.344335 2.131501 -1.377570
N 3.031960 1.345681 -2.078282
O 0.391808 -0.189150 -2.874795
H 0.149868 0.696604 -3.152296
H 0.845939 -0.109201 -2.033694
5
Structure 455 | Energy: -10.834454 Hartree
N 3.344335 2.131501 -1.377570
N 3.031960 1.345681 -2.078282
O 0.359018 -0.031838 -3.036597
H 0.359425 -0.308775 -2.118224
H 0.638608 0.885495 -3.056779
5
Structure 456 | Energy: -10.834257 Hartree
N 2.901812 1.853741 -0.890888
N 2.589437 1.067921 -1.591600
O 0.359018 -0.031838 -3.036597
H 0.359425 -0.308775 -2.118224
H 0.638608 0.885495 -3.056779
5
Structure 457 | Energy: -10.835323 Hartree
N 2.901812 1.853741 -0.890888
N 2.589437 1.067921 -1.591600
O 0.750561 -0.056133 -4.140069
H 0.750968 -0.333070 -3.221697
H 1.030151 0.861200 -4.160251
5
Structure 458 | Energy: -10.835699 Hartree
N 2.901812 1.853741 -0.890888
N 2.589437 1.067921 -1.591600
O 0.750559 -0.056134 -4.140068
H 1.622643 0.025351 -3.749001
H 0.158507 0.502793 -3.632965
5
Structure 459 | Energy: -10.835055 Hartree
N -1.154959 0.818772 -0.360085
N -0.533128 0.291439 -1.095839
O 0.750559 -0.056134 -4.140068
H 1.622643 0.025351 -3.749001
H 0.158507 0.502793 -3.632965
5
Structure 460 | Energy: -10.835047 Hartree
N -1.154959 0.818772 -0.360085
N -0.533128 0.291439 -1.095839
O 0.704921 -0.039826 -4.044787
H 1.577005 0.041659 -3.653720
H 0.112869 0.519101 -3.537684
5
Structure 461 | Energy: -10.834998 Hartree
N -1.113042 0.803794 -0.447596
N -0.491211 0.276461 -1.183350
O 0.704921 -0.039826 -4.044787
H 1.577005 0.041659 -3.653720
H 0.112869 0.519101 -3.537684
5
Structure 462 | Energy: -10.836037 Hartree
N -1.113042 0.803794 -0.447596
N -0.491211 0.276461 -1.183350
O 0.704922 -0.039827 -4.044786
H 1.088464 0.839015 -4.069955
H 0.601392 -0.278229 -3.121464
5
Structure 463 | Energy: -10.834402 Hartree
N 0.409674 0.259674 -3.626655
N 1.031506 -0.267659 -4.362409
O -0.817794 0.504293 -0.865728
H -0.434253 1.383135 -0.890897
H -0.921324 0.265891 0.057595
5
Structure 464 | Energy: -10.836037 Hartree
N -1.113042 0.803794 -0.447596
N -0.491211 0.276461 -1.183350
O 0.704922 -0.039827 -4.044786
H 1.088464 0.839015 -4.069955
H 0.601392 -0.278229 -3.121464
5
Structure 465 | Energy: -10.835270 Hartree
N 3.136762 1.719674 -1.204090
N 2.644737 0.928940 -1.786104
O 0.704922 -0.039827 -4.044786
H 1.088464 0.839015 -4.069955
H 0.601392 -0.278229 -3.121464
5
Structure 466 | Energy: -10.834882 Hartree
N 2.866369 1.609026 -1.963992
N 2.915129 1.039588 -1.026202
O 0.704922 -0.039827 -4.044786
H 1.088464 0.839015 -4.069955
H 0.601392 -0.278229 -3.121464
5
Structure 467 | Energy: -10.834904 Hartree
N 2.866369 1.609026 -1.963992
N 2.915129 1.039588 -1.026202
O 0.741771 -0.017273 -4.002347
H 1.125313 0.861569 -4.027516
H 0.638241 -0.255674 -3.079024
5
Structure 468 | Energy: -10.835014 Hartree
N 2.732733 0.031105 -1.301100
N 3.063631 -1.003971 -1.142312
O 0.741771 -0.017273 -4.002347
H 1.125313 0.861569 -4.027516
H 0.638241 -0.255674 -3.079024
5
Structure 469 | Energy: -10.835027 Hartree
N 2.732733 0.031105 -1.301100
N 3.063631 -1.003971 -1.142312
O 0.777413 -0.025681 -3.956887
H 1.160955 0.853162 -3.982056
H 0.673883 -0.264082 -3.033565
5
Structure 470 | Energy: -10.835011 Hartree
N 0.627632 0.527692 -3.986026
N 0.958530 -0.507384 -3.827239
O 2.882514 -0.522268 -1.271961
H 3.266056 0.356575 -1.297130
H 2.778984 -0.760669 -0.348638
5
Structure 471 | Energy: -10.834093 Hartree
N 0.627632 0.527692 -3.986026
N 0.958530 -0.507384 -3.827239
O 2.954963 -0.515262 -1.221831
H 2.405491 -0.337171 -1.987643
H 2.489650 -0.178123 -0.453781
5
Structure 472 | Energy: -10.834493 Hartree
N 0.627632 0.527692 -3.986026
N 0.958530 -0.507384 -3.827239
O 3.150315 -1.124737 -0.230415
H 2.600843 -0.946646 -0.996227
H 2.685003 -0.787598 0.537635
5
Structure 473 | Energy: -10.834490 Hartree
N 0.603500 0.539294 -4.024592
N 0.934397 -0.495781 -3.865805
O 3.150315 -1.124737 -0.230415
H 2.600843 -0.946646 -0.996227
H 2.685003 -0.787598 0.537635
5
Structure 474 | Energy: -10.834496 Hartree
N 0.603500 0.539294 -4.024592
N 0.934397 -0.495781 -3.865805
O 3.094575 -1.097937 -0.319493
H 2.545103 -0.919846 -1.085305
H 2.629262 -0.760798 0.448557
5
Structure 475 | Energy: -10.834899 Hartree
N 2.872345 -0.551570 -0.398762
N 3.203243 -1.586646 -0.239974
O 0.825729 -0.007072 -3.945324
H 0.276258 0.171019 -4.711135
H 0.360417 0.330066 -3.177274
5
Structure 476 | Energy: -10.834673 Hartree
N 2.919652 -0.694963 0.064794
N 3.155937 -1.443253 -0.703530
O 0.825729 -0.007072 -3.945324
H 0.276258 0.171019 -4.711135
H 0.360417 0.330066 -3.177274
5
Structure 477 | Energy: -10.834634 Hartree
N 3.475513 -1.938499 0.208482
N 3.711798 -2.686788 -0.559841
O 0.825729 -0.007072 -3.945324
H 0.276258 0.171019 -4.711135
H 0.360417 0.330066 -3.177274
5
Structure 478 | Energy: -10.834385 Hartree
N 3.665788 -2.229534 -0.713650
N 3.521524 -2.395753 0.362291
O 0.825729 -0.007072 -3.945324
H 0.276258 0.171019 -4.711135
H 0.360417 0.330066 -3.177274
5
Structure 479 | Energy: -10.834454 Hartree
N 3.665788 -2.229534 -0.713650
N 3.521524 -2.395753 0.362291
O 0.217628 0.184847 -3.521660
H -0.331843 0.362938 -4.287471
H -0.247684 0.521986 -2.753610
5
Structure 480 | Energy: -10.834415 Hartree
N 3.632840 -2.470133 0.130682
N 3.488576 -2.636353 1.206622
O 0.217628 0.184847 -3.521660
H -0.331843 0.362938 -4.287471
H -0.247684 0.521986 -2.753610
5
Structure 481 | Energy: -10.834419 Hartree
N 0.287202 -3.980793 0.349733
N 0.026462 -3.928977 1.415293
O 0.217628 0.184847 -3.521660
H -0.331843 0.362938 -4.287471
H -0.247684 0.521986 -2.753610
5
Structure 482 | Energy: -10.834537 Hartree
N -3.286277 -2.166440 0.357721
N -3.086798 -2.348291 1.422252
O 0.217628 0.184847 -3.521660
H -0.331843 0.362938 -4.287471
H -0.247684 0.521986 -2.753610
5
Structure 483 | Energy: -10.834536 Hartree
N -3.286277 -2.166440 0.357721
N -3.086798 -2.348291 1.422252
O -1.054699 0.581636 -4.002213
H -1.604171 0.759727 -4.768024
H -1.520011 0.918774 -3.234163
5
Structure 484 | Energy: -10.834437 Hartree
N -2.335136 -2.748497 0.318667
N -2.499498 -2.696367 1.403266
O -1.054699 0.581636 -4.002213
H -1.604171 0.759727 -4.768024
H -1.520011 0.918774 -3.234163
5
Structure 485 | Energy: -10.834437 Hartree
N -2.343216 -2.769119 0.348756
N -2.507578 -2.716989 1.433356
O -1.054699 0.581636 -4.002213
H -1.604171 0.759727 -4.768024
H -1.520011 0.918774 -3.234163
5
Structure 486 | Energy: -10.834497 Hartree
N -2.343216 -2.769119 0.348756
N -2.507578 -2.716989 1.433356
O 0.266324 2.678557 0.403992
H 0.317677 3.245155 -0.368298
H -0.663583 2.554072 0.603629
5
Structure 487 | Energy: -10.834428 Hartree
N -2.827704 -3.099611 1.003029
N -2.023090 -2.386497 0.779082
O 0.266324 2.678557 0.403992
H 0.317677 3.245155 -0.368298
H -0.663583 2.554072 0.603629
5
Structure 488 | Energy: -10.834487 Hartree
N -2.292779 -2.694846 1.421726
N -2.558014 -2.791262 0.360386
O 0.266324 2.678557 0.403992
H 0.317677 3.245155 -0.368298
H -0.663583 2.554072 0.603629
5
Structure 489 | Energy: -10.834506 Hartree
N 0.349783 2.751502 0.902620
N 0.084548 2.655087 -0.158720
O -2.376239 -2.767792 0.923098
H -2.324885 -2.201193 0.150808
H -3.306146 -2.892277 1.122734
5
Structure 490 | Energy: -10.834513 Hartree
N 0.349783 2.751502 0.902620
N 0.084548 2.655087 -0.158720
O -2.303776 -2.618446 0.908863
H -2.252423 -2.051847 0.136573
H -3.233683 -2.742931 1.108500
5
Structure 491 | Energy: -10.834515 Hartree
N 0.349783 2.751502 0.902620
N 0.084548 2.655087 -0.158720
O -3.096293 -2.527918 0.835037
H -3.044940 -1.961319 0.062747
H -4.026200 -2.652403 1.034673
5
Structure 492 | Energy: -10.834496 Hartree
N -0.236923 3.364734 0.886277
N -0.502158 3.268319 -0.175064
O -3.096293 -2.527918 0.835037
H -3.044940 -1.961319 0.062747
H -4.026200 -2.652403 1.034673
5
Structure 493 | Energy: -10.834478 Hartree
N -3.012834 -2.454972 1.333665
N -3.278069 -2.551388 0.272325
O -0.320383 3.291789 0.387648
H -0.269029 3.858387 -0.384641
H -1.250290 3.167304 0.587285
5
Structure 494 | Energy: -10.834531 Hartree
N -3.012834 -2.454972 1.333665
N -3.278069 -2.551388 0.272325
O -0.351541 3.255716 0.361368
H -1.247343 3.592579 0.425898
H 0.222566 4.005665 0.193871
5
Structure 495 | Energy: -10.834538 Hartree
N -2.955100 -2.333933 1.324360
N -3.220335 -2.430349 0.263020
O -0.351541 3.255716 0.361368
H -1.247343 3.592579 0.425898
H 0.222566 4.005665 0.193871
5
Structure 496 | Energy: -10.834523 Hartree
N -2.887152 -1.685018 -0.404134
N -3.152387 -1.781433 -1.465475
O -0.351541 3.255716 0.361368
H -1.247343 3.592579 0.425898
H 0.222566 4.005665 0.193871
5
Structure 497 | Energy: -10.834572 Hartree
N -2.887152 -1.685018 -0.404134
N -3.152387 -1.781433 -1.465475
O -2.454311 3.173857 2.113119
H -1.585487 2.820906 2.314798
H -2.674833 3.799086 2.806327
5
Structure 498 | Energy: -10.834944 Hartree
N -2.625456 -0.335284 0.392601
N -2.890691 -0.431700 -0.668739
O -2.454311 3.173857 2.113119
H -1.585487 2.820906 2.314798
H -2.674833 3.799086 2.806327
5
Structure 499 | Energy: -10.834945 Hartree
N -2.625456 -0.335284 0.392601
N -2.890691 -0.431700 -0.668739
O -2.853722 3.083972 2.266592
H -1.953014 2.818219 2.462048
H -3.144555 3.650870 2.983614
5
Structure 500 | Energy: -10.834933 Hartree
N -2.625082 -0.356491 0.377655
N -2.890317 -0.452906 -0.683685
O -2.853722 3.083972 2.266592
H -1.953014 2.818219 2.462048
H -3.144555 3.650870 2.983614
5
Structure 501 | Energy: -10.834872 Hartree
N -2.625082 -0.356491 0.377655
N -2.890317 -0.452906 -0.683685
O -2.549644 2.787034 2.640567
H -3.093681 2.195129 3.163803
H -2.130970 3.399769 3.248305
5
Structure 502 | Energy: -10.835008 Hartree
N -2.625082 -0.356491 0.377655
N -2.890317 -0.452906 -0.683685
O -3.314685 3.408358 1.631615
H -3.688507 2.880453 2.339906
H -3.053897 4.249606 2.011577
5
Structure 503 | Energy: -10.835046 Hartree
N -2.634407 -0.293080 0.408205
N -2.899642 -0.389495 -0.653135
O -3.314685 3.408358 1.631615
H -3.688507 2.880453 2.339906
H -3.053897 4.249606 2.011577
5
Structure 504 | Energy: -10.835046 Hartree
N -2.634407 -0.293080 0.408205
N -2.899642 -0.389495 -0.653135
O -1.841794 -3.861611 1.923958
H -2.402406 -3.467547 2.595174
H -1.280552 -4.503359 2.363555
5
Structure 505 | Energy: -10.834772 Hartree
N -2.634407 -0.293080 0.408205
N -2.899642 -0.389495 -0.653135
O -2.069498 -2.983627 3.034761
H -2.946410 -2.698239 3.298735
H -1.633680 -3.324112 3.818477
5
Structure 506 | Energy: -10.834754 Hartree
N -1.479229 -0.879633 0.443866
N -1.744464 -0.976049 -0.617475
O -2.069498 -2.983627 3.034761
H -2.946410 -2.698239 3.298735
H -1.633680 -3.324112 3.818477
5
Structure 507 | Energy: -10.835173 Hartree
N -1.479229 -0.879633 0.443866
N -1.744464 -0.976049 -0.617475
O -1.494233 -3.929150 2.184360
H -2.160094 -3.680577 2.828520
H -0.917837 -4.570402 2.604648
5
Structure 508 | Energy: -10.835194 Hartree
N -1.479229 -0.879633 0.443866
N -1.744464 -0.976049 -0.617475
O -2.450535 2.641765 0.770158
H -3.315663 2.715297 0.362422
H -2.398798 3.316212 1.450248
5
Structure 509 | Energy: -10.835032 Hartree
N -1.479229 -0.879633 0.443866
N -1.744464 -0.976049 -0.617475
O -2.571911 2.322235 1.554889
H -3.417549 2.482778 1.131540
H -2.568701 2.813877 2.378512
5
Structure 510 | Energy: -10.835025 Hartree
N -1.479229 -0.879633 0.443866
N -1.744464 -0.976049 -0.617475
O -2.571911 2.322235 1.554889
H -3.434105 2.447797 1.153693
H -2.552146 2.848857 2.356360
5
Structure 511 | Energy: -10.835077 Hartree
N -1.503913 -0.799089 0.484648
N -1.769148 -0.895504 -0.576692
O -2.571911 2.322235 1.554889
H -3.434105 2.447797 1.153693
H -2.552146 2.848857 2.356360
5
Structure 512 | Energy: -10.834589 Hartree
N -1.503913 -0.799089 0.484648
N -1.769148 -0.895504 -0.576692
O -2.361190 2.128286 2.507391
H -3.223384 2.253848 2.106195
H -2.341426 2.654908 3.308863
5
Structure 513 | Energy: -10.834605 Hartree
N -1.503913 -0.799089 0.484648
N -1.769148 -0.895504 -0.576692
O -2.340054 2.045800 2.436852
H -3.202248 2.171361 2.035656
H -2.320290 2.572422 3.238323
5
Structure 514 | Energy: -10.835205 Hartree
N -1.503913 -0.799089 0.484648
N -1.769148 -0.895504 -0.576692
O -2.407574 2.135738 2.431265
H -1.909256 2.075768 3.248690
H -2.541604 1.240506 2.113973
5
Structure 515 | Energy: -10.835153 Hartree
N -3.282433 3.266142 -0.823833
N -3.219724 4.324305 -1.110968
O -2.407574 2.135738 2.431265
H -1.909256 2.075768 3.248690
H -2.541604 1.240506 2.113973
5
Structure 516 | Energy: -10.835302 Hartree
N -3.284629 3.252099 -1.040968
N -3.217527 4.338348 -0.893832
O -2.407574 2.135738 2.431265
H -1.909256 2.075768 3.248690
H -2.541604 1.240506 2.113973
5
Structure 517 | Energy: -10.834307 Hartree
N 0.893261 0.658551 3.738687
N 0.505865 -0.124239 4.404460
O -2.407574 2.135738 2.431265
H -1.909256 2.075768 3.248690
H -2.541604 1.240506 2.113973
5
Structure 518 | Energy: -10.834285 Hartree
N 0.893261 0.658551 3.738687
N 0.505865 -0.124239 4.404460
O -2.315783 2.081761 2.479211
H -1.817464 2.021790 3.296636
H -2.449813 1.186529 2.161919
5
Structure 519 | Energy: -10.834277 Hartree
N 0.893261 0.658551 3.738687
N 0.505865 -0.124239 4.404460
O -2.291536 2.067503 2.491876
H -1.793218 2.007532 3.309301
H -2.425566 1.172271 2.174584
5
Structure 520 | Energy: -10.834277 Hartree
N 0.893261 0.658551 3.738687
N 0.505865 -0.124239 4.404460
O -3.128117 0.377066 3.929614
H -2.374048 0.833878 4.307510
H -2.914316 0.184680 3.014544
5
Structure 521 | Energy: -10.835014 Hartree
N 0.893261 0.658551 3.738687
N 0.505865 -0.124239 4.404460
O -3.035449 0.341947 3.908525
H -3.109454 1.112580 4.474874
H -3.649751 0.463392 3.181914
5
Structure 522 | Energy: -10.834524 Hartree
N 0.305009 -0.023757 4.318999
N 1.094117 0.558068 3.824149
O -3.035449 0.341947 3.908525
H -3.109454 1.112580 4.474874
H -3.649751 0.463392 3.181914
5
Structure 523 | Energy: -10.834510 Hartree
N 0.305009 -0.023757 4.318999
N 1.094117 0.558068 3.824149
O -3.443295 -0.339911 3.438437
H -3.517300 0.430721 4.004786
H -4.057597 -0.218466 2.711827
5
Structure 524 | Energy: -10.834514 Hartree
N 0.305009 -0.023757 4.318999
N 1.094117 0.558068 3.824149
O -3.400879 -0.334259 3.444951
H -3.474884 0.436373 4.011299
H -4.015181 -0.212814 2.718340
5
Structure 525 | Energy: -10.834834 Hartree
N 0.305009 -0.023757 4.318999
N 1.094117 0.558068 3.824149
O -3.452536 -0.303468 3.376682
H -2.937216 0.466438 3.625262
H -3.732957 -0.731600 4.187943
5
Structure 526 | Energy: -10.834847 Hartree
N 0.264493 -0.029155 4.312777
N 1.053602 0.552670 3.817927
O -3.452536 -0.303468 3.376682
H -2.937216 0.466438 3.625262
H -3.732957 -0.731600 4.187943
5
Structure 527 | Energy: -10.834506 Hartree
N 0.264493 -0.029155 4.312777
N 1.053602 0.552670 3.817927
O -3.493063 -0.289553 3.469858
H -2.978872 -1.011809 3.103722
H -3.048054 0.525795 3.230585
5
Structure 528 | Energy: -10.834506 Hartree
N 0.278844 -0.348029 4.286466
N 1.113052 -0.768310 3.708928
O -3.493063 -0.289553 3.469858
H -2.978872 -1.011809 3.103722
H -3.048054 0.525795 3.230585
5
Structure 529 | Energy: -10.834507 Hartree
N 0.212779 -0.343654 4.277492
N 1.046987 -0.763936 3.699954
O -3.493063 -0.289553 3.469858
H -2.978872 -1.011809 3.103722
H -3.048054 0.525795 3.230585
5
Structure 530 | Energy: -10.834506 Hartree
N 0.212779 -0.343654 4.277492
N 1.046987 -0.763936 3.699954
O -3.529531 -0.287139 3.464905
H -3.015339 -1.009395 3.098768
H -3.084522 0.528210 3.225632
5
Structure 531 | Energy: -10.834800 Hartree
N -3.892964 -0.071789 3.719799
N -3.058757 -0.492070 3.142261
O 0.576213 -0.559004 4.022598
H 1.090404 -1.281260 3.656461
H 1.021221 0.256345 3.783325
5
Structure 532 | Energy: -10.834749 Hartree
N -3.799204 -0.629324 3.154827
N -3.152516 0.065465 3.707233
O 0.576213 -0.559004 4.022598
H 1.090404 -1.281260 3.656461
H 1.021221 0.256345 3.783325
5
Structure 533 | Energy: -10.834641 Hartree
N -3.799204 -0.629324 3.154827
N -3.152516 0.065465 3.707233
O 0.576212 -0.559006 4.022596
H 1.459146 -0.424446 4.372486
H 0.652492 -0.600440 3.067325
5
Structure 534 | Energy: -10.834650 Hartree
N 0.306539 -0.901190 3.712520
N 0.953227 -0.206400 4.264926
O -3.529532 -0.287141 3.464903
H -2.646597 -0.152580 3.814793
H -3.453251 -0.328574 2.509632
5
Structure 535 | Energy: -10.834698 Hartree
N 0.306539 -0.901190 3.712520
N 0.953227 -0.206400 4.264926
O -3.529530 -0.287139 3.464906
H -3.322808 -0.751299 2.651319
H -2.777064 0.270124 3.673066
5
Structure 536 | Energy: -10.834610 Hartree
N 0.306539 -0.901190 3.712520
N 0.953227 -0.206400 4.264926
O -3.420892 -0.303092 3.406827
H -3.669492 -0.296005 4.333244
H -4.154687 0.068030 2.912972
5
Structure 537 | Energy: -10.834625 Hartree
N 0.228743 -0.896038 3.701953
N 0.875431 -0.201249 4.254359
O -3.420892 -0.303092 3.406827
H -3.669492 -0.296005 4.333244
H -4.154687 0.068030 2.912972
5
Structure 538 | Energy: -10.834057 Hartree
N 0.033546 -0.428065 3.843628
N 1.070629 -0.669222 4.112684
O -3.420892 -0.303092 3.406827
H -3.669492 -0.296005 4.333244
H -4.154687 0.068030 2.912972
5
Structure 539 | Energy: -10.834005 Hartree
N 0.033546 -0.428065 3.843628
N 1.070629 -0.669222 4.112684
O -3.313202 -0.310223 3.421454
H -3.561801 -0.303136 4.347872
H -4.046996 0.060900 2.927600
5
Structure 540 | Energy: -10.833263 Hartree
N -0.570906 -0.084693 3.455748
N 0.466177 -0.325850 3.724804
O -3.313202 -0.310223 3.421454
H -3.561801 -0.303136 4.347872
H -4.046996 0.060900 2.927600
5
Structure 541 | Energy: -10.835082 Hartree
N -4.916675 0.955275 1.465679
N -5.531998 1.042751 0.560243
O -3.313202 -0.310223 3.421454
H -3.561801 -0.303136 4.347872
H -4.046996 0.060900 2.927600
5
Structure 542 | Energy: -10.835406 Hartree
N -4.637894 0.649751 0.846129
N -5.253217 0.737228 -0.059307
O -3.313202 -0.310223 3.421454
H -3.561801 -0.303136 4.347872
H -4.046996 0.060900 2.927600
5
Structure 543 | Energy: -10.834717 Hartree
N -4.637894 0.649751 0.846129
N -5.253217 0.737228 -0.059307
O -3.162482 0.407883 3.241530
H -3.411082 0.414970 4.167948
H -3.896277 0.779006 2.747675
5
Structure 544 | Energy: -10.832699 Hartree
N -4.637894 0.649751 0.846129
N -5.253217 0.737228 -0.059307
O -2.656739 0.572174 2.581615
H -2.905339 0.579261 3.508033
H -3.390534 0.943296 2.087761
5
Structure 545 | Energy: -10.832699 Hartree
N -4.637894 0.649751 0.846129
N -5.253217 0.737228 -0.059307
O -3.590584 0.915142 3.249379
H -2.729170 0.514560 3.382060
H -3.696324 1.055602 2.306422
5
Structure 546 | Energy: -10.836132 Hartree
N -3.945685 1.315022 0.283620
N -4.561008 1.402498 -0.621816
O -3.590584 0.915142 3.249379
H -2.729170 0.514560 3.382060
H -3.696324 1.055602 2.306422
5
Structure 547 | Energy: -10.836052 Hartree
N -4.343729 1.764835 0.148399
N -4.959052 1.852311 -0.757036
O -3.590584 0.915142 3.249379
H -2.729170 0.514560 3.382060
H -3.696324 1.055602 2.306422
5
Structure 548 | Energy: -10.836110 Hartree
N -4.343729 1.764835 0.148399
N -4.959052 1.852311 -0.757036
O -3.611003 0.931949 3.184436
H -2.749590 0.531368 3.317117
H -3.716743 1.072410 2.241479
5
Structure 549 | Energy: -10.836151 Hartree
N -4.343729 1.764835 0.148399
N -4.959052 1.852311 -0.757036
O -3.642526 0.957898 3.084176
H -2.781113 0.557316 3.216857
H -3.748267 1.098358 2.141218
5
Structure 550 | Energy: -10.836092 Hartree
N -4.315378 1.741499 0.238569
N -4.930701 1.828975 -0.666867
O -3.642526 0.957898 3.084176
H -2.781113 0.557316 3.216857
H -3.748267 1.098358 2.141218
5
Structure 551 | Energy: -10.836092 Hartree
N -4.315378 1.741499 0.238569
N -4.930701 1.828975 -0.666867
O -2.337506 0.478609 2.150994
H -2.586105 0.485696 3.077412
H -3.071300 0.849732 1.657140
5
Structure 552 | Energy: -10.835996 Hartree
N -4.315378 1.741499 0.238569
N -4.930701 1.828975 -0.666867
O -2.370310 0.497514 2.115855
H -2.618909 0.504601 3.042273
H -3.104104 0.868637 1.622001
5
Structure 553 | Energy: -10.835538 Hartree
N -4.244762 1.700803 0.314211
N -4.860085 1.788280 -0.591225
O -2.370310 0.497514 2.115855
H -2.618909 0.504601 3.042273
H -3.104104 0.868637 1.622001
5
Structure 554 | Energy: -10.834910 Hartree
N -4.536574 1.265616 0.129638
N -4.568274 2.223467 -0.406651
O -2.370310 0.497514 2.115855
H -2.618909 0.504601 3.042273
H -3.104104 0.868637 1.622001
5
Structure 555 | Energy: -10.834968 Hartree
N -4.560498 1.279403 0.104010
N -4.592198 2.237254 -0.432279
O -2.370310 0.497514 2.115855
H -2.618909 0.504601 3.042273
H -3.104104 0.868637 1.622001
5
Structure 556 | Energy: -10.834785 Hartree
N -4.560498 1.279403 0.104010
N -4.592198 2.237254 -0.432279
O -2.430497 0.532200 2.051383
H -2.679097 0.539287 2.977801
H -3.164291 0.903322 1.557529
5
Structure 557 | Energy: -10.835212 Hartree
N -4.560498 1.279403 0.104010
N -4.592198 2.237254 -0.432279
O -2.449081 0.545178 2.023969
H -3.385784 0.751594 2.033014
H -2.162641 0.485022 2.937431
5
Structure 558 | Energy: -10.835228 Hartree
N -4.658792 1.769511 -0.229006
N -4.690491 2.727361 -0.765295
O -2.449081 0.545178 2.023969
H -3.385784 0.751594 2.033014
H -2.162641 0.485022 2.937431
5
Structure 559 | Energy: -10.835294 Hartree
N -4.934266 0.792796 -0.260983
N -5.072140 1.484771 -1.102559
O -2.449081 0.545178 2.023969
H -3.385784 0.751594 2.033014
H -2.162641 0.485022 2.937431
5
Structure 560 | Energy: -10.835383 Hartree
N -4.934266 0.792796 -0.260983
N -5.072140 1.484771 -1.102559
O -2.539401 0.566179 1.925053
H -3.476104 0.772595 1.934098
H -2.252961 0.506023 2.838515
5
Structure 561 | Energy: -10.834655 Hartree
N -4.934266 0.792796 -0.260983
N -5.072140 1.484771 -1.102559
O -2.592095 0.558576 1.917174
H -2.289199 1.418608 2.215000
H -2.603504 -0.019305 2.682681
5
Structure 562 | Energy: -10.834396 Hartree
N -4.934266 0.792796 -0.260983
N -5.072140 1.484771 -1.102559
O -2.557893 0.526074 1.939211
H -2.524352 0.545435 2.897649
H -2.911193 1.369733 1.650253
5
Structure 563 | Energy: -10.834396 Hartree
N -4.934266 0.792796 -0.260983
N -5.072140 1.484771 -1.102559
O -2.321128 -0.831472 0.784199
H -2.122761 -1.757173 0.938570
H -2.543311 -0.739602 -0.144387
5
Structure 564 | Energy: -10.834396 Hartree
N -4.934266 0.792796 -0.260983
N -5.072140 1.484771 -1.102559
O -2.557893 0.526074 1.939211
H -2.524352 0.545435 2.897649
H -2.911193 1.369733 1.650253
5
Structure 565 | Energy: -10.834516 Hartree
N -4.843725 1.320215 -0.125217
N -4.981599 2.012190 -0.966793
O -2.557893 0.526074 1.939211
H -2.524352 0.545435 2.897649
H -2.911193 1.369733 1.650253
5
Structure 566 | Energy: -10.835134 Hartree
N -4.146613 -0.004198 -0.728056
N -3.952486 -0.477011 -1.700090
O -2.557893 0.526074 1.939211
H -2.524352 0.545435 2.897649
H -2.911193 1.369733 1.650253
5
Structure 567 | Energy: -10.835355 Hartree
N -4.781109 0.264181 -0.479817
N -4.586982 -0.208631 -1.451852
O -2.557893 0.526074 1.939211
H -2.524352 0.545435 2.897649
H -2.911193 1.369733 1.650253
5
Structure 568 | Energy: -10.835500 Hartree
N -4.781109 0.264181 -0.479817
N -4.586982 -0.208631 -1.451852
O -2.562733 0.215565 1.979142
H -2.512596 0.066886 2.925441
H -3.005015 1.056361 1.846752
5
Structure 569 | Energy: -10.835565 Hartree
N -4.740416 0.268572 -0.421851
N -4.546289 -0.204241 -1.393885
O -2.562733 0.215565 1.979142
H -2.512596 0.066886 2.925441
H -3.005015 1.056361 1.846752
5
Structure 570 | Energy: -10.835539 Hartree
N -4.596970 0.918053 -0.699508
N -4.402843 0.445240 -1.671543
O -2.562733 0.215565 1.979142
H -2.512596 0.066886 2.925441
H -3.005015 1.056361 1.846752
5
Structure 571 | Energy: -10.835099 Hartree
N -4.561466 1.213358 -1.062986
N -4.438347 0.149935 -1.308065
O -2.562733 0.215565 1.979142
H -2.512596 0.066886 2.925441
H -3.005015 1.056361 1.846752
5
Structure 572 | Energy: -10.835278 Hartree
N -4.561466 1.213358 -1.062986
N -4.438347 0.149935 -1.308065
O -2.028622 0.802116 1.517468
H -1.978484 0.653437 2.463768
H -2.470903 1.642912 1.385078
5
Structure 573 | Energy: -10.835260 Hartree
N -4.561466 1.213358 -1.062986
N -4.438347 0.149935 -1.308065
O -2.011867 0.803205 1.536269
H -1.961729 0.654526 2.482569
H -2.454149 1.644001 1.403879
5
Structure 574 | Energy: -10.835173 Hartree
N 2.019143 1.360568 -0.079839
N 1.551701 1.288772 -1.071016
O -1.442803 -0.745108 0.658221
H -1.662878 -1.202863 1.471935
H -2.001393 -1.108121 -0.031907
5
Structure 575 | Energy: -10.835564 Hartree
N 2.019143 1.360568 -0.079839
N 1.551701 1.288772 -1.071016
O -0.714819 0.474009 0.149171
H -0.934894 0.016254 0.962885
H -1.273409 0.110996 -0.540957
5
Structure 576 | Energy: -10.835564 Hartree
N 1.878059 1.400061 -0.706628
N 1.876692 1.197798 0.372805
O -0.714819 0.474009 0.149171
H -0.934894 0.016254 0.962885
H -1.273409 0.110996 -0.540957
5
Structure 577 | Energy: -10.835593 Hartree
N 1.946378 1.329410 -0.710816
N 1.808373 1.268449 0.376993
O -0.714819 0.474009 0.149171
H -0.934894 0.016254 0.962885
H -1.273409 0.110996 -0.540957
5
Structure 578 | Energy: -10.835593 Hartree
N 1.946378 1.329410 -0.710816
N 1.808373 1.268449 0.376993
O -0.542758 0.550013 -1.207082
H -0.546929 0.187629 -2.095205
H -1.250444 0.121140 -0.721977
5
Structure 579 | Energy: -10.835737 Hartree
N 1.991743 1.344037 -0.691218
N 1.853738 1.283077 0.396591
O -0.542758 0.550013 -1.207082
H -0.546929 0.187629 -2.095205
H -1.250444 0.121140 -0.721977
5
Structure 580 | Energy: -10.835238 Hartree
N 1.821430 0.953524 -0.549351
N 2.024051 1.673591 0.254724
O -0.542758 0.550013 -1.207082
H -0.546929 0.187629 -2.095205
H -1.250444 0.121140 -0.721977
5
Structure 581 | Energy: -10.835355 Hartree
N 1.821430 0.953524 -0.549351
N 2.024051 1.673591 0.254724
O -0.595882 0.532883 -1.230031
H -0.600053 0.170500 -2.118155
H -1.303568 0.104011 -0.744927
5
Structure 582 | Energy: -10.835277 Hartree
N 2.125444 1.084437 0.308688
N 1.720036 1.542678 -0.603315
O -0.595882 0.532883 -1.230031
H -0.600053 0.170500 -2.118155
H -1.303568 0.104011 -0.744927
5
Structure 583 | Energy: -10.835895 Hartree
N 2.125444 1.084437 0.308688
N 1.720036 1.542678 -0.603315
O -0.476577 -0.383602 -0.390915
H -0.480749 -0.745986 -1.279038
H -1.184264 -0.812474 0.094190
5
Structure 584 | Energy: -10.835819 Hartree
N 2.046249 1.027895 0.300046
N 1.640841 1.486136 -0.611956
O -0.476577 -0.383602 -0.390915
H -0.480749 -0.745986 -1.279038
H -1.184264 -0.812474 0.094190
5
Structure 585 | Energy: -10.835749 Hartree
N 2.046249 1.027895 0.300046
N 1.640841 1.486136 -0.611956
O -0.569454 1.886912 1.226242
H -1.160517 1.138441 1.123585
H -0.980059 2.489752 1.849191
5
Structure 586 | Energy: -10.835807 Hartree
N 2.046249 1.027895 0.300046
N 1.640841 1.486136 -0.611956
O -0.620230 1.899698 1.255266
H -1.211293 1.151227 1.152609
H -1.030836 2.502538 1.878214
5
Structure 587 | Energy: -10.835564 Hartree
N 2.046249 1.027895 0.300046
N 1.640841 1.486136 -0.611956
O -0.492502 1.867534 1.182256
H -1.083565 1.119063 1.079599
H -0.903108 2.470374 1.805205
5
Structure 588 | Energy: -10.835564 Hartree
N 2.046249 1.027895 0.300046
N 1.640841 1.486136 -0.611956
O 0.062776 -0.837071 -0.409565
H 0.487577 -1.508818 -0.946596
H -0.847405 -1.110662 -0.279958
5
Structure 589 | Energy: -10.835611 Hartree
N 1.348668 1.540611 0.358491
N 1.546425 0.901741 1.229597
O 0.062776 -0.837071 -0.409565
H 0.487577 -1.508818 -0.946596
H -0.847405 -1.110662 -0.279958
5
Structure 590 | Energy: -10.835577 Hartree
N 0.151819 1.896426 0.260293
N 0.597536 1.438907 1.153658
O 0.062776 -0.837071 -0.409565
H 0.487577 -1.508818 -0.946596
H -0.847405 -1.110662 -0.279958
5
Structure 591 | Energy: -10.835736 Hartree
N 0.151819 1.896426 0.260293
N 0.597536 1.438907 1.153658
O -0.634386 -0.945908 0.243995
H -0.209585 -1.617655 -0.293036
H -1.544566 -1.219500 0.373601
5
Structure 592 | Energy: -10.835736 Hartree
N 0.151819 1.896426 0.260293
N 0.597536 1.438907 1.153658
O 0.305730 -1.003331 -0.254455
H -0.437808 -1.603715 -0.172032
H 0.893298 -1.368406 -0.918956
5
Structure 593 | Energy: -10.835466 Hartree
N 0.151819 1.896426 0.260293
N 0.597536 1.438907 1.153658
O 0.308615 -0.902115 -0.217535
H -0.434923 -1.502499 -0.135112
H 0.896183 -1.267190 -0.882036
5
Structure 594 | Energy: -10.835236 Hartree
N 0.151819 1.896426 0.260293
N 0.597536 1.438907 1.153658
O 0.310051 -0.851742 -0.199160
H -0.433487 -1.452125 -0.116737
H 0.897619 -1.216817 -0.863661
5
Structure 595 | Energy: -10.835051 Hartree
N -0.568472 1.806213 -0.304831
N -1.054053 1.338615 0.562147
O 0.310051 -0.851742 -0.199160
H -0.433487 -1.452125 -0.116737
H 0.897619 -1.216817 -0.863661
5
Structure 596 | Energy: -10.835360 Hartree
N -0.568472 1.806213 -0.304831
N -1.054053 1.338615 0.562147
O -0.130922 -1.930681 -0.128191
H -0.874460 -2.531065 -0.045768
H 0.456646 -2.295756 -0.792692
5
Structure 597 | Energy: -10.835110 Hartree
N -1.003463 1.798178 -0.333524
N -0.619062 1.346650 0.590839
O -0.130922 -1.930681 -0.128191
H -0.874460 -2.531065 -0.045768
H 0.456646 -2.295756 -0.792692
5
Structure 598 | Energy: -10.834645 Hartree
N -0.777679 1.162599 0.492589
N -0.844846 1.982229 -0.235274
O -0.130922 -1.930681 -0.128191
H -0.874460 -2.531065 -0.045768
H 0.456646 -2.295756 -0.792692
5
Structure 599 | Energy: -10.835438 Hartree
N -0.101275 0.570733 2.298710
N -0.168443 1.390362 1.570846
O -0.130922 -1.930681 -0.128191
H -0.874460 -2.531065 -0.045768
H 0.456646 -2.295756 -0.792692
5
Structure 600 | Energy: -10.834358 Hartree
N -0.106065 -2.394517 0.203171
N -0.173233 -1.574888 -0.524692
O -0.126132 1.034568 1.967347
H -0.869669 0.434185 2.049770
H 0.461437 0.669493 1.302846
5
Structure 601 | Energy: -10.835339 Hartree
N -0.106065 -2.394517 0.203171
N -0.173233 -1.574888 -0.524692
O -0.152766 0.941741 1.887571
H -0.582833 1.759152 2.146385
H 0.597340 0.817884 2.472446
5
Structure 602 | Energy: -10.835356 Hartree
N -2.731070 -1.106994 0.120335
N -2.249884 -0.391728 -0.560065
O -0.152766 0.941741 1.887571
H -0.582833 1.759152 2.146385
H 0.597340 0.817884 2.472446
5
Structure 603 | Energy: -10.834863 Hartree
N -2.705271 -1.801971 -0.846567
N -2.224085 -1.086705 -1.526966
O -0.152766 0.941741 1.887571
H -0.582833 1.759152 2.146385
H 0.597340 0.817884 2.472446
5
Structure 604 | Energy: -10.834863 Hartree
N -2.124401 -1.559136 -1.602164
N -2.804955 -1.329540 -0.771369
O -0.152766 0.941741 1.887571
H -0.582833 1.759152 2.146385
H 0.597340 0.817884 2.472446
5
Structure 605 | Energy: -10.834668 Hartree
N -2.124401 -1.559136 -1.602164
N -2.804955 -1.329540 -0.771369
O -0.121419 1.041596 1.922626
H 0.512891 0.331471 2.038708
H -0.995920 0.660671 2.023733
5
Structure 606 | Energy: -10.834668 Hartree
N -2.124401 -1.559136 -1.602164
N -2.804955 -1.329540 -0.771369
O -0.121419 -1.980836 2.757895
H 0.512891 -1.311875 2.492858
H -0.995920 -1.602049 2.649052
5
Structure 607 | Energy: -10.834668 Hartree
N 1.632270 0.246062 -0.236461
N 0.951716 0.475658 0.594334
O -2.810999 -1.531399 -0.782238
H -2.882981 -1.010984 -1.584790
H -2.604234 -0.925203 -0.068198
5
Structure 608 | Energy: -10.834975 Hartree
N 0.774257 0.543242 0.164494
N 1.809729 0.178479 0.193378
O -2.810999 -1.531399 -0.782238
H -2.882981 -1.010984 -1.584790
H -2.604234 -0.925203 -0.068198
5
Structure 609 | Energy: -10.835633 Hartree
N 0.774257 0.543242 0.164494
N 1.809729 0.178479 0.193378
O -1.683436 -0.344720 -2.058011
H -1.755419 0.175694 -2.860563
H -1.476671 0.261476 -1.343972
5
Structure 610 | Energy: -10.834584 Hartree
N 1.204814 0.438221 0.715534
N 1.379172 0.283500 -0.357662
O -1.683436 -0.344720 -2.058011
H -1.755419 0.175694 -2.860563
H -1.476671 0.261476 -1.343972
5
Structure 611 | Energy: -10.834720 Hartree
N -1.763074 -0.204322 -1.526366
N -1.588716 -0.359043 -2.599562
O 1.284452 0.297823 0.183889
H 1.212469 0.818237 -0.618663
H 1.491216 0.904019 0.897929
5
Structure 612 | Energy: -10.834861 Hartree
N -1.970453 0.153530 -1.903754
N -1.381337 -0.716895 -2.222174
O 1.284452 0.297823 0.183889
H 1.212469 0.818237 -0.618663
H 1.491216 0.904019 0.897929
5
Structure 613 | Energy: -10.835006 Hartree
N -1.244417 -0.365483 -2.392094
N -2.107373 -0.197883 -1.733834
O 1.284452 0.297823 0.183889
H 1.212469 0.818237 -0.618663
H 1.491216 0.904019 0.897929
5
Structure 614 | Energy: -10.835075 Hartree
N -1.304869 -0.994952 -2.054722
N -2.139315 -0.808504 -1.365501
O 1.284452 0.297823 0.183889
H 1.212469 0.818237 -0.618663
H 1.491216 0.904019 0.897929
5
Structure 615 | Energy: -10.835075 Hartree
N -1.304869 -0.994952 -2.054722
N -2.139315 -0.808504 -1.365501
O 1.284452 -0.982832 0.530331
H 1.212469 -1.836875 0.099596
H 1.491216 -1.146375 1.452600
5
Structure 616 | Energy: -10.834828 Hartree
N 1.709216 -1.132994 0.213223
N 0.874770 -0.946546 0.902444
O -1.729633 -0.844791 -1.737614
H -1.801616 -1.698833 -2.168349
H -1.522868 -1.008334 -0.815345
5
Structure 617 | Energy: -10.834615 Hartree
N 2.658419 -0.790743 0.575880
N 1.823973 -0.604296 1.265101
O -1.729633 -0.844791 -1.737614
H -1.801616 -1.698833 -2.168349
H -1.522868 -1.008334 -0.815345
5
Structure 618 | Energy: -10.834645 Hartree
N 2.534877 -0.797109 0.493880
N 1.700430 -0.610661 1.183101
O -1.729633 -0.844791 -1.737614
H -1.801616 -1.698833 -2.168349
H -1.522868 -1.008334 -0.815345
5
Structure 619 | Energy: -10.834540 Hartree
N 3.187505 0.684746 0.675848
N 2.353059 0.871193 1.365069
O -1.729633 -0.844791 -1.737614
H -1.801616 -1.698833 -2.168349
H -1.522868 -1.008334 -0.815345
5
Structure 620 | Energy: -10.834564 Hartree
N 3.187505 0.684746 0.675848
N 2.353059 0.871193 1.365069
O -2.053893 -0.211997 -1.311675
H -2.125875 -1.066040 -1.742409
H -1.847128 -0.375540 -0.389406
5
Structure 621 | Energy: -10.834627 Hartree
N 3.203973 1.383746 0.074935
N 2.861738 0.421432 0.478562
O -2.053893 -0.211997 -1.311675
H -2.125875 -1.066040 -1.742409
H -1.847128 -0.375540 -0.389406
5
Structure 622 | Energy: -10.834731 Hartree
N 3.203973 1.383746 0.074935
N 2.861738 0.421432 0.478562
O -1.594393 0.549217 -0.767220
H -1.666376 -0.304825 -1.197955
H -1.387629 0.385674 0.155049
5
Structure 623 | Energy: -10.834760 Hartree
N 3.203973 1.383746 0.074935
N 2.861738 0.421432 0.478562
O -1.493268 0.558199 -0.744970
H -1.565250 -0.295844 -1.175705
H -1.286503 0.394656 0.177299
5
Structure 624 | Energy: -10.835101 Hartree
N 3.203973 1.383746 0.074935
N 2.861738 0.421432 0.478562
O -0.896013 -0.376911 0.105829
H -0.967995 -1.230953 -0.324906
H -0.689248 -0.540453 1.028098
5
Structure 625 | Energy: -10.834792 Hartree
N 3.203973 1.383746 0.074935
N 2.861738 0.421432 0.478562
O -0.413990 2.373897 -1.471636
H -0.357926 2.352568 -2.428978
H -0.708629 1.507240 -1.184978
5
Structure 626 | Energy: -10.834723 Hartree
N 3.203973 1.383746 0.074935
N 2.861738 0.421432 0.478562
O -0.413988 2.373898 -1.471638
H -1.279321 1.985891 -1.615693
H 0.212734 1.873905 -1.998234
5
Structure 627 | Energy: -10.834786 Hartree
N 3.203973 1.383746 0.074935
N 2.861738 0.421432 0.478562
O -0.413991 2.373897 -1.471636
H 0.138860 2.026931 -2.174539
H -1.205398 1.832866 -1.439408
5
Structure 628 | Energy: -10.834786 Hartree
N -0.779994 0.808642 2.253676
N -0.058698 -0.000146 2.075682
O -0.413991 2.373897 -1.471636
H 0.138860 2.026931 -2.174539
H -1.205398 1.832866 -1.439408
5
Structure 629 | Energy: -10.834567 Hartree
N -0.779994 0.808642 2.253676
N -0.058698 -0.000146 2.075682
O -0.075675 2.947823 -2.230919
H 0.477176 2.600856 -2.933821
H -0.867082 2.406791 -2.198690
5
Structure 630 | Energy: -10.834567 Hartree
N -0.779994 0.808642 2.253676
N -0.058698 -0.000146 2.075682
O -1.991325 1.318325 -2.589530
H -1.581916 0.849342 -3.319285
H -1.366169 1.982256 -2.292120
5
Structure 631 | Energy: -10.834609 Hartree
N -2.294085 1.733627 -2.524724
N -1.572789 0.924838 -2.702718
O -0.477233 0.393340 2.188870
H -0.067824 -0.075642 1.459115
H 0.147923 1.057271 2.486280
5
Structure 632 | Energy: -10.834623 Hartree
N -2.294085 1.733627 -2.524724
N -1.572789 0.924838 -2.702718
O -1.190732 -0.012681 2.003882
H -0.781323 -0.481663 1.274127
H -0.565575 0.651251 2.301293
5
Structure 633 | Energy: -10.834643 Hartree
N -2.277431 1.705938 -2.429167
N -1.556135 0.897149 -2.607161
O -1.190732 -0.012681 2.003882
H -0.781323 -0.481663 1.274127
H -0.565575 0.651251 2.301293
5
Structure 634 | Energy: -10.834474 Hartree
N -2.277431 1.705938 -2.429167
N -1.556135 0.897149 -2.607161
O -1.294347 0.976966 3.090067
H -0.884938 0.507984 2.360312
H -0.669191 1.640898 3.387477
5
Structure 635 | Energy: -10.834470 Hartree
N -1.549731 1.829723 -2.500801
N -1.564274 0.736257 -2.601840
O -1.294347 0.976966 3.090067
H -0.884938 0.507984 2.360312
H -0.669191 1.640898 3.387477
5
Structure 636 | Energy: -10.834558 Hartree
N -1.229188 1.534608 3.116395
N -1.243731 0.441141 3.015356
O -1.614890 1.272082 -2.527129
H -1.205481 0.803099 -3.256884
H -0.989734 1.936013 -2.229719
5
Structure 637 | Energy: -10.834470 Hartree
N -1.549731 1.829723 -2.500801
N -1.564274 0.736257 -2.601840
O -1.294347 0.976966 3.090067
H -0.884938 0.507984 2.360312
H -0.669191 1.640898 3.387477
5
Structure 638 | Energy: -10.834469 Hartree
N -1.563947 0.775828 -2.761703
N -1.550058 1.790151 -2.340937
O -1.294347 0.976966 3.090067
H -0.884938 0.507984 2.360312
H -0.669191 1.640898 3.387477
5
Structure 639 | Energy: -10.834466 Hartree
N -1.563947 0.775828 -2.761703
N -1.550058 1.790151 -2.340937
O -1.221907 0.944736 3.110401
H -1.459807 0.763758 2.198944
H -1.244083 1.896681 3.226103
5
Structure 640 | Energy: -10.834573 Hartree
N -1.562015 0.871425 -2.914791
N -1.551990 1.694555 -2.187849
O -1.221907 0.944736 3.110401
H -1.459807 0.763758 2.198944
H -1.244083 1.896681 3.226103
5
Structure 641 | Energy: -10.834611 Hartree
N -1.562015 0.871425 -2.914791
N -1.551990 1.694555 -2.187849
O -1.221906 0.944735 3.110399
H -2.102397 1.240429 2.870811
H -0.601515 1.420027 2.554260
5
Structure 642 | Energy: -10.834591 Hartree
N -1.562015 0.871425 -2.914791
N -1.551990 1.694555 -2.187849
O -1.081709 0.222849 2.570913
H -1.962200 0.518543 2.331325
H -0.461317 0.698141 2.014774
5
Structure 643 | Energy: -10.834618 Hartree
N -1.562015 0.871425 -2.914791
N -1.551990 1.694555 -2.187849
O -1.097693 0.258132 2.394752
H -1.978184 0.553826 2.155164
H -0.477302 0.733424 1.838613
5
Structure 644 | Energy: -10.834687 Hartree
N -1.695187 -0.874295 -3.441623
N -1.685162 -0.051165 -2.714681
O -1.097693 0.258132 2.394752
H -1.978184 0.553826 2.155164
H -0.477302 0.733424 1.838613
5
Structure 645 | Energy: -10.834531 Hartree
N -1.695187 -0.874295 -3.441623
N -1.685162 -0.051165 -2.714681
O -0.032828 -0.355625 3.624099
H -0.913319 -0.059932 3.384510
H 0.587564 0.119666 3.067959
5
Structure 646 | Energy: -10.834479 Hartree
N 0.694332 -1.590498 2.704549
N 0.704357 -0.767369 3.431491
O -0.938028 1.239701 -3.188789
H -0.058785 0.873306 -3.075701
H -1.560928 0.592259 -2.852791
5
Structure 647 | Energy: -10.834479 Hartree
N 0.262241 -1.671336 2.768666
N 0.166024 -0.868083 3.511374
O -0.938028 1.239701 -3.188789
H -0.058785 0.873306 -3.075701
H -1.560928 0.592259 -2.852791
5
Structure 648 | Energy: -10.834482 Hartree
N 0.234991 -1.612595 2.617695
N 0.138773 -0.809342 3.360402
O -0.938028 1.239701 -3.188789
H -0.058785 0.873306 -3.075701
H -1.560928 0.592259 -2.852791
5
Structure 649 | Energy: -10.834481 Hartree
N 0.246198 -1.636753 2.679782
N 0.149980 -0.833499 3.422490
O -0.938028 1.239701 -3.188789
H -0.058785 0.873306 -3.075701
H -1.560928 0.592259 -2.852791
5
Structure 650 | Energy: -10.834445 Hartree
N 0.246198 -1.636753 2.679782
N 0.149980 -0.833499 3.422490
O -0.957693 1.205823 -3.212410
H -0.413202 0.416147 -3.219041
H -0.894395 1.587130 -2.334528
5
Structure 651 | Energy: -10.834518 Hartree
N 0.179925 -0.738295 2.818001
N 0.216252 -1.731956 3.284270
O -0.957693 1.205823 -3.212410
H -0.413202 0.416147 -3.219041
H -0.894395 1.587130 -2.334528
5
Structure 652 | Energy: -10.834520 Hartree
N 0.171206 -0.719499 2.769693
N 0.207532 -1.713160 3.235962
O -0.957693 1.205823 -3.212410
H -0.413202 0.416147 -3.219041
H -0.894395 1.587130 -2.334528
5
Structure 653 | Energy: -10.834520 Hartree
N 0.171206 -0.719499 2.769693
N 0.207532 -1.713160 3.235962
O -0.957691 1.205821 -3.212412
H -1.074014 1.424148 -2.285641
H -0.233605 0.579164 -3.267896
5
Structure 654 | Energy: -10.834419 Hartree
N 0.735682 -1.271670 3.003958
N -0.356944 -1.160989 3.001697
O -0.957691 1.205821 -3.212412
H -1.074014 1.424148 -2.285641
H -0.233605 0.579164 -3.267896
5
Structure 655 | Energy: -10.834405 Hartree
N 0.735682 -1.271670 3.003958
N -0.356944 -1.160989 3.001697
O -0.004225 0.698599 -2.734268
H -0.120548 0.916926 -1.807497
H 0.719861 0.071942 -2.789751
5
Structure 656 | Energy: -10.834405 Hartree
N 2.764239 1.099185 2.700048
N 2.477953 2.152269 2.576985
O -0.004225 0.698599 -2.734268
H -0.120548 0.916926 -1.807497
H 0.719861 0.071942 -2.789751
5
Structure 657 | Energy: -10.834522 Hartree
N 2.764239 1.099185 2.700048
N 2.477953 2.152269 2.576985
O 0.348667 -0.878726 -1.254197
H 0.232344 -0.660399 -0.327426
H 1.072753 -1.505383 -1.309680
5
Structure 658 | Energy: -10.834658 Hartree
N 2.764239 1.099185 2.700048
N 2.477953 2.152269 2.576985
O 0.420210 -0.896688 -1.154237
H 0.290923 -0.229130 -1.830812
H -0.121356 -1.651568 -1.392858
5
Structure 659 | Energy: -10.834692 Hartree
N 2.689032 1.014273 2.570899
N 2.402746 2.067356 2.447835
O 0.420210 -0.896688 -1.154237
H 0.290923 -0.229130 -1.830812
H -0.121356 -1.651568 -1.392858
5
Structure 660 | Energy: -10.834742 Hartree
N -0.567418 -0.912355 -1.212808
N -0.853704 0.140728 -1.335872
O 1.935134 1.286662 2.478666
H 1.824513 0.616111 3.155590
H 2.676399 1.835858 2.741323
5
Structure 661 | Energy: -10.834534 Hartree
N -0.567418 -0.912355 -1.212808
N -0.853704 0.140728 -1.335872
O 2.022204 1.311522 2.511951
H 2.008885 0.495795 3.016446
H 1.110061 1.561604 2.352160
5
Structure 662 | Energy: -10.834697 Hartree
N 2.113564 0.753330 2.592770
N 1.827278 1.806413 2.469707
O -0.658778 -0.354164 -1.293627
H -0.672096 -1.169890 -0.789132
H -1.570920 -0.104082 -1.453418
5
Structure 663 | Energy: -10.834699 Hartree
N 1.432655 1.353847 2.614048
N 2.508187 1.205896 2.448429
O -0.658778 -0.354164 -1.293627
H -0.672096 -1.169890 -0.789132
H -1.570920 -0.104082 -1.453418
5
Structure 664 | Energy: -10.834421 Hartree
N -1.248327 -0.311838 -1.191530
N -0.172795 -0.459789 -1.357149
O 2.022204 1.311522 2.511951
H 2.008885 0.495795 3.016446
H 1.110061 1.561604 2.352160
5
Structure 665 | Energy: -10.834392 Hartree
N 0.235330 -3.592437 2.585566
N 0.388874 -3.122408 1.604961
O 2.022204 1.311522 2.511951
H 2.008885 0.495795 3.016446
H 1.110061 1.561604 2.352160
5
Structure 666 | Energy: -10.834450 Hartree
N 0.555692 -3.446380 1.389749
N 0.709236 -2.976351 0.409144
O 2.022204 1.311522 2.511951
H 2.008885 0.495795 3.016446
H 1.110061 1.561604 2.352160
5
Structure 667 | Energy: -10.834710 Hartree
N 1.893649 1.044858 3.021541
N 2.047193 1.514886 2.040936
O 0.684246 -3.179716 0.880159
H 0.670928 -3.995442 1.384655
H -0.227896 -2.929633 0.720368
5
Structure 668 | Energy: -10.834755 Hartree
N 1.893649 1.044858 3.021541
N 2.047193 1.514886 2.040936
O 0.732485 -3.017788 0.938992
H 0.719167 -3.833514 1.443487
H -0.179657 -2.767706 0.779201
5
Structure 669 | Energy: -10.834672 Hartree
N 1.893649 1.044858 3.021541
N 2.047193 1.514886 2.040936
O 0.032177 -2.542861 -0.070309
H 0.018858 -3.358587 0.434186
H -0.879966 -2.292779 -0.230101
5
Structure 670 | Energy: -10.834516 Hartree
N -0.096378 -2.809525 0.439280
N 0.057166 -2.339496 -0.541324
O 2.022204 1.311522 2.511951
H 2.008885 0.495795 3.016446
H 1.110061 1.561604 2.352160
5
Structure 671 | Energy: -10.834663 Hartree
N -0.096378 -2.809525 0.439280
N 0.057166 -2.339496 -0.541324
O 1.906886 1.276070 2.533235
H 2.422703 1.965140 2.109894
H 2.526570 0.654951 2.920896
5
Structure 672 | Energy: -10.834594 Hartree
N -0.629246 -3.312480 0.667896
N -0.475702 -2.842452 -0.312709
O 1.906886 1.276070 2.533235
H 2.422703 1.965140 2.109894
H 2.526570 0.654951 2.920896
5
Structure 673 | Energy: -10.834595 Hartree
N -0.629246 -3.312480 0.667896
N -0.475702 -2.842452 -0.312709
O 1.705033 1.400563 2.501747
H 2.279585 2.052351 2.095342
H 2.263670 0.800758 2.999980
5
Structure 674 | Energy: -10.834612 Hartree
N -0.571132 -3.200281 0.726220
N -0.417588 -2.730252 -0.254385
O 1.705033 1.400563 2.501747
H 2.279585 2.052351 2.095342
H 2.263670 0.800758 2.999980
5
Structure 675 | Energy: -10.834590 Hartree
N 0.002707 -3.665022 1.491276
N 0.027055 -3.311891 0.451663
O 1.705033 1.400563 2.501747
H 2.279585 2.052351 2.095342
H 2.263670 0.800758 2.999980
5
Structure 676 | Energy: -10.834651 Hartree
N -2.150986 -2.316438 1.707334
N -2.375720 -1.683948 0.838116
O 1.705033 1.400563 2.501747
H 2.279585 2.052351 2.095342
H 2.263670 0.800758 2.999980
5
Structure 677 | Energy: -10.834630 Hartree
N -2.150986 -2.316438 1.707334
N -2.375720 -1.683948 0.838116
O 1.705033 1.400566 2.501746
H 2.322792 0.685889 2.335275
H 2.220464 2.167172 2.760056
5
Structure 678 | Energy: -10.834646 Hartree
N -2.294179 -0.537107 -0.586365
N -1.998611 -1.489349 -0.125970
O 1.705033 1.400566 2.501746
H 2.322792 0.685889 2.335275
H 2.220464 2.167172 2.760056
5
Structure 679 | Energy: -10.834408 Hartree
N 1.620655 1.879593 2.276687
N 1.916222 0.927351 2.737082
O -2.209801 -1.016134 -0.361306
H -1.592042 -1.730811 -0.527777
H -1.694369 -0.249528 -0.102996
5
Structure 680 | Energy: -10.834390 Hartree
N 1.893666 1.856963 1.252106
N 2.189234 0.904721 1.712501
O -2.209801 -1.016134 -0.361306
H -1.592042 -1.730811 -0.527777
H -1.694369 -0.249528 -0.102996
5
Structure 681 | Energy: -10.834381 Hartree
N 1.893666 1.856963 1.252106
N 2.189234 0.904721 1.712501
O -2.209801 -1.016134 -0.361306
H -1.583786 -1.679234 -0.658805
H -1.702624 -0.301102 0.028027
5
Structure 682 | Energy: -10.834377 Hartree
N 1.893666 1.856963 1.252106
N 2.189234 0.904721 1.712501
O -2.096369 -0.951288 -0.311509
H -1.470355 -1.614389 -0.609009
H -1.589192 -0.236257 0.077824
5
Structure 683 | Energy: -10.834536 Hartree
N 1.893666 1.856963 1.252106
N 2.189234 0.904721 1.712501
O -2.038396 -0.965705 -0.245333
H -1.324242 -0.453882 -0.630201
H -2.655448 -1.167940 -0.951326
5
Structure 684 | Energy: -10.834462 Hartree
N 2.629255 2.960323 1.244857
N 2.924823 2.008081 1.705252
O -2.038396 -0.965705 -0.245333
H -1.324242 -0.453882 -0.630201
H -2.655448 -1.167940 -0.951326
5
Structure 685 | Energy: -10.834486 Hartree
N 2.633686 2.974453 1.195066
N 3.044422 2.389482 0.361284
O -2.038396 -0.965705 -0.245333
H -1.324242 -0.453882 -0.630201
H -2.655448 -1.167940 -0.951326
5
Structure 686 | Energy: -10.834488 Hartree
N 2.581961 2.935910 1.183552
N 2.992697 2.350939 0.349770
O -2.038396 -0.965705 -0.245333
H -1.324242 -0.453882 -0.630201
H -2.655448 -1.167940 -0.951326
5
Structure 687 | Energy: -10.834412 Hartree
N 2.581961 2.935910 1.183552
N 2.992697 2.350939 0.349770
O -2.087552 -0.977014 -0.322352
H -1.695573 -0.947102 0.552611
H -1.503913 -0.495223 -0.911691
5
Structure 688 | Energy: -10.834413 Hartree
N 2.581961 2.935910 1.183552
N 2.992697 2.350939 0.349770
O -2.139285 -1.015563 -0.333868
H -1.747307 -0.985651 0.541095
H -1.555646 -0.533771 -0.923207
5
Structure 689 | Energy: -10.834410 Hartree
N 2.421497 2.816342 1.147832
N 2.832234 2.231371 0.314049
O -2.139285 -1.015563 -0.333868
H -1.747307 -0.985651 0.541095
H -1.555646 -0.533771 -0.923207
5
Structure 690 | Energy: -10.834407 Hartree
N 2.276244 2.708108 1.115497
N 2.686981 2.123137 0.281715
O -2.139285 -1.015563 -0.333868
H -1.747307 -0.985651 0.541095
H -1.555646 -0.533771 -0.923207
5
Structure 691 | Energy: -10.834407 Hartree
N 2.210918 2.554076 1.614645
N 2.455282 1.576821 2.052077
O -2.139285 -1.015563 -0.333868
H -1.747307 -0.985651 0.541095
H -1.555646 -0.533771 -0.923207
5
Structure 692 | Energy: -10.834512 Hartree
N 2.210918 2.554076 1.614645
N 2.455282 1.576821 2.052077
O 0.930657 -3.246049 -0.169859
H 1.668187 -2.935935 0.359275
H 0.468813 -2.470910 -0.495339
5
Structure 693 | Energy: -10.834515 Hartree
N 2.167959 2.320528 2.265798
N 2.542128 1.314149 2.496639
O 0.930657 -3.246049 -0.169859
H 1.668187 -2.935935 0.359275
H 0.468813 -2.470910 -0.495339
5
Structure 694 | Energy: -10.834541 Hartree
N 0.758998 -2.682136 -0.273884
N 1.133167 -3.688515 -0.043043
O 2.339618 1.756615 2.369823
H 3.077147 2.066729 2.898957
H 1.877774 2.531755 2.044343
5
Structure 695 | Energy: -10.834515 Hartree
N 2.167959 2.320528 2.265798
N 2.542128 1.314149 2.496639
O 0.930657 -3.246049 -0.169859
H 1.668187 -2.935935 0.359275
H 0.468813 -2.470910 -0.495339
5
Structure 696 | Energy: -10.834541 Hartree
N 0.758998 -2.682136 -0.273884
N 1.133167 -3.688515 -0.043043
O 2.339618 1.756615 2.369823
H 3.077147 2.066729 2.898957
H 1.877774 2.531755 2.044343
5
Structure 697 | Energy: -10.834550 Hartree
N 0.758998 -2.682136 -0.273884
N 1.133167 -3.688515 -0.043043
O 2.313916 1.665357 2.323495
H 3.051445 1.975471 2.852628
H 1.852072 2.440496 1.998014
5
Structure 698 | Energy: -10.834547 Hartree
N 2.037834 -2.431413 -1.031759
N 2.433434 -3.428984 -0.798434
O 2.313916 1.665357 2.323495
H 3.051445 1.975471 2.852628
H 1.852072 2.440496 1.998014
5
Structure 699 | Energy: -10.834547 Hartree
N 3.338798 -2.935805 -0.104757
N 2.590133 -3.489737 -0.686778
O 2.313916 1.665357 2.323495
H 3.051445 1.975471 2.852628
H 1.852072 2.440496 1.998014
5
Structure 700 | Energy: -10.834624 Hartree
N -0.373083 2.145590 -0.041240
N -1.121748 1.591657 -0.623261
O 1.930570 -3.063824 0.004031
H 1.405627 -3.834675 0.228366
H 2.812313 -3.209421 0.352471
5
Structure 701 | Energy: -10.834560 Hartree
N -0.373083 2.145590 -0.041240
N -1.121748 1.591657 -0.623261
O 1.306385 -3.702958 -0.737154
H 0.781442 -4.473809 -0.512819
H 2.188128 -3.848555 -0.388715
5
Structure 702 | Energy: -10.834573 Hartree
N -0.320531 2.003098 -0.050689
N -1.069196 1.449165 -0.632710
O 1.306385 -3.702958 -0.737154
H 0.781442 -4.473809 -0.512819
H 2.188128 -3.848555 -0.388715
5
Structure 703 | Energy: -10.834593 Hartree
N 0.309130 1.139107 1.170005
N -0.439535 0.585174 0.587984
O 1.306385 -3.702958 -0.737154
H 0.781442 -4.473809 -0.512819
H 2.188128 -3.848555 -0.388715
5
Structure 704 | Energy: -10.834587 Hartree
N 0.309130 1.139107 1.170005
N -0.439535 0.585174 0.587984
O 1.318705 -3.743828 -0.751178
H 0.793762 -4.514678 -0.526843
H 2.200447 -3.889424 -0.402739
5
Structure 705 | Energy: -10.834612 Hartree
N 0.355823 0.984205 1.116851
N -0.392842 0.430272 0.534830
O 1.318705 -3.743828 -0.751178
H 0.793762 -4.514678 -0.526843
H 2.200447 -3.889424 -0.402739
5
Structure 706 | Energy: -10.834612 Hartree
N 0.355823 0.984205 1.116851
N -0.392842 0.430272 0.534830
O 1.255864 -3.735184 -0.825820
H 0.692893 -4.493585 -0.658508
H 2.110450 -3.923650 -0.433084
5
Structure 707 | Energy: -10.834580 Hartree
N 0.355823 0.984205 1.116851
N -0.392842 0.430272 0.534830
O 1.290921 -3.844180 -0.770690
H 0.414682 -3.628603 -1.096011
H 1.832228 -3.058634 -0.870604
5
Structure 708 | Energy: -10.834623 Hartree
N 1.646513 -3.511198 -0.503473
N 0.897848 -4.065130 -1.085494
O 0.000231 0.651223 0.849634
H -0.876008 0.866799 0.524313
H 0.541538 1.436769 0.749720
5
Structure 709 | Energy: -10.834580 Hartree
N 0.355823 0.984205 1.116851
N -0.392842 0.430272 0.534830
O 1.290921 -3.844180 -0.770690
H 0.414682 -3.628603 -1.096011
H 1.832228 -3.058634 -0.870604
5
Structure 710 | Energy: -10.834456 Hartree
N -0.509136 0.711312 0.579281
N 0.472117 0.703165 1.072400
O 1.290921 -3.844180 -0.770690
H 0.414682 -3.628603 -1.096011
H 1.832228 -3.058634 -0.870604
5
Structure 711 | Energy: -10.834758 Hartree
N 0.781554 -3.784090 -1.041043
N 1.762807 -3.792238 -0.547924
O 0.000231 0.651223 0.849634
H -0.876008 0.866799 0.524313
H 0.541538 1.436769 0.749720
5
Structure 712 | Energy: -10.834977 Hartree
N 0.781554 -3.784090 -1.041043
N 1.762807 -3.792238 -0.547924
O -0.149930 0.056436 0.531844
H -1.026169 0.272013 0.206523
H 0.391376 0.841982 0.431930
5
Structure 713 | Energy: -10.834532 Hartree
N 0.781554 -3.784090 -1.041043
N 1.762807 -3.792238 -0.547924
O -0.162433 0.175716 0.504312
H 0.399679 -0.423244 0.999670
H -0.836028 -0.355970 0.075759
5
Structure 714 | Energy: -10.834539 Hartree
N 0.766001 -3.741985 -1.026982
N 1.747254 -3.750133 -0.533864
O -0.162433 0.175716 0.504312
H 0.399679 -0.423244 0.999670
H -0.836028 -0.355970 0.075759
5
Structure 715 | Energy: -10.834544 Hartree
N 0.766001 -3.741985 -1.026982
N 1.747254 -3.750133 -0.533864
O -0.152631 0.149180 0.495451
H 0.409481 -0.449780 0.990809
H -0.826226 -0.382506 0.066898
5
Structure 716 | Energy: -10.834990 Hartree
N -0.649495 0.089990 0.252630
N 0.331757 0.081843 0.745748
O 1.262865 -3.682796 -0.784161
H 1.824977 -4.281755 -0.288804
H 0.589270 -4.214482 -1.212714
5
Structure 717 | Energy: -10.834990 Hartree
N 1.069633 -0.003629 1.537987
N 0.321821 0.082384 0.738320
O 1.262865 -3.682796 -0.784161
H 1.824977 -4.281755 -0.288804
H 0.589270 -4.214482 -1.212714
5
Structure 718 | Energy: -10.834965 Hartree
N 1.069633 -0.003629 1.537987
N 0.321821 0.082384 0.738320
O 1.269243 -3.725838 -0.805976
H 1.831355 -4.324798 -0.310619
H 0.595648 -4.257524 -1.234529
5
Structure 719 | Energy: -10.835351 Hartree
N 1.476796 -0.225195 0.749062
N 0.728984 -0.139182 -0.050605
O 1.269243 -3.725838 -0.805976
H 1.831355 -4.324798 -0.310619
H 0.595648 -4.257524 -1.234529
5
Structure 720 | Energy: -10.835244 Hartree
N 1.476796 -0.225195 0.749062
N 0.728984 -0.139182 -0.050605
O 0.375968 3.476125 0.438395
H 1.024888 4.063942 0.046634
H -0.108822 3.983575 1.092268
5
Structure 721 | Energy: -10.835296 Hartree
N 1.463033 -0.153871 0.751053
N 0.715221 -0.067858 -0.048614
O 0.375968 3.476125 0.438395
H 1.024888 4.063942 0.046634
H -0.108822 3.983575 1.092268
5
Structure 722 | Energy: -10.835262 Hartree
N 1.463033 -0.153871 0.751053
N 0.715221 -0.067858 -0.048614
O 0.367248 3.521316 0.439657
H 1.016168 4.109133 0.047895
H -0.117542 4.028766 1.093530
5
Structure 723 | Energy: -10.834483 Hartree
N 0.750338 3.539593 0.854156
N 0.002526 3.625606 0.054489
O 1.079944 -0.172149 0.336554
H 1.728863 0.415668 -0.055208
H 0.595153 0.335302 0.990427
5
Structure 724 | Energy: -10.834483 Hartree
N 1.336450 3.581151 0.313582
N 0.593138 3.667483 -0.490236
O 1.079944 -0.172149 0.336554
H 1.728863 0.415668 -0.055208
H 0.595153 0.335302 0.990427
5
Structure 725 | Energy: -10.834354 Hartree
N 1.336450 3.581151 0.313582
N 0.593138 3.667483 -0.490236
O 0.815541 -0.327674 -0.091892
H 1.464460 0.260143 -0.483654
H 0.330750 0.179776 0.561981
5
Structure 726 | Energy: -10.834397 Hartree
N 1.024114 4.286287 0.297191
N 0.280802 4.372619 -0.506626
O 0.815541 -0.327674 -0.091892
H 1.464460 0.260143 -0.483654
H 0.330750 0.179776 0.561981
5
Structure 727 | Energy: -10.834397 Hartree
N 1.024114 4.286287 0.297191
N 0.280802 4.372619 -0.506626
O 0.815543 -0.327674 -0.091895
H 0.334288 0.178331 0.565718
H 1.460883 0.261585 -0.487354
5
Structure 728 | Energy: -10.834690 Hartree
N 1.024114 4.286287 0.297191
N 0.280802 4.372619 -0.506626
O 1.606168 0.444885 2.286133
H 0.942105 1.078306 2.565240
H 2.198058 0.900451 1.684298
5
Structure 729 | Energy: -10.834957 Hartree
N 0.976245 4.110014 0.280680
N 0.328672 4.548892 -0.490115
O 1.606168 0.444885 2.286133
H 0.942105 1.078306 2.565240
H 2.198058 0.900451 1.684298
5
Structure 730 | Energy: -10.834920 Hartree
N 0.976245 4.110014 0.280680
N 0.328672 4.548892 -0.490115
O 1.606167 0.444885 2.286132
H 1.577608 1.209241 2.864965
H 1.562577 0.769521 1.384584
5
Structure 731 | Energy: -10.834903 Hartree
N 0.976245 4.110014 0.280680
N 0.328672 4.548892 -0.490115
O 1.615408 0.407676 2.309223
H 1.586850 1.172031 2.888056
H 1.571819 0.732311 1.407674
5
Structure 732 | Energy: -10.834497 Hartree
N 0.976245 4.110014 0.280680
N 0.328672 4.548892 -0.490115
O 1.619860 0.502235 2.237759
H 1.291167 0.836617 3.074569
H 1.796843 -0.433129 2.355441
5
Structure 733 | Energy: -10.834451 Hartree
N 1.781695 3.462557 -0.477688
N 1.134122 3.901435 -1.248482
O 1.619860 0.502235 2.237759
H 1.291167 0.836617 3.074569
H 1.796843 -0.433129 2.355441
5
Structure 734 | Energy: -10.834451 Hartree
N 1.781695 3.462557 -0.477688
N 1.134122 3.901435 -1.248482
O 2.887030 -0.193591 0.776969
H 3.681315 -0.475856 0.319214
H 2.642078 -0.897262 1.381058
5
Structure 735 | Energy: -10.834455 Hartree
N 1.810013 3.386308 -0.445716
N 1.162440 3.825187 -1.216510
O 2.887030 -0.193591 0.776969
H 3.681315 -0.475856 0.319214
H 2.642078 -0.897262 1.381058
5
Structure 736 | Energy: -10.834671 Hartree
N 1.810013 3.386308 -0.445716
N 1.162440 3.825187 -1.216510
O 2.968395 0.865086 -0.436082
H 3.762681 0.582820 -0.893837
H 2.723443 0.161414 0.168006
5
Structure 737 | Energy: -10.835406 Hartree
N 0.480851 1.983479 0.149272
N -0.080608 2.707709 -0.455991
O 2.968395 0.865086 -0.436082
H 3.762681 0.582820 -0.893837
H 2.723443 0.161414 0.168006
5
Structure 738 | Energy: -10.835016 Hartree
N 3.279862 0.447804 -0.125263
N 2.718403 1.172034 -0.730526
O 0.169385 2.400760 -0.161547
H 0.963670 2.118495 -0.619302
H -0.075568 1.697088 0.442541
5
Structure 739 | Energy: -10.835750 Hartree
N 3.279862 0.447804 -0.125263
N 2.718403 1.172034 -0.730526
O 0.211227 2.319746 -0.096230
H 0.454874 1.947825 -0.946179
H -0.230898 3.153617 -0.267291
5
Structure 740 | Energy: -10.835750 Hartree
N 3.279862 0.447804 -0.125263
N 2.718403 1.172034 -0.730526
O 2.499734 -0.632220 2.370825
H 2.844202 -1.134190 1.629563
H 2.947391 -0.946087 3.158968
5
Structure 741 | Energy: -10.835544 Hartree
N 3.279862 0.447804 -0.125263
N 2.718403 1.172034 -0.730526
O 2.515709 -0.579992 2.272486
H 2.860177 -1.081963 1.531224
H 2.963366 -0.893859 3.060629
5
Structure 742 | Energy: -10.835544 Hartree
N 3.279862 0.447804 -0.125263
N 2.718403 1.172034 -0.730526
O 2.515709 -2.094331 0.460498
H 2.860177 -1.453968 1.086101
H 2.963366 -2.925677 0.629448
5
Structure 743 | Energy: -10.834361 Hartree
N 1.489199 -1.287609 -1.865147
N 1.486195 -0.272474 -2.284170
O 2.515709 -2.094331 0.460498
H 2.860177 -1.453968 1.086101
H 2.963366 -2.925677 0.629448
5
Structure 744 | Energy: -10.834211 Hartree
N 1.489199 -1.287609 -1.865147
N 1.486195 -0.272474 -2.284170
O 2.489762 -2.062270 0.398079
H 2.834230 -1.421907 1.023681
H 2.937419 -2.893617 0.567029
5
Structure 745 | Energy: -10.834517 Hartree
N 2.535586 -2.580524 0.652048
N 2.532582 -1.565389 0.233025
O 1.443375 -0.769356 -2.119117
H 1.787843 -0.128992 -1.493514
H 1.891032 -1.600702 -1.950166
5
Structure 746 | Energy: -10.835063 Hartree
N 2.535586 -2.580524 0.652048
N 2.532582 -1.565389 0.233025
O 0.895139 -1.261429 -2.258077
H 1.239607 -0.621066 -1.632475
H 1.342796 -2.092776 -2.089127
5
Structure 747 | Energy: -10.834996 Hartree
N 2.535586 -2.580524 0.652048
N 2.532582 -1.565389 0.233025
O 0.920126 -1.273978 -2.216456
H 1.264594 -0.633615 -1.590853
H 1.367783 -2.105325 -2.047505
5
Structure 748 | Energy: -10.834941 Hartree
N 2.520978 -2.573188 0.627715
N 2.517974 -1.558053 0.208693
O 0.920126 -1.273978 -2.216456
H 1.264594 -0.633615 -1.590853
H 1.367783 -2.105325 -2.047505
5
Structure 749 | Energy: -10.834933 Hartree
N 2.520978 -2.573188 0.627715
N 2.517974 -1.558053 0.208693
O 1.613369 -1.345215 -2.545921
H 1.552951 -0.735054 -1.808251
H 2.214554 -2.046108 -2.286299
5
Structure 750 | Energy: -10.834778 Hartree
N 2.505347 -2.560422 0.575812
N 2.502343 -1.545287 0.156790
O 1.613369 -1.345215 -2.545921
H 1.552951 -0.735054 -1.808251
H 2.214554 -2.046108 -2.286299
5
Structure 751 | Energy: -10.834279 Hartree
N 2.505347 -2.560422 0.575812
N 2.502343 -1.545287 0.156790
O 3.180718 -1.643897 -2.658486
H 3.503354 -1.071960 -1.959275
H 2.877234 -2.454495 -2.245076
5
Structure 752 | Energy: -10.834196 Hartree
N 2.510590 -2.557362 0.552903
N 2.507586 -1.542227 0.133880
O 3.180718 -1.643897 -2.658486
H 3.503354 -1.071960 -1.959275
H 2.877234 -2.454495 -2.245076
5
Structure 753 | Energy: -10.834221 Hartree
N 2.510590 -2.557362 0.552903
N 2.507586 -1.542227 0.133880
O 3.158698 -1.635389 -2.651403
H 3.678101 -1.139480 -2.015482
H 3.051988 -2.522017 -2.301285
5
Structure 754 | Energy: -10.833946 Hartree
N 2.207914 -2.887252 0.383640
N 2.204910 -1.872117 -0.035383
O 3.158698 -1.635389 -2.651403
H 3.678101 -1.139480 -2.015482
H 3.051988 -2.522017 -2.301285
5
Structure 755 | Energy: -10.833671 Hartree
N 2.987937 -2.906739 0.525014
N 2.610592 -1.979384 0.073669
O 3.158698 -1.635389 -2.651403
H 3.678101 -1.139480 -2.015482
H 3.051988 -2.522017 -2.301285
5
Structure 756 | Energy: -10.835012 Hartree
N 2.758899 -2.109122 0.733366
N 2.839630 -2.777001 -0.134683
O 3.158698 -1.635389 -2.651403
H 3.678101 -1.139480 -2.015482
H 3.051988 -2.522017 -2.301285
5
Structure 757 | Energy: -10.834026 Hartree
N 2.758899 -2.109122 0.733366
N 2.839630 -2.777001 -0.134683
O 3.147890 -1.673427 -2.647654
H 3.537025 -0.814970 -2.469534
H 3.364608 -2.242783 -1.906745
5
Structure 758 | Energy: -10.835825 Hartree
N 0.258140 -3.302332 -3.060151
N 1.220037 -3.549772 -2.591518
O 3.147890 -1.673427 -2.647654
H 3.537025 -0.814970 -2.469534
H 3.364608 -2.242783 -1.906745
5
Structure 759 | Energy: -10.835825 Hartree
N 0.258140 -3.302332 -3.060151
N 1.220037 -3.549772 -2.591518
O 0.010630 -0.866392 -4.176115
H 0.008393 0.092742 -4.188669
H -0.883706 -1.149938 -3.976507
5
Structure 760 | Energy: -10.835708 Hartree
N 0.258140 -3.302332 -3.060151
N 1.220037 -3.549772 -2.591518
O -0.134721 -0.667554 -3.555844
H -0.131812 0.275912 -3.382740
H -0.999006 -0.999658 -3.305252
5
Structure 761 | Energy: -10.835456 Hartree
N 0.495556 -2.909477 -2.213459
N 1.457453 -3.156917 -1.744827
O -0.134721 -0.667554 -3.555844
H -0.131812 0.275912 -3.382740
H -0.999006 -0.999658 -3.305252
5
Structure 762 | Energy: -10.835652 Hartree
N 1.452170 -2.769614 -1.903065
N 0.500839 -3.296781 -2.055221
O -0.134721 -0.667554 -3.555844
H -0.131812 0.275912 -3.382740
H -0.999006 -0.999658 -3.305252
5
Structure 763 | Energy: -10.834272 Hartree
N 1.452170 -2.769614 -1.903065
N 0.500839 -3.296781 -2.055221
O -0.137963 -0.588965 -3.540168
H -1.021785 -0.447788 -3.195162
H -0.057582 -1.523322 -3.741647
5
Structure 764 | Energy: -10.834511 Hartree
N 1.452170 -2.769614 -1.903065
N 0.500839 -3.296781 -2.055221
O -0.191729 -0.571971 -3.517628
H -0.832827 -1.278299 -3.416655
H 0.606846 -0.962552 -3.877907
5
Structure 765 | Energy: -10.834511 Hartree
N 0.331847 -3.015337 -1.544131
N 1.150153 -3.154365 -2.263251
O -0.191729 -0.571971 -3.517628
H -0.832827 -1.278299 -3.416655
H 0.606846 -0.962552 -3.877907
5
Structure 766 | Energy: -10.835764 Hartree
N -0.592071 -0.563832 -3.172577
N 0.226235 -0.702861 -3.891697
O 0.732189 -3.023475 -1.889182
H 0.091091 -3.729804 -1.788209
H 1.530764 -3.414057 -2.249462
5
Structure 767 | Energy: -10.835764 Hartree
N 0.781180 -1.266266 0.632806
N 1.846299 -1.531542 0.597623
O 0.732189 -3.023475 -1.889182
H 0.091091 -3.729804 -1.788209
H 1.530764 -3.414057 -2.249462
5
Structure 768 | Energy: -10.835764 Hartree
N 0.781180 -1.266266 0.632806
N 1.846299 -1.531542 0.597623
O 0.677253 -4.200403 -0.382745
H 0.984813 -4.920198 0.171696
H -0.265363 -4.323378 -0.510928
5
Structure 769 | Energy: -10.835743 Hartree
N 0.765009 -1.334814 0.609366
N 1.830128 -1.600090 0.574183
O 0.677253 -4.200403 -0.382745
H 0.984813 -4.920198 0.171696
H -0.265363 -4.323378 -0.510928
5
Structure 770 | Energy: -10.835302 Hartree
N 0.765009 -1.334814 0.609366
N 1.830128 -1.600090 0.574183
O 2.901872 -0.307527 -1.618267
H 3.103529 -0.902276 -2.343327
H 2.476308 0.465278 -1.994759
5
Structure 771 | Energy: -10.835368 Hartree
N 0.765009 -1.334814 0.609366
N 1.830128 -1.600090 0.574183
O 2.940971 0.206112 -1.556497
H 3.142628 -0.388637 -2.281557
H 2.515407 0.978917 -1.932988
5
Structure 772 | Energy: -10.835621 Hartree
N 0.765009 -1.334814 0.609366
N 1.830128 -1.600090 0.574183
O 1.951608 0.429128 -1.876398
H 2.029463 -0.132961 -2.649765
H 1.314682 1.114854 -2.086599
5
Structure 773 | Energy: -10.835653 Hartree
N 0.785946 -1.270816 0.524533
N 1.851066 -1.536092 0.489350
O 1.951608 0.429128 -1.876398
H 2.029463 -0.132961 -2.649765
H 1.314682 1.114854 -2.086599
5
Structure 774 | Energy: -10.835653 Hartree
N 0.785946 -1.270816 0.524533
N 1.851066 -1.536092 0.489350
O 1.471119 0.548798 -1.860526
H 1.091089 0.100749 -2.618769
H 2.340641 0.859331 -2.120488
5
Structure 775 | Energy: -10.835646 Hartree
N 0.785946 -1.270816 0.524533
N 1.851066 -1.536092 0.489350
O 1.459461 0.540997 -1.867194
H 1.282591 0.151351 -2.725679
H 2.334176 0.932542 -1.907743
5
Structure 776 | Energy: -10.835947 Hartree
N -0.799857 -0.492358 -0.072563
N -0.048271 -0.392967 0.721999
O 1.459461 0.540997 -1.867194
H 1.282591 0.151351 -2.725679
H 2.334176 0.932542 -1.907743
5
Structure 777 | Energy: -10.835755 Hartree
N -0.630229 -1.090567 0.038748
N 0.121357 -0.991176 0.833310
O 1.459461 0.540997 -1.867194
H 1.282591 0.151351 -2.725679
H 2.334176 0.932542 -1.907743
5
Structure 778 | Energy: -10.835650 Hartree
N -0.630229 -1.090567 0.038748
N 0.121357 -0.991176 0.833310
O 2.484490 -2.322310 -0.829193
H 2.608914 -1.998757 -1.723584
H 3.352308 -2.536914 -0.481465
5
Structure 779 | Energy: -10.835075 Hartree
N -0.816575 -0.027388 -0.562669
N -0.064989 0.072003 0.231893
O 2.484490 -2.322310 -0.829193
H 2.608914 -1.998757 -1.723584
H 3.352308 -2.536914 -0.481465
5
Structure 780 | Energy: -10.835150 Hartree
N -0.720556 -0.102718 -0.585037
N 0.031030 -0.003327 0.209525
O 2.484490 -2.322310 -0.829193
H 2.608914 -1.998757 -1.723584
H 3.352308 -2.536914 -0.481465
5
Structure 781 | Energy: -10.835180 Hartree
N -0.683677 -0.131651 -0.593628
N 0.067909 -0.032259 0.200934
O 2.484490 -2.322310 -0.829193
H 2.608914 -1.998757 -1.723584
H 3.352308 -2.536914 -0.481465
5
Structure 782 | Energy: -10.835180 Hartree
N -0.683677 -0.131651 -0.593628
N 0.067909 -0.032259 0.200934
O 1.365923 3.135052 -0.453787
H 1.582976 3.006676 -1.379265
H 2.089406 3.624644 -0.057617
5
Structure 783 | Energy: -10.835256 Hartree
N -0.683677 -0.131651 -0.593628
N 0.067909 -0.032259 0.200934
O 1.311962 3.033870 -0.444815
H 1.529015 2.905494 -1.370293
H 2.035444 3.523462 -0.048645
5
Structure 784 | Energy: -10.835245 Hartree
N -1.873153 1.116960 -0.825256
N -1.680998 1.630516 0.126283
O 1.311962 3.033870 -0.444815
H 1.529015 2.905494 -1.370293
H 2.035444 3.523462 -0.048645
5
Structure 785 | Energy: -10.835278 Hartree
N -1.873153 1.116960 -0.825256
N -1.680998 1.630516 0.126283
O 1.309026 3.083991 -0.482999
H 1.782139 2.988779 0.345977
H 1.828914 2.644644 -1.158847
5
Structure 786 | Energy: -10.835394 Hartree
N -1.873153 1.116960 -0.825256
N -1.680998 1.630516 0.126283
O 0.775009 1.950047 -2.720467
H 1.637769 1.802090 -2.328221
H 0.657350 1.289120 -3.405602
5
Structure 787 | Energy: -10.835328 Hartree
N -2.321615 0.373762 -1.760618
N -2.129460 0.887318 -0.809080
O 0.775009 1.950047 -2.720467
H 1.637769 1.802090 -2.328221
H 0.657350 1.289120 -3.405602
5
Structure 788 | Energy: -10.834796 Hartree
N 0.720622 1.648009 -3.212624
N 0.912777 2.161565 -2.261086
O -2.267228 0.675799 -1.268461
H -1.404469 0.527842 -0.876215
H -2.384887 0.014872 -1.953595
5
Structure 789 | Energy: -10.835335 Hartree
N 0.720622 1.648009 -3.212624
N 0.912777 2.161565 -2.261086
O -2.170939 0.629741 -1.252084
H -2.418945 0.031155 -1.959396
H -2.898714 1.242605 -1.130348
5
Structure 790 | Energy: -10.835335 Hartree
N 0.720622 1.648009 -3.212624
N 0.912777 2.161565 -2.261086
O 3.917310 0.137194 -2.602292
H 4.284964 0.583538 -1.836975
H 3.882266 -0.798818 -2.395577
5
Structure 791 | Energy: -10.835567 Hartree
N 0.720622 1.648009 -3.212624
N 0.912777 2.161565 -2.261086
O 3.405922 -0.198571 -2.079729
H 3.773577 0.247773 -1.314413
H 3.370878 -1.134583 -1.873014
5
Structure 792 | Energy: -10.835609 Hartree
N 0.782956 1.802699 -3.275336
N 0.850444 2.006876 -2.198374
O 3.405922 -0.198571 -2.079729
H 3.773577 0.247773 -1.314413
H 3.370878 -1.134583 -1.873014
5
Structure 793 | Energy: -10.835664 Hartree
N 3.014820 2.260059 -4.536856
N 2.753139 2.735088 -3.581890
O 3.405922 -0.198571 -2.079729
H 3.773577 0.247773 -1.314413
H 3.370878 -1.134583 -1.873014
5
Structure 794 | Energy: -10.835706 Hartree
N 3.014820 2.260059 -4.536856
N 2.753139 2.735088 -3.581890
O 3.398853 -0.162953 -2.106330
H 3.766508 0.283390 -1.341013
H 3.363809 -1.098965 -1.899614
5
Structure 795 | Energy: -10.834652 Hartree
N 3.014820 2.260059 -4.536856
N 2.753139 2.735088 -3.581890
O 2.859553 1.505165 -0.869952
H 3.806010 1.448359 -0.724713
H 2.430914 1.269588 -0.044815
5
Structure 796 | Energy: -10.835548 Hartree
N 3.014820 2.260059 -4.536856
N 2.753139 2.735088 -3.581890
O 2.938404 1.451775 -0.801652
H 2.138743 1.181052 -1.257013
H 2.846648 2.384300 -0.596579
5
Structure 797 | Energy: -10.835041 Hartree
N 2.998835 2.951319 -3.772241
N 2.769124 2.043828 -4.346505
O 2.938404 1.451775 -0.801652
H 2.138743 1.181052 -1.257013
H 2.846648 2.384300 -0.596579
5
Structure 798 | Energy: -10.834096 Hartree
N 2.998835 2.951319 -3.772241
N 2.769124 2.043828 -4.346505
O 2.938403 1.451774 -0.801651
H 2.682806 1.755873 -1.674747
H 2.302604 1.809499 -0.178859
5
Structure 799 | Energy: -10.834120 Hartree
N 2.730141 2.969714 -3.824983
N 3.037818 2.025433 -4.293763
O 2.938403 1.451774 -0.801651
H 2.682806 1.755873 -1.674747
H 2.302604 1.809499 -0.178859
5
Structure 800 | Energy: -10.834120 Hartree
N 1.857500 1.727337 -4.002240
N 2.903021 1.833522 -4.321144
O 2.938403 1.451774 -0.801651
H 2.682806 1.755873 -1.674747
H 2.302604 1.809499 -0.178859
5
Structure 801 | Energy: -10.834120 Hartree
N 1.857500 1.727337 -4.002240
N 2.903021 1.833522 -4.321144
O 3.844941 1.543843 -1.078163
H 3.513939 1.840284 -1.928259
H 4.640112 2.046900 -0.891846
5
Structure 802 | Energy: -10.834579 Hartree
N 1.058656 2.221479 -4.493330
N 2.104176 2.327664 -4.812234
O 3.844941 1.543843 -1.078163
H 3.513939 1.840284 -1.928259
H 4.640112 2.046900 -0.891846
5
Structure 803 | Energy: -10.834655 Hartree
N 1.015913 1.435148 -4.463729
N 2.061434 1.541333 -4.782634
O 3.844941 1.543843 -1.078163
H 3.513939 1.840284 -1.928259
H 4.640112 2.046900 -0.891846
5
Structure 804 | Energy: -10.834751 Hartree
N 1.080581 1.204722 -4.516920
N 1.996765 1.771758 -4.729443
O 3.844941 1.543843 -1.078163
H 3.513939 1.840284 -1.928259
H 4.640112 2.046900 -0.891846
5
Structure 805 | Energy: -10.834656 Hartree
N 1.092964 1.699971 -4.462255
N 2.009147 2.267006 -4.674778
O 3.844941 1.543843 -1.078163
H 3.513939 1.840284 -1.928259
H 4.640112 2.046900 -0.891846
5
Structure 806 | Energy: -10.835094 Hartree
N 1.092964 1.699971 -4.462255
N 2.009147 2.267006 -4.674778
O 3.831046 1.589745 -1.164947
H 4.614567 2.131335 -1.051463
H 3.760023 1.027284 -0.391208
5
Structure 807 | Energy: -10.835172 Hartree
N 1.092964 1.699971 -4.462255
N 2.009147 2.267006 -4.674778
O 3.762881 1.601349 -1.266414
H 4.546402 2.142938 -1.152930
H 3.691858 1.038888 -0.492675
5
Structure 808 | Energy: -10.835149 Hartree
N 1.074166 1.703171 -4.490236
N 1.990349 2.270206 -4.702760
O 3.762881 1.601349 -1.266414
H 4.546402 2.142938 -1.152930
H 3.691858 1.038888 -0.492675
5
Structure 809 | Energy: -10.835605 Hartree
N 1.074166 1.703171 -4.490236
N 1.990349 2.270206 -4.702760
O 3.186601 0.795876 -1.760380
H 3.970122 1.337465 -1.646897
H 3.115578 0.233415 -0.986641
5
Structure 810 | Energy: -10.833750 Hartree
N 1.074166 1.703171 -4.490236
N 1.990349 2.270206 -4.702760
O -1.712700 0.700276 -4.714171
H -2.186962 1.071849 -3.967772
H -2.352419 0.227854 -5.250506
5
Structure 811 | Energy: -10.833848 Hartree
N 1.074166 1.703171 -4.490236
N 1.990349 2.270206 -4.702760
O -0.955664 -0.456863 -4.402197
H -1.437583 -0.299686 -3.587856
H -1.427065 -1.139278 -4.884036
5
Structure 812 | Energy: -10.833809 Hartree
N 1.053478 1.683039 -4.488503
N 1.969662 2.250075 -4.701027
O -0.955664 -0.456863 -4.402197
H -1.437583 -0.299686 -3.587856
H -1.427065 -1.139278 -4.884036
5
Structure 813 | Energy: -10.833465 Hartree
N 1.053478 1.683039 -4.488503
N 1.969662 2.250075 -4.701027
O -1.264268 -0.003959 -3.955169
H -1.922251 0.564642 -3.550383
H -1.685290 -0.848726 -4.126010
5
Structure 814 | Energy: -10.835899 Hartree
N 1.053478 1.683039 -4.488503
N 1.969662 2.250075 -4.701027
O -1.377928 -0.046916 -3.963509
H -1.099178 0.856552 -4.125207
H -0.704344 -0.458828 -3.418816
5
Structure 815 | Energy: -10.835744 Hartree
N 0.978020 1.630202 -4.471138
N 1.894203 2.197238 -4.683662
O -1.377928 -0.046916 -3.963509
H -1.099178 0.856552 -4.125207
H -0.704344 -0.458828 -3.418816
5
Structure 816 | Energy: -10.835285 Hartree
N 1.383902 0.307977 -4.869434
N 2.410075 0.367423 -5.256115
O -1.377928 -0.046916 -3.963509
H -1.099178 0.856552 -4.125207
H -0.704344 -0.458828 -3.418816
5
Structure 817 | Energy: -10.835564 Hartree
N 1.383902 0.307977 -4.869434
N 2.410075 0.367423 -5.256115
O -1.374410 -0.013274 -3.902829
H -1.127094 0.589575 -4.606754
H -0.732260 -0.725816 -3.900381
5
Structure 818 | Energy: -10.835947 Hartree
N 0.904069 -1.773880 -4.450082
N 1.723485 -2.457645 -4.709138
O -1.374410 -0.013274 -3.902829
H -1.127094 0.589575 -4.606754
H -0.732260 -0.725816 -3.900381
5
Structure 819 | Energy: -10.835900 Hartree
N 0.904069 -1.773880 -4.450082
N 1.723485 -2.457645 -4.709138
O -1.611604 -0.451811 -3.697423
H -1.468185 0.227248 -4.359549
H -0.879747 -1.068690 -3.760056
5
Structure 820 | Energy: -10.835900 Hartree
N 0.904069 -1.773880 -4.450082
N 1.723485 -2.457645 -4.709138
O -1.611604 -0.284982 -4.137760
H -1.468185 -0.215136 -3.191898
H -0.879747 -0.788499 -4.499607
5
Structure 821 | Energy: -10.835975 Hartree
N 0.923656 -1.786182 -4.453314
N 1.743073 -2.469947 -4.712369
O -1.611604 -0.284982 -4.137760
H -1.468185 -0.215136 -3.191898
H -0.879747 -0.788499 -4.499607
5
Structure 822 | Energy: -10.835585 Hartree
N 0.786806 -2.078624 -4.564110
N 1.879924 -2.177506 -4.601573
O -1.611604 -0.284982 -4.137760
H -1.468185 -0.215136 -3.191898
H -0.879747 -0.788499 -4.499607
5
Structure 823 | Energy: -10.835452 Hartree
N 0.736449 -2.046998 -4.555803
N 1.829567 -2.145879 -4.593266
O -1.611604 -0.284982 -4.137760
H -1.468185 -0.215136 -3.191898
H -0.879747 -0.788499 -4.499607
5
Structure 824 | Energy: -10.834960 Hartree
N 0.736449 -2.046998 -4.555803
N 1.829567 -2.145879 -4.593266
O -0.967862 0.503016 -4.409177
H -0.690994 0.734114 -3.520335
H -0.442771 -0.251519 -4.683100
5
Structure 825 | Energy: -10.835683 Hartree
N 2.084453 0.505849 -4.066838
N 2.751182 1.370173 -3.946396
O -0.967862 0.503016 -4.409177
H -0.690994 0.734114 -3.520335
H -0.442771 -0.251519 -4.683100
5
Structure 826 | Energy: -10.834742 Hartree
N 2.940971 0.772775 -4.029643
N 1.894665 1.103247 -3.983592
O -0.967862 0.503016 -4.409177
H -0.690994 0.734114 -3.520335
H -0.442771 -0.251519 -4.683100
5
Structure 827 | Energy: -10.834788 Hartree
N 2.940971 0.772775 -4.029643
N 1.894665 1.103247 -3.983592
O 0.424242 -0.788882 -1.802621
H 0.318786 0.164349 -1.784396
H 1.360795 -0.972925 -1.707355
5
Structure 828 | Energy: -10.834596 Hartree
N 2.749164 1.077210 -3.591460
N 2.086471 0.798812 -4.421774
O 0.424242 -0.788882 -1.802621
H 0.318786 0.164349 -1.784396
H 1.360795 -0.972925 -1.707355
5
Structure 829 | Energy: -10.834328 Hartree
N -0.918350 1.699512 0.160276
N -0.497700 2.347520 -0.620254
O 0.424242 -0.788882 -1.802621
H 0.318786 0.164349 -1.784396
H 1.360795 -0.972925 -1.707355
5
Structure 830 | Energy: -10.834759 Hartree
N -0.918350 1.699512 0.160276
N -0.497700 2.347520 -0.620254
O 0.426234 -0.785058 -1.773116
H 0.302978 0.134004 -2.018543
H 1.344986 -1.003271 -1.941511
5
Structure 831 | Energy: -10.834548 Hartree
N -1.528030 2.270365 -0.269731
N -1.107380 2.918373 -1.050261
O 0.426234 -0.785058 -1.773116
H 0.302978 0.134004 -2.018543
H 1.344986 -1.003271 -1.941511
5
Structure 832 | Energy: -10.834548 Hartree
N -1.528030 2.270365 -0.269731
N -1.107380 2.918373 -1.050261
O -0.187301 -0.883537 -2.185527
H -0.120100 0.066095 -2.302931
H -0.311502 -1.269155 -3.054982
5
Structure 833 | Energy: -10.834789 Hartree
N -1.528030 2.270365 -0.269731
N -1.107380 2.918373 -1.050261
O -0.187299 -0.883535 -2.185526
H -0.935381 -0.860690 -2.785488
H 0.503750 -0.342402 -2.572441
5
Structure 834 | Energy: -10.834780 Hartree
N -1.528030 2.270365 -0.269731
N -1.107380 2.918373 -1.050261
O -0.180184 -0.905290 -2.195504
H -0.928265 -0.882445 -2.795467
H 0.510866 -0.364157 -2.582419
5
Structure 835 | Energy: -10.834772 Hartree
N -1.528030 2.270365 -0.269731
N -1.107380 2.918373 -1.050261
O -0.173706 -0.925096 -2.204589
H -0.921787 -0.902251 -2.804551
H 0.517344 -0.383963 -2.591504
5
Structure 836 | Energy: -10.834834 Hartree
N -1.528030 2.270365 -0.269731
N -1.107380 2.918373 -1.050261
O -0.134872 -0.689743 -1.883515
H -0.882954 -0.666897 -2.483477
H 0.556177 -0.148609 -2.270430
5
Structure 837 | Energy: -10.834934 Hartree
N -1.528030 2.270365 -0.269731
N -1.107380 2.918373 -1.050261
O -0.386829 -0.598665 -2.191131
H -1.134911 -0.575819 -2.791093
H 0.304220 -0.057531 -2.578046
5
Structure 838 | Energy: -10.834956 Hartree
N -3.449999 0.276628 -0.463661
N -3.999126 -0.227214 -1.270315
O -0.386829 -0.598665 -2.191131
H -1.134911 -0.575819 -2.791093
H 0.304220 -0.057531 -2.578046
5
Structure 839 | Energy: -10.834682 Hartree
N -0.115457 -0.315187 -1.843023
N -0.664584 -0.819029 -2.649677
O -3.721371 -0.006850 -0.811769
H -4.469453 0.015996 -1.411731
H -3.030322 0.534284 -1.198684
5
Structure 840 | Energy: -10.834433 Hartree
N 0.952817 -1.620787 -1.370311
N 1.172977 -0.563604 -1.170357
O -0.464976 1.671590 -1.854326
H -0.517421 1.493042 -0.913330
H 0.034622 0.955735 -2.251859
5
Structure 841 | Energy: -10.833387 Hartree
N 0.952817 -1.620787 -1.370311
N 1.172977 -0.563604 -1.170357
O -0.389109 1.534594 -1.826380
H -0.441554 1.356046 -0.885384
H 0.110489 0.818740 -2.223913
5
Structure 842 | Energy: -10.833387 Hartree
N 0.107704 -0.798246 0.678862
N 0.658434 -0.062804 0.077272
O -0.389109 1.534594 -1.826380
H -0.441554 1.356046 -0.885384
H 0.110489 0.818740 -2.223913
5
Structure 843 | Energy: -10.833944 Hartree
N 0.107704 -0.798246 0.678862
N 0.658434 -0.062804 0.077272
O -0.406126 1.578212 -1.875896
H -0.458571 1.399664 -0.934900
H 0.093472 0.862358 -2.273429
5
Structure 844 | Energy: -10.833944 Hartree
N 0.107704 -0.798246 0.678862
N 0.658434 -0.062804 0.077272
O -0.406126 2.176912 -1.143985
H -0.458571 1.219197 -1.155521
H 0.093472 2.424647 -0.363531
5
Structure 845 | Energy: -10.835308 Hartree
N -0.018982 -0.317307 1.645303
N 0.531747 0.418135 1.043714
O -0.406126 2.176912 -1.143985
H -0.458571 1.219197 -1.155521
H 0.093472 2.424647 -0.363531
5
Structure 846 | Energy: -10.835284 Hartree
N -0.015252 -0.255290 1.710953
N 0.528017 0.356118 0.978063
O -0.406126 2.176912 -1.143985
H -0.458571 1.219197 -1.155521
H 0.093472 2.424647 -0.363531
5
Structure 847 | Energy: -10.834789 Hartree
N -0.046600 -0.152674 1.590698
N 0.496668 0.458735 0.857808
O -0.406126 2.176912 -1.143985
H -0.458571 1.219197 -1.155521
H 0.093472 2.424647 -0.363531
5
Structure 848 | Energy: -10.834628 Hartree
N 0.286099 0.292956 0.696793
N 0.163970 0.013105 1.751713
O -0.406126 2.176912 -1.143985
H -0.458571 1.219197 -1.155521
H 0.093472 2.424647 -0.363531
5
Structure 849 | Energy: -10.835512 Hartree
N 1.314457 1.353108 1.523143
N 1.192328 1.073256 2.578063
O -0.406126 2.176912 -1.143985
H -0.458571 1.219197 -1.155521
H 0.093472 2.424647 -0.363531
5
Structure 850 | Energy: -10.835495 Hartree
N 1.314457 1.353108 1.523143
N 1.192328 1.073256 2.578063
O -0.309006 2.122009 -0.956723
H -0.361452 1.164294 -0.968259
H 0.190591 2.369744 -0.176269
5
Structure 851 | Energy: -10.834537 Hartree
N 1.314457 1.353108 1.523143
N 1.192328 1.073256 2.578063
O -0.889633 2.800089 -0.113636
H -0.942078 1.842374 -0.125172
H -0.390035 3.047824 0.666818
5
Structure 852 | Energy: -10.834770 Hartree
N 1.281859 1.523044 1.598169
N 1.224926 0.903320 2.503038
O -0.889633 2.800089 -0.113636
H -0.942078 1.842374 -0.125172
H -0.390035 3.047824 0.666818
5
Structure 853 | Energy: -10.834337 Hartree
N 1.163860 1.609242 1.479991
N 1.106927 0.989517 2.384860
O -0.889633 2.800089 -0.113636
H -0.942078 1.842374 -0.125172
H -0.390035 3.047824 0.666818
5
Structure 854 | Energy: -10.834166 Hartree
N 0.920901 0.708145 0.596088
N 1.014818 0.113142 1.514369
O -0.889633 2.800089 -0.113636
H -0.942078 1.842374 -0.125172
H -0.390035 3.047824 0.666818
5
Structure 855 | Energy: -10.835080 Hartree
N 0.920901 0.708145 0.596088
N 1.014818 0.113142 1.514369
O -0.911446 2.767181 -0.113219
H 0.018030 2.629800 -0.306359
H -1.003924 2.782718 0.841393
5
Structure 856 | Energy: -10.835080 Hartree
N -0.256015 0.884250 1.917844
N 0.580866 0.178075 2.001727
O -0.911446 2.767181 -0.113219
H 0.018030 2.629800 -0.306359
H -1.003924 2.782718 0.841393
5
Structure 857 | Energy: -10.835984 Hartree
N -1.832395 1.162761 2.016304
N -2.371254 0.206116 1.992895
O -0.911446 2.767181 -0.113219
H 0.018030 2.629800 -0.306359
H -1.003924 2.782718 0.841393
5
Structure 858 | Energy: -10.835288 Hartree
N -1.768564 1.269862 1.909240
N -2.307424 0.313217 1.885830
O -0.911446 2.767181 -0.113219
H 0.018030 2.629800 -0.306359
H -1.003924 2.782718 0.841393
5
Structure 859 | Energy: -10.833182 Hartree
N -1.768564 1.269862 1.909240
N -2.307424 0.313217 1.885830
O -0.883418 2.816192 -0.094792
H -0.204398 2.240854 -0.452592
H -1.226361 2.393757 0.695155
5
Structure 860 | Energy: -10.833182 Hartree
N 0.775087 0.889249 -0.947452
N 0.559763 -0.115808 -1.334213
O -0.883418 2.816192 -0.094792
H -0.204398 2.240854 -0.452592
H -1.226361 2.393757 0.695155
5
Structure 861 | Energy: -10.835682 Hartree
N 0.003148 0.268370 -1.005004
N -0.212176 -0.736687 -1.391766
O -0.883418 2.816192 -0.094792
H -0.204398 2.240854 -0.452592
H -1.226361 2.393757 0.695155
5
Structure 862 | Energy: -10.834352 Hartree
N 0.119800 -0.734949 -1.218754
N -0.328828 0.266631 -1.178017
O -0.883418 2.816192 -0.094792
H -0.204398 2.240854 -0.452592
H -1.226361 2.393757 0.695155
5
Structure 863 | Energy: -10.834638 Hartree
N 0.119800 -0.734949 -1.218754
N -0.328828 0.266631 -1.178017
O -0.896094 2.866134 -0.075984
H -0.217075 2.290796 -0.433783
H -1.239037 2.443698 0.713963
5
Structure 864 | Energy: -10.834442 Hartree
N -0.997186 -0.887352 -1.164341
N -1.068340 0.208559 -1.162598
O -0.896094 2.866134 -0.075984
H -0.217075 2.290796 -0.433783
H -1.239037 2.443698 0.713963
5
Structure 865 | Energy: -10.834086 Hartree
N -0.841713 2.262349 -0.052675
N -0.912867 3.358261 -0.050932
O -1.051567 -0.283568 -1.187649
H -0.372548 -0.858906 -1.545449
H -1.394510 -0.706003 -0.397702
5
Structure 866 | Energy: -10.833744 Hartree
N -0.841713 2.262349 -0.052675
N -0.912867 3.358261 -0.050932
O -1.046055 -0.171893 -1.148234
H -0.367035 -0.747231 -1.506034
H -1.388998 -0.594328 -0.358287
5
Structure 867 | Energy: -10.833971 Hartree
N -0.841713 2.262349 -0.052675
N -0.912867 3.358261 -0.050932
O -0.981598 -0.248873 -1.163089
H -1.308039 -0.691027 -0.376935
H -1.471050 0.571296 -1.251620
5
Structure 868 | Energy: -10.833006 Hartree
N -0.991673 -0.775677 -1.124926
N -1.062827 0.320235 -1.123183
O -0.831638 2.789154 -0.090838
H -1.158079 2.346999 0.695316
H -1.321090 3.609323 -0.179370
5
Structure 869 | Energy: -10.834346 Hartree
N -1.058824 0.258976 -1.376345
N -0.995677 -0.714419 -0.871763
O -0.831638 2.789154 -0.090838
H -1.158079 2.346999 0.695316
H -1.321090 3.609323 -0.179370
5
Structure 870 | Energy: -10.834633 Hartree
N -1.058824 0.258976 -1.376345
N -0.995677 -0.714419 -0.871763
O -0.838263 2.842273 -0.012944
H -1.105504 1.925450 0.077161
H -1.268513 3.187757 -0.797549
5
Structure 871 | Energy: -10.835251 Hartree
N -1.199788 -0.450398 -1.000819
N -1.136641 -1.423793 -0.496237
O -0.838263 2.842273 -0.012944
H -1.105504 1.925450 0.077161
H -1.268513 3.187757 -0.797549
5
Structure 872 | Energy: -10.835077 Hartree
N -1.199788 -0.450398 -1.000819
N -1.136641 -1.423793 -0.496237
O -0.848608 2.762769 -0.020613
H -1.680697 2.711709 -0.495085
H -0.529121 3.663393 -0.103576
5
Structure 873 | Energy: -10.835125 Hartree
N -0.984343 -0.728961 -1.222230
N -1.352086 -1.145230 -0.274826
O -0.848608 2.762769 -0.020613
H -1.680697 2.711709 -0.495085
H -0.529121 3.663393 -0.103576
5
Structure 874 | Energy: -10.834588 Hartree
N -0.984343 -0.728961 -1.222230
N -1.352086 -1.145230 -0.274826
O -0.826386 2.844541 -0.034720
H -0.832286 2.091001 -0.628222
H -1.730243 2.986219 0.253461
5
Structure 875 | Energy: -10.834494 Hartree
N -1.022402 -1.109649 -0.248042
N -1.314027 -0.764542 -1.249014
O -0.826386 2.844541 -0.034720
H -0.832286 2.091001 -0.628222
H -1.730243 2.986219 0.253461
5
Structure 876 | Energy: -10.835136 Hartree
N -1.022402 -1.109649 -0.248042
N -1.314027 -0.764542 -1.249014
O -0.922923 2.771542 -0.073488
H -1.040888 3.507492 0.530303
H 0.010594 2.728362 -0.289728
5
Structure 877 | Energy: -10.835252 Hartree
N -1.008314 -0.928179 -0.214303
N -1.299938 -0.583072 -1.215275
O -0.922923 2.771542 -0.073488
H -1.040888 3.507492 0.530303
H 0.010594 2.728362 -0.289728
5
Structure 878 | Energy: -10.835330 Hartree
N -0.999324 -0.812373 -0.192772
N -1.290948 -0.467266 -1.193744
O -0.922923 2.771542 -0.073488
H -1.040888 3.507492 0.530303
H 0.010594 2.728362 -0.289728
5
Structure 879 | Energy: -10.835254 Hartree
N -0.533337 -0.791065 -0.317116
N -0.901575 -0.456032 -1.296015
O -0.922923 2.771542 -0.073488
H -1.040888 3.507492 0.530303
H 0.010594 2.728362 -0.289728
5
Structure 880 | Energy: -10.835623 Hartree
N -0.533337 -0.791065 -0.317116
N -0.901575 -0.456032 -1.296015
O 2.724116 -0.129413 -0.939496
H 3.515632 0.395413 -0.804726
H 2.701701 -0.792619 -0.246868
5
Structure 881 | Energy: -10.835592 Hartree
N -0.565432 -0.795545 -0.316318
N -0.933670 -0.460512 -1.295217
O 2.724116 -0.129413 -0.939496
H 3.515632 0.395413 -0.804726
H 2.701701 -0.792619 -0.246868
5
Structure 882 | Energy: -10.835956 Hartree
N 0.174429 0.843894 0.065678
N -0.193809 1.178926 -0.913220
O 2.724116 -0.129413 -0.939496
H 3.515632 0.395413 -0.804726
H 2.701701 -0.792619 -0.246868
5
Structure 883 | Energy: -10.835956 Hartree
N 0.174429 0.843894 0.065678
N -0.193809 1.178926 -0.913220
O -2.338309 -0.372128 0.881795
H -2.904347 0.087610 1.504966
H -1.824560 -1.009628 1.381529
5
Structure 884 | Energy: -10.835023 Hartree
N -0.632236 -2.213651 -0.581401
N 0.214125 -1.522203 -0.689386
O -2.338309 -0.372128 0.881795
H -2.904347 0.087610 1.504966
H -1.824560 -1.009628 1.381529
5
Structure 885 | Energy: -10.835590 Hartree
N -0.632236 -2.213651 -0.581401
N 0.214125 -1.522203 -0.689386
O -2.338308 -0.372126 0.881795
H -3.027071 -0.846731 1.351325
H -1.701841 -0.075319 1.535165
5
Structure 886 | Energy: -10.835548 Hartree
N -0.632236 -2.213651 -0.581401
N 0.214125 -1.522203 -0.689386
O -2.252983 -0.431587 0.818566
H -2.941745 -0.906192 1.288095
H -1.616515 -0.134779 1.471936
5
Structure 887 | Energy: -10.835360 Hartree
N -0.632236 -2.213651 -0.581401
N 0.214125 -1.522203 -0.689386
O -2.171876 -0.488107 0.758463
H -2.860639 -0.962713 1.227993
H -1.535409 -0.191300 1.411833
5
Structure 888 | Energy: -10.835469 Hartree
N -0.361831 -2.022766 -1.178417
N 0.484531 -1.331318 -1.286402
O -2.171876 -0.488107 0.758463
H -2.860639 -0.962713 1.227993
H -1.535409 -0.191300 1.411833
5
Structure 889 | Energy: -10.835534 Hartree
N -0.426910 -1.988454 -1.118648
N 0.419451 -1.297006 -1.226632
O -2.171876 -0.488107 0.758463
H -2.860639 -0.962713 1.227993
H -1.535409 -0.191300 1.411833
5
Structure 890 | Energy: -10.835572 Hartree
N -0.426910 -1.988454 -1.118648
N 0.419451 -1.297006 -1.226632
O -2.171877 -0.488110 0.758462
H -2.360432 0.169774 1.430577
H -2.035598 -1.323748 1.209256
5
Structure 891 | Energy: -10.835542 Hartree
N -0.426910 -1.988454 -1.118648
N 0.419451 -1.297006 -1.226632
O -2.171876 -0.488107 0.758463
H -2.852661 -0.975711 1.226306
H -1.543386 -0.178303 1.413520
5
Structure 892 | Energy: -10.835542 Hartree
N -0.426910 -1.988454 -1.118648
N 0.419451 -1.297006 -1.226632
O -0.608247 0.566106 -3.298381
H -0.177151 1.418056 -3.390247
H -1.502756 0.731720 -2.994237
5
Structure 893 | Energy: -10.835560 Hartree
N -0.426910 -1.988454 -1.118648
N 0.419451 -1.297006 -1.226632
O -0.602399 0.545088 -3.278773
H -0.171303 1.397039 -3.370639
H -1.496908 0.710703 -2.974629
5
Structure 894 | Energy: -10.834444 Hartree
N -1.051509 0.256300 -3.212902
N -0.205148 0.947748 -3.320887
O 0.022200 -1.699666 -1.184518
H 0.453296 -0.847716 -1.276384
H -0.872309 -1.534052 -0.880374
5
Structure 895 | Energy: -10.834559 Hartree
N -1.051509 0.256300 -3.212902
N -0.205148 0.947748 -3.320887
O 0.088803 -2.184420 -1.508215
H 0.519898 -1.332469 -1.600081
H -0.805706 -2.018805 -1.204072
5
Structure 896 | Energy: -10.834578 Hartree
N -1.058940 0.285646 -3.231938
N -0.212579 0.977094 -3.339923
O 0.088803 -2.184420 -1.508215
H 0.519898 -1.332469 -1.600081
H -0.805706 -2.018805 -1.204072
5
Structure 897 | Energy: -10.834578 Hartree
N -1.058940 0.285646 -3.231938
N -0.212579 0.977094 -3.339923
O 2.230091 -0.435060 -1.781416
H 1.308424 -0.688270 -1.700687
H 2.283502 0.504973 -1.598215
5
Structure 898 | Energy: -10.833831 Hartree
N -0.297862 0.779114 -3.074816
N 0.548499 1.470562 -3.182801
O 2.230091 -0.435060 -1.781416
H 1.308424 -0.688270 -1.700687
H 2.283502 0.504973 -1.598215
5
Structure 899 | Energy: -10.833831 Hartree
N -0.297862 0.779114 -3.074816
N 0.548499 1.470562 -3.182801
O 1.212339 -0.691777 -1.080123
H 1.644989 0.142872 -1.270590
H 0.278606 -0.507096 -0.961322
5
Structure 900 | Energy: -10.833872 Hartree
N -0.297862 0.779114 -3.074816
N 0.548499 1.470562 -3.182801
O 0.971782 -0.648274 -0.933726
H 1.442592 0.168743 -1.109575
H 0.036518 -0.437008 -0.906770
5
Structure 901 | Energy: -10.835770 Hartree
N 0.522613 -0.936462 -0.888065
N 1.368974 -0.245014 -0.996050
O 0.151306 1.067302 -3.120477
H 0.622117 1.884319 -3.296326
H -0.783958 1.278568 -3.093521
5
Structure 902 | Energy: -10.835674 Hartree
N 0.522613 -0.936462 -0.888065
N 1.368974 -0.245014 -0.996050
O 0.166636 1.035248 -3.079619
H 0.637447 1.852265 -3.255468
H -0.768627 1.246513 -3.052663
5
Structure 903 | Energy: -10.835475 Hartree
N 0.503577 -0.896658 -0.938802
N 1.349938 -0.205209 -1.046786
O 0.166636 1.035248 -3.079619
H 0.637447 1.852265 -3.255468
H -0.768627 1.246513 -3.052663
5
Structure 904 | Energy: -10.835343 Hartree
N 0.503577 -0.896658 -0.938802
N 1.349938 -0.205209 -1.046786
O 0.175518 1.016677 -3.055948
H 0.646328 1.833694 -3.231797
H -0.759746 1.227942 -3.028992
5
Structure 905 | Energy: -10.835457 Hartree
N 0.503577 -0.896658 -0.938802
N 1.349938 -0.205209 -1.046786
O 0.167961 1.032478 -3.076089
H 0.638771 1.849495 -3.251938
H -0.767303 1.243744 -3.049133
5
Structure 906 | Energy: -10.832133 Hartree
N 0.503577 -0.896658 -0.938802
N 1.349938 -0.205209 -1.046786
O 0.116346 1.138821 -3.116299
H 1.048381 1.005572 -2.932838
H -0.357677 0.399788 -2.730020
5
Structure 907 | Energy: -10.831677 Hartree
N 0.503577 -0.896658 -0.938802
N 1.349938 -0.205209 -1.046786
O -1.283298 1.219729 -0.951378
H -1.041452 0.766781 -1.761594
H -0.907270 0.720490 -0.223751
5
Structure 908 | Energy: -10.831677 Hartree
N 0.503577 -0.896658 -0.938802
N 1.349938 -0.205209 -1.046786
O -0.370115 1.965769 -1.067889
H -0.098783 1.536910 -1.881867
H 0.154001 1.587512 -0.359156
5
Structure 909 | Energy: -10.832113 Hartree
N 0.977420 -0.593663 -1.537890
N 0.876095 -0.508204 -0.447698
O -0.370115 1.965769 -1.067889
H -0.098783 1.536910 -1.881867
H 0.154001 1.587512 -0.359156
5
Structure 910 | Energy: -10.835471 Hartree
N -0.274945 1.877878 -1.618873
N -0.376270 1.963337 -0.528681
O 0.882249 -0.505773 -0.986905
H 1.153582 -0.934631 -1.800884
H 1.406366 -0.884029 -0.278173
5
Structure 911 | Energy: -10.834718 Hartree
N -1.189077 -1.948469 0.149715
N -1.371507 -2.265968 -0.885660
O 0.882249 -0.505773 -0.986905
H 1.153582 -0.934631 -1.800884
H 1.406366 -0.884029 -0.278173
5
Structure 912 | Energy: -10.834718 Hartree
N -1.189077 -1.948469 0.149715
N -1.371507 -2.265968 -0.885660
O -1.875117 0.425520 -1.293018
H -1.398516 0.936804 -0.636098
H -1.293500 0.321286 -2.048621
5
Structure 913 | Energy: -10.835159 Hartree
N -1.176045 -2.099664 0.171099
N -1.384539 -2.114773 -0.907043
O -1.875117 0.425520 -1.293018
H -1.398516 0.936804 -0.636098
H -1.293500 0.321286 -2.048621
5
Structure 914 | Energy: -10.835233 Hartree
N -0.930504 -2.056949 0.719517
N -1.138999 -2.072058 -0.358625
O -1.875117 0.425520 -1.293018
H -1.398516 0.936804 -0.636098
H -1.293500 0.321286 -2.048621
5
Structure 915 | Energy: -10.835233 Hartree
N -0.823482 -2.684337 -0.720230
N -1.164951 -1.919918 -0.009491
O -1.875117 0.425520 -1.293018
H -1.398516 0.936804 -0.636098
H -1.293500 0.321286 -2.048621
5
Structure 916 | Energy: -10.835409 Hartree
N -1.645171 0.066086 -1.653909
N -1.986640 0.830506 -0.943170
O -1.053427 -2.324903 -0.359339
H -0.576827 -1.813620 0.297581
H -0.471810 -2.429137 -1.114941
5
Structure 917 | Energy: -10.835410 Hartree
N -1.645171 0.066086 -1.653909
N -1.986640 0.830506 -0.943170
O -1.062315 -2.295155 -0.369438
H -0.585714 -1.783872 0.287482
H -0.480698 -2.399389 -1.125040
5
Structure 918 | Energy: -10.835410 Hartree
N -1.645171 0.066086 -1.653909
N -1.986640 0.830506 -0.943170
O -2.021601 -0.147680 1.627235
H -1.151468 -0.517365 1.465050
H -1.901652 0.781586 1.832556
5
Structure 919 | Energy: -10.835403 Hartree
N -1.647432 0.057592 -1.609861
N -1.988901 0.822012 -0.899122
O -2.021601 -0.147680 1.627235
H -1.151468 -0.517365 1.465050
H -1.901652 0.781586 1.832556
5
Structure 920 | Energy: -10.835350 Hartree
N -1.651312 0.043014 -1.534263
N -1.992781 0.807433 -0.823524
O -2.021601 -0.147680 1.627235
H -1.151468 -0.517365 1.465050
H -1.901652 0.781586 1.832556
5
Structure 921 | Energy: -10.835350 Hartree
N -1.651312 0.043014 -1.534263
N -1.992781 0.807433 -0.823524
O -2.021601 3.182290 -1.954238
H -1.151468 2.993665 -2.311158
H -1.901652 3.454610 -1.042354
5
Structure 922 | Energy: -10.835467 Hartree
N -2.780100 -0.122003 -1.205690
N -3.121569 0.642416 -0.494950
O -2.021601 3.182290 -1.954238
H -1.151468 2.993665 -2.311158
H -1.901652 3.454610 -1.042354
5
Structure 923 | Energy: -10.835788 Hartree
N -2.563616 0.608387 -0.676096
N -3.338053 -0.087974 -1.024544
O -2.021601 3.182290 -1.954238
H -1.151468 2.993665 -2.311158
H -1.901652 3.454610 -1.042354
5
Structure 924 | Energy: -10.835821 Hartree
N -2.563616 0.608387 -0.676096
N -3.338053 -0.087974 -1.024544
O -2.032390 3.150219 -1.942482
H -1.162257 2.961594 -2.299402
H -1.912441 3.422539 -1.030598
5
Structure 925 | Energy: -10.835671 Hartree
N -2.563616 0.608387 -0.676096
N -3.338053 -0.087974 -1.024544
O -2.031706 3.133515 -1.936009
H -1.167689 3.094157 -2.350773
H -1.917873 3.555107 -1.081971
5
Structure 926 | Energy: -10.834763 Hartree
N -2.788631 0.754351 -1.231180
N -3.563068 0.057990 -1.579627
O -2.031706 3.133515 -1.936009
H -1.167689 3.094157 -2.350773
H -1.917873 3.555107 -1.081971
5
Structure 927 | Energy: -10.832891 Hartree
N -1.589773 3.503083 -1.737206
N -2.364210 2.806722 -2.085654
O -3.230563 0.384783 -1.429982
H -2.366547 0.345425 -1.844746
H -3.116731 0.806375 -0.575944
5
Structure 928 | Energy: -10.832358 Hartree
N -1.616828 3.441051 -1.725787
N -2.391266 2.744689 -2.074234
O -3.230563 0.384783 -1.429982
H -2.366547 0.345425 -1.844746
H -3.116731 0.806375 -0.575944
5
Structure 929 | Energy: -10.831468 Hartree
N -1.649110 3.367035 -1.712161
N -2.423548 2.670674 -2.060608
O -3.230563 0.384783 -1.429982
H -2.366547 0.345425 -1.844746
H -3.116731 0.806375 -0.575944
5
Structure 930 | Energy: -10.831468 Hartree
N -1.649110 3.367035 -1.712161
N -2.423548 2.670674 -2.060608
O 0.108513 3.387225 0.072388
H 0.334023 2.773733 -0.629662
H -0.650051 3.024372 0.533904
5
Structure 931 | Energy: -10.835072 Hartree
N -1.649110 3.367035 -1.712161
N -2.423548 2.670674 -2.060608
O -0.938734 0.430164 -2.702961
H -1.667733 0.725868 -3.251798
H -1.275466 0.336543 -1.809695
5
Structure 932 | Energy: -10.834738 Hartree
N -1.649110 3.367035 -1.712161
N -2.423548 2.670674 -2.060608
O 0.089039 -0.185755 -2.542961
H -0.639960 0.109950 -3.091798
H -0.247694 -0.279376 -1.649695
5
Structure 933 | Energy: -10.835362 Hartree
N -0.626844 3.531243 -1.947557
N -1.401282 2.834881 -2.296004
O 0.089039 -0.185755 -2.542961
H -0.639960 0.109950 -3.091798
H -0.247694 -0.279376 -1.649695
5
Structure 934 | Energy: -10.835427 Hartree
N -0.603521 3.456195 -1.956540
N -1.377958 2.759834 -2.304988
O 0.089039 -0.185755 -2.542961
H -0.639960 0.109950 -3.091798
H -0.247694 -0.279376 -1.649695
5
Structure 935 | Energy: -10.835197 Hartree
N 0.137528 -3.874893 -2.077784
N 0.614923 -3.172831 -1.381156
O 0.089039 -0.185755 -2.542961
H -0.639960 0.109950 -3.091798
H -0.247694 -0.279376 -1.649695
5
Structure 936 | Energy: -10.835702 Hartree
N 0.137528 -3.874893 -2.077784
N 0.614923 -3.172831 -1.381156
O -0.014908 -0.220177 -2.523978
H 0.184949 0.383119 -3.242444
H 0.577247 -0.006196 -1.800347
5
Structure 937 | Energy: -10.835282 Hartree
N 0.137528 -3.874893 -2.077784
N 0.614923 -3.172831 -1.381156
O -0.099926 0.229976 -2.178634
H 0.099931 0.833272 -2.897101
H 0.492230 0.443957 -1.455003
5
Structure 938 | Energy: -10.834740 Hartree
N 0.137528 -3.874893 -2.077784
N 0.614923 -3.172831 -1.381156
O -0.005082 0.239305 -2.165041
H -0.729426 0.014680 -2.752384
H -0.183782 1.114488 -1.815473
5
Structure 939 | Energy: -10.834773 Hartree
N 0.137528 -3.874893 -2.077784
N 0.614923 -3.172831 -1.381156
O 0.007769 0.126234 -2.151683
H -0.716575 -0.098391 -2.739026
H -0.170931 1.001418 -1.802115
5
Structure 940 | Energy: -10.834554 Hartree
N -0.017601 -3.897974 -1.649081
N 0.770053 -3.149750 -1.809860
O 0.007769 0.126234 -2.151683
H -0.716575 -0.098391 -2.739026
H -0.170931 1.001418 -1.802115
5
Structure 941 | Energy: -10.835583 Hartree
N 1.552594 3.141055 0.145685
N 0.529372 2.885352 -0.160454
O 0.007769 0.126234 -2.151683
H -0.716575 -0.098391 -2.739026
H -0.170931 1.001418 -1.802115
5
Structure 942 | Energy: -10.834212 Hartree
N 1.552594 3.141055 0.145685
N 0.529372 2.885352 -0.160454
O -0.093768 0.198035 -2.179134
H 0.621397 0.441129 -1.587908
H 0.102692 -0.677730 -2.517537
5
Structure 943 | Energy: -10.834192 Hartree
N 1.540086 3.108156 0.120783
N 0.516864 2.852453 -0.185356
O -0.093768 0.198035 -2.179134
H 0.621397 0.441129 -1.587908
H 0.102692 -0.677730 -2.517537
5
Structure 944 | Energy: -10.834163 Hartree
N 1.540086 3.108156 0.120783
N 0.516864 2.852453 -0.185356
O -0.078487 0.238227 -2.148712
H 0.636677 0.481321 -1.557487
H 0.117973 -0.637538 -2.487116
5
Structure 945 | Energy: -10.834192 Hartree
N 1.555315 3.148213 0.151102
N 0.532093 2.892510 -0.155037
O -0.078487 0.238227 -2.148712
H 0.636677 0.481321 -1.557487
H 0.117973 -0.637538 -2.487116
5
Structure 946 | Energy: -10.835638 Hartree
N 0.484132 0.330679 -1.981497
N -0.539090 0.074975 -2.287636
O 0.992696 3.055762 -0.016113
H 1.707860 3.298855 0.575112
H 1.189156 2.179996 -0.354517
5
Structure 947 | Energy: -10.834192 Hartree
N 1.555315 3.148213 0.151102
N 0.532093 2.892510 -0.155037
O -0.078487 0.238227 -2.148712
H 0.636677 0.481321 -1.557487
H 0.117973 -0.637538 -2.487116
5
Structure 948 | Energy: -10.835638 Hartree
N 0.484132 0.330679 -1.981497
N -0.539090 0.074975 -2.287636
O 0.992696 3.055762 -0.016113
H 1.707860 3.298855 0.575112
H 1.189156 2.179996 -0.354517
5
Structure 949 | Energy: -10.834289 Hartree
N -0.379141 0.473178 -1.810890
N 0.324183 -0.067524 -2.458242
O 0.992696 3.055762 -0.016113
H 1.707860 3.298855 0.575112
H 1.189156 2.179996 -0.354517
5
Structure 950 | Energy: -10.834426 Hartree
N -0.379141 0.473178 -1.810890
N 0.324183 -0.067524 -2.458242
O 0.587765 3.052377 1.048309
H 1.302930 3.295471 1.639535
H 0.784225 2.176612 0.709906
5
Structure 951 | Energy: -10.834449 Hartree
N 0.044629 0.921723 -1.434137
N 0.747954 0.381021 -2.081489
O 0.587765 3.052377 1.048309
H 1.302930 3.295471 1.639535
H 0.784225 2.176612 0.709906
5
Structure 952 | Energy: -10.834438 Hartree
N 0.044629 0.921723 -1.434137
N 0.747954 0.381021 -2.081489
O 0.585954 3.034709 1.027246
H 1.301119 3.277802 1.618471
H 0.782414 2.158944 0.688843
5
Structure 953 | Energy: -10.835862 Hartree
N 0.285300 3.269660 1.365068
N 0.988625 2.728958 0.717716
O 0.345283 0.686772 -1.771959
H 1.060447 0.929865 -1.180733
H 0.541743 -0.188993 -2.110362
5
Structure 954 | Energy: -10.835962 Hartree
N 0.279673 3.214762 1.299619
N 0.982998 2.674060 0.652267
O 0.345283 0.686772 -1.771959
H 1.060447 0.929865 -1.180733
H 0.541743 -0.188993 -2.110362
5
Structure 955 | Energy: -10.836064 Hartree
N 0.279673 3.214762 1.299619
N 0.982998 2.674060 0.652267
O 0.352599 0.758147 -1.686866
H 1.067763 1.001240 -1.095641
H 0.549059 -0.117619 -2.025269
5
Structure 956 | Energy: -10.835548 Hartree
N 0.279673 3.214762 1.299619
N 0.982998 2.674060 0.652267
O 0.795399 0.135324 -1.233405
H 1.510564 0.378417 -0.642180
H 0.991859 -0.740442 -1.571808
5
Structure 957 | Energy: -10.835584 Hartree
N -0.285955 2.272739 1.981473
N 0.417370 1.732037 1.334122
O 0.795399 0.135324 -1.233405
H 1.510564 0.378417 -0.642180
H 0.991859 -0.740442 -1.571808
5
Structure 958 | Energy: -10.833990 Hartree
N -3.078705 0.659408 -0.492261
N -2.022721 0.949302 -0.575618
O 0.795399 0.135324 -1.233405
H 1.510564 0.378417 -0.642180
H 0.991859 -0.740442 -1.571808
5
Structure 959 | Energy: -10.834143 Hartree
N -2.407512 1.664563 0.572938
N -1.444230 1.687283 0.046004
O 0.795399 0.135324 -1.233405
H 1.510564 0.378417 -0.642180
H 0.991859 -0.740442 -1.571808
5
Structure 960 | Energy: -10.834178 Hartree
N -2.407512 1.664563 0.572938
N -1.444230 1.687283 0.046004
O 0.834853 0.112895 -1.255161
H 1.550018 0.355988 -0.663936
H 1.031313 -0.762871 -1.593565
5
Structure 961 | Energy: -10.834130 Hartree
N -2.407512 1.664563 0.572938
N -1.444230 1.687283 0.046004
O 0.783146 0.142290 -1.226648
H 1.498310 0.385383 -0.635422
H 0.979606 -0.733476 -1.565051
5
Structure 962 | Energy: -10.835556 Hartree
N -2.407512 1.664563 0.572938
N -1.444230 1.687283 0.046004
O -1.100501 1.183205 3.645105
H -1.656256 0.434055 3.868741
H -1.036178 1.733029 4.428453
5
Structure 963 | Energy: -10.835466 Hartree
N -2.407512 1.664563 0.572938
N -1.444230 1.687283 0.046004
O -0.333683 1.763436 3.243363
H -0.889438 1.014286 3.466999
H -0.269360 2.313261 4.026711
5
Structure 964 | Energy: -10.834348 Hartree
N -0.842821 1.740924 3.563175
N 0.120461 1.763644 3.036240
O -1.898374 1.687076 0.253127
H -2.454128 0.937926 0.476762
H -1.834051 2.236900 1.036475
5
Structure 965 | Energy: -10.834661 Hartree
N -0.191079 1.649836 3.820309
N 0.772203 1.672556 3.293374
O -1.898374 1.687076 0.253127
H -2.454128 0.937926 0.476762
H -1.834051 2.236900 1.036475
5
Structure 966 | Energy: -10.834981 Hartree
N -0.191079 1.649836 3.820309
N 0.772203 1.672556 3.293374
O -1.950677 1.667971 0.367579
H -1.019747 1.641960 0.137805
H -2.438273 1.836106 -0.441159
5
Structure 967 | Energy: -10.834981 Hartree
N -0.281618 0.337458 3.602055
N 0.681458 0.357187 3.074623
O -1.950677 1.667971 0.367579
H -1.019747 1.641960 0.137805
H -2.438273 1.836106 -0.441159
5
Structure 968 | Energy: -10.835050 Hartree
N -0.281618 0.337458 3.602055
N 0.681458 0.357187 3.074623
O -1.879251 1.623330 0.469348
H -0.948321 1.597319 0.239574
H -2.366847 1.791465 -0.339390
5
Structure 969 | Energy: -10.835278 Hartree
N -1.999061 1.426461 4.188302
N -1.117933 0.773089 4.135321
O -1.879251 1.623330 0.469348
H -0.948321 1.597319 0.239574
H -2.366847 1.791465 -0.339390
5
Structure 970 | Energy: -10.835050 Hartree
N -3.648646 -1.573941 1.325814
N -3.350001 -1.961253 0.342509
O -1.879251 1.623330 0.469348
H -0.948321 1.597319 0.239574
H -2.366847 1.791465 -0.339390
5
Structure 971 | Energy: -10.835050 Hartree
N -1.991242 -1.800777 2.002251
N -1.608799 -2.199558 1.053146
O -1.879251 1.623330 0.469348
H -0.948321 1.597319 0.239574
H -2.366847 1.791465 -0.339390
5
Structure 972 | Energy: -10.835031 Hartree
N -1.990731 -1.834871 2.012733
N -1.608288 -2.233652 1.063628
O -1.879251 1.623330 0.469348
H -0.948321 1.597319 0.239574
H -2.366847 1.791465 -0.339390
5
Structure 973 | Energy: -10.835015 Hartree
N -2.956521 -1.928731 2.027083
N -2.574078 -2.327512 1.077978
O -1.879251 1.623330 0.469348
H -0.948321 1.597319 0.239574
H -2.366847 1.791465 -0.339390
5
Structure 974 | Energy: -10.834818 Hartree
N -3.384743 -2.007513 -0.546136
N -2.525347 -2.042123 -1.229019
O -1.879251 1.623330 0.469348
H -0.948321 1.597319 0.239574
H -2.366847 1.791465 -0.339390
5
Structure 975 | Energy: -10.834917 Hartree
N -2.284143 1.648587 0.752681
N -1.424747 1.613978 0.069798
O -2.979851 -2.032770 -0.829469
H -2.048921 -2.058781 -1.059243
H -3.467447 -1.864635 -1.638208
5
Structure 976 | Energy: -10.834917 Hartree
N -2.284143 1.648587 0.752681
N -1.424747 1.613978 0.069798
O -0.719206 -1.888952 2.008224
H -0.285112 -1.946571 1.154793
H -0.050029 -1.647226 2.651535
5
Structure 977 | Energy: -10.834917 Hartree
N -2.049946 1.946824 2.243900
N -1.026861 2.120665 2.603293
O -0.719206 -1.888952 2.008224
H -0.285112 -1.946571 1.154793
H -0.050029 -1.647226 2.651535
5
Structure 978 | Energy: -10.834937 Hartree
N -1.934416 2.001578 2.044569
N -1.142391 2.065912 2.802624
O -0.719206 -1.888952 2.008224
H -0.285112 -1.946571 1.154793
H -0.050029 -1.647226 2.651535
5
Structure 979 | Energy: -10.834834 Hartree
N -0.734219 2.201866 1.816021
N -1.179674 2.059690 2.809724
O -0.719206 -1.888952 2.008224
H -0.285112 -1.946571 1.154793
H -0.050029 -1.647226 2.651535
5
Structure 980 | Energy: -10.834871 Hartree
N -1.080433 2.157670 1.529248
N -1.550142 2.042901 2.515296
O -0.719206 -1.888952 2.008224
H -0.285112 -1.946571 1.154793
H -0.050029 -1.647226 2.651535
5
Structure 981 | Energy: -10.834560 Hartree
N -1.080433 2.157670 1.529248
N -1.550142 2.042901 2.515296
O -0.445435 -3.071133 2.431598
H -0.011342 -3.128751 1.578167
H 0.223742 -2.829406 3.074909
5
Structure 982 | Energy: -10.834571 Hartree
N -1.063011 2.061147 1.536683
N -1.532719 1.946378 2.522731
O -0.445435 -3.071133 2.431598
H -0.011342 -3.128751 1.578167
H 0.223742 -2.829406 3.074909
5
Structure 983 | Energy: -10.834583 Hartree
N -1.063011 2.061147 1.536683
N -1.532719 1.946378 2.522731
O -0.460707 -2.986524 2.425081
H -0.026614 -3.044143 1.571649
H 0.208470 -2.744798 3.068391
5
Structure 984 | Energy: -10.834604 Hartree
N -1.037520 1.919922 1.547562
N -1.507228 1.805153 2.533610
O -0.460707 -2.986524 2.425081
H -0.026614 -3.044143 1.571649
H 0.208470 -2.744798 3.068391
5
Structure 985 | Energy: -10.834632 Hartree
N -1.442406 1.549245 0.526287
N -0.783638 1.132117 -0.247095
O -0.460707 -2.986524 2.425081
H -0.026614 -3.044143 1.571649
H 0.208470 -2.744798 3.068391
5
Structure 986 | Energy: -10.834608 Hartree
N -0.728359 -2.767659 2.800014
N -0.069592 -3.184787 2.026633
O -1.174754 1.330379 0.151353
H -0.740660 1.272761 -0.702079
H -0.505577 1.572106 0.794663
5
Structure 987 | Energy: -10.834632 Hartree
N -1.442406 1.549245 0.526287
N -0.783638 1.132117 -0.247095
O -0.460707 -2.986524 2.425081
H -0.026614 -3.044143 1.571649
H 0.208470 -2.744798 3.068391
5
Structure 988 | Energy: -10.834632 Hartree
N -1.442406 1.549245 0.526287
N -0.783638 1.132117 -0.247095
O -0.971047 -2.663380 3.024211
H -1.596616 -2.050026 3.414804
H -0.129791 -2.530613 3.465504
5
Structure 989 | Energy: -10.834620 Hartree
N -0.695171 1.108540 0.409843
N -1.530873 1.572822 -0.130651
O -0.971047 -2.663380 3.024211
H -1.596616 -2.050026 3.414804
H -0.129791 -2.530613 3.465504
5
Structure 990 | Energy: -10.834620 Hartree
N -0.695171 1.108540 0.409843
N -1.530873 1.572822 -0.130651
O 3.646286 0.865394 -1.083823
H 3.445299 1.803233 -1.070980
H 4.024419 0.644222 -0.230490
5
Structure 991 | Energy: -10.834628 Hartree
N -0.695171 1.108540 0.409843
N -1.530873 1.572822 -0.130651
O 3.602512 0.869388 -1.073039
H 3.401526 1.807227 -1.060196
H 3.980645 0.648216 -0.219706
5
Structure 992 | Energy: -10.834633 Hartree
N -0.665072 1.105794 0.402428
N -1.500774 1.570075 -0.138067
O 3.602512 0.869388 -1.073039
H 3.401526 1.807227 -1.060196
H 3.980645 0.648216 -0.219706
5
Structure 993 | Energy: -10.834629 Hartree
N -0.665072 1.105794 0.402428
N -1.500774 1.570075 -0.138067
O 3.624382 0.972034 -1.024981
H 2.999133 0.508546 -1.585646
H 4.035918 0.317699 -0.457035
5
Structure 994 | Energy: -10.834442 Hartree
N 4.030275 0.677347 -0.754326
N 3.194573 1.141628 -1.294821
O -1.070965 1.400480 0.131773
H -1.696214 0.936993 -0.428892
H -0.659429 0.746146 0.699719
5
Structure 995 | Energy: -10.834710 Hartree
N 4.030275 0.677347 -0.754326
N 3.194573 1.141628 -1.294821
O -1.132637 1.318131 0.166698
H -1.111875 1.437321 -0.784862
H -0.264898 1.552870 0.501368
5
Structure 996 | Energy: -10.834733 Hartree
N 3.939443 0.685636 -0.731949
N 3.103741 1.149917 -1.272443
O -1.132637 1.318131 0.166698
H -1.111875 1.437321 -0.784862
H -0.264898 1.552870 0.501368
5
Structure 997 | Energy: -10.834562 Hartree
N 3.939443 0.685636 -0.731949
N 3.103741 1.149917 -1.272443
O -0.490513 1.117422 1.536993
H -0.469751 1.236612 0.585434
H 0.377226 1.352162 1.871664
5
Structure 998 | Energy: -10.834427 Hartree
N 3.220855 2.723040 -1.406232
N 3.155982 1.656096 -1.154222
O -0.490513 1.117422 1.536993
H -0.469751 1.236612 0.585434
H 0.377226 1.352162 1.871664
5
Structure 999 | Energy: -10.834428 Hartree
N 3.220855 2.723040 -1.406232
N 3.155982 1.656096 -1.154222
O -0.460602 1.126096 1.514059
H -0.439840 1.245285 0.562500
H 0.407137 1.360835 1.848730
5
Structure 1000 | Energy: -10.834782 Hartree
N -0.378451 1.679371 1.353537
N -0.443325 0.612427 1.605547
O 3.138704 2.169765 -1.245710
H 3.159466 2.288954 -2.197269
H 4.006443 2.404504 -0.911039
5
Structure 1001 | Energy: -10.834815 Hartree
N -0.378451 1.679371 1.353537
N -0.443325 0.612427 1.605547
O 3.138704 2.169763 -1.245711
H 3.264889 3.048178 -1.609809
H 3.901024 1.645307 -1.498479
5
Structure 1002 | Energy: -10.834707 Hartree
N 0.068138 0.938435 1.310605
N 0.003264 -0.128509 1.562616
O 3.138704 2.169763 -1.245711
H 3.264889 3.048178 -1.609809
H 3.901024 1.645307 -1.498479
5
Structure 1003 | Energy: -10.834695 Hartree
N 0.035485 0.919952 1.338744
N -0.029389 -0.146993 1.590754
O 3.138704 2.169763 -1.245711
H 3.264889 3.048178 -1.609809
H 3.901024 1.645307 -1.498479
5
Structure 1004 | Energy: -10.834639 Hartree
N -0.063484 0.771784 1.079216
N 0.069581 0.001175 1.850282
O 3.138704 2.169763 -1.245711
H 3.264889 3.048178 -1.609809
H 3.901024 1.645307 -1.498479
5
Structure 1005 | Energy: -10.834639 Hartree
N -0.161140 0.987151 1.062123
N -0.695672 1.688839 1.716340
O 3.138704 2.169763 -1.245711
H 3.264889 3.048178 -1.609809
H 3.901024 1.645307 -1.498479
5
Structure 1006 | Energy: -10.834862 Hartree
N -0.161140 0.987151 1.062123
N -0.695672 1.688839 1.716340
O -3.425064 -1.511237 -0.416578
H -3.380114 -1.716455 -1.352510
H -4.118362 -2.056254 -0.039256
5
Structure 1007 | Energy: -10.834802 Hartree
N -0.161140 0.987151 1.062123
N -0.695672 1.688839 1.716340
O -1.750561 -2.950736 1.855838
H -2.652728 -3.142996 2.118959
H -1.321769 -3.789986 1.677302
5
Structure 1008 | Energy: -10.834843 Hartree
N -0.194552 0.879469 1.073801
N -0.729084 1.581157 1.728017
O -1.750561 -2.950736 1.855838
H -2.652728 -3.142996 2.118959
H -1.321769 -3.789986 1.677302
5
Structure 1009 | Energy: -10.834846 Hartree
N -0.194552 0.879469 1.073801
N -0.729084 1.581157 1.728017
O -1.750564 -2.950735 1.855839
H -1.355110 -3.782109 1.586513
H -2.619341 -3.150896 2.209730
5
Structure 1010 | Energy: -10.834846 Hartree
N -0.233541 0.898937 1.093021
N 0.850071 0.792680 0.949552
O -1.750564 -2.950735 1.855839
H -1.355110 -3.782109 1.586513
H -2.619341 -3.150896 2.209730
5
Structure 1011 | Energy: -10.835294 Hartree
N -0.792992 -0.285394 0.124514
N 0.290620 -0.391651 -0.018955
O -1.750564 -2.950735 1.855839
H -1.355110 -3.782109 1.586513
H -2.619341 -3.150896 2.209730
5
Structure 1012 | Energy: -10.835288 Hartree
N -0.792992 -0.285394 0.124514
N 0.290620 -0.391651 -0.018955
O -1.150758 0.035413 3.425279
H -0.389711 -0.162967 3.974420
H -1.932933 -0.104350 3.962630
5
Structure 1013 | Energy: -10.835232 Hartree
N -0.847725 -0.723031 1.052759
N 0.235887 -0.829287 0.909291
O -1.150758 0.035413 3.425279
H -0.389711 -0.162967 3.974420
H -1.932933 -0.104350 3.962630
5
Structure 1014 | Energy: -10.835232 Hartree
N -1.474159 -0.699234 1.047966
N -2.560389 -0.723065 0.887893
O -1.150758 0.035413 3.425279
H -0.389711 -0.162967 3.974420
H -1.932933 -0.104350 3.962630
5
Structure 1015 | Energy: -10.835406 Hartree
N -1.474159 -0.699234 1.047966
N -2.560389 -0.723065 0.887893
O -1.006682 -0.964556 3.783121
H -0.245635 -1.162935 4.332262
H -1.788857 -1.104319 4.320472
5
Structure 1016 | Energy: -10.835407 Hartree
N -1.474159 -0.699234 1.047966
N -2.560389 -0.723065 0.887893
O -1.018037 -0.961492 3.750767
H -0.256991 -1.159872 4.299908
H -1.800213 -1.101255 4.288118
5
Structure 1017 | Energy: -10.836033 Hartree
N -1.647774 -0.536873 0.601024
N -2.386774 -0.885427 1.334835
O -1.018037 -0.961492 3.750767
H -0.256991 -1.159872 4.299908
H -1.800213 -1.101255 4.288118
5
Structure 1018 | Energy: -10.836033 Hartree
N -1.647774 -0.536873 0.601024
N -2.386774 -0.885427 1.334835
O -1.018037 -2.709970 2.920255
H -0.256991 -3.010270 3.420985
H -1.800213 -3.038167 3.368101
5
Structure 1019 | Energy: -10.836024 Hartree
N -1.647774 -0.536873 0.601024
N -2.386774 -0.885427 1.334835
O -1.010237 -2.725866 2.935927
H -0.249191 -3.026166 3.436657
H -1.792413 -3.054063 3.383774
5
Structure 1020 | Energy: -10.836112 Hartree
N -2.053428 -0.854455 0.622067
N -2.792428 -1.203009 1.355878
O -1.010237 -2.725866 2.935927
H -0.249191 -3.026166 3.436657
H -1.792413 -3.054063 3.383774
5
Structure 1021 | Energy: -10.836084 Hartree
N -2.053428 -0.854455 0.622067
N -2.792428 -1.203009 1.355878
O -1.045523 -2.682561 2.885930
H -0.284476 -2.982861 3.386659
H -1.827698 -3.010758 3.333776
5
Structure 1022 | Energy: -10.836084 Hartree
N -2.053428 -0.854455 0.622067
N -2.792428 -1.203009 1.355878
O -2.380031 0.802260 3.197246
H -1.981831 1.449465 3.782621
H -3.154681 0.454412 3.643337
5
Structure 1023 | Energy: -10.836047 Hartree
N -2.820650 -1.219776 1.315838
N -2.025206 -0.837688 0.662107
O -2.380031 0.802260 3.197246
H -1.981831 1.449465 3.782621
H -3.154681 0.454412 3.643337
5
Structure 1024 | Energy: -10.835993 Hartree
N -2.820650 -1.219776 1.315838
N -2.025206 -0.837688 0.662107
O -1.840736 0.642955 3.536779
H -1.442535 1.290160 4.122154
H -2.615386 0.295107 3.982870
5
Structure 1025 | Energy: -10.835994 Hartree
N -1.864271 -1.021929 0.983706
N -0.903318 -0.576922 0.692796
O -1.840736 0.642955 3.536779
H -1.442535 1.290160 4.122154
H -2.615386 0.295107 3.982870
5
Structure 1026 | Energy: -10.835822 Hartree
N -1.864271 -1.021929 0.983706
N -0.903318 -0.576922 0.692796
O -1.142299 -2.862435 -1.454560
H -1.339541 -2.980532 -2.385823
H -0.654278 -3.636594 -1.167174
5
Structure 1027 | Energy: -10.835822 Hartree
N -1.864271 -1.021929 0.983706
N -0.903318 -0.576922 0.692796
O -1.142299 0.473089 3.647823
H -1.339541 1.278737 4.129621
H -0.654278 -0.100746 4.241647
5
Structure 1028 | Energy: -10.835473 Hartree
N -1.864271 -1.021929 0.983706
N -0.903318 -0.576922 0.692796
O -1.795636 -0.271102 4.080842
H -1.992878 0.534546 4.562640
H -1.307615 -0.844937 4.674665
5
Structure 1029 | Energy: -10.835473 Hartree
N -2.233073 -0.279496 0.923424
N -1.279036 0.179433 0.631385
O -1.795636 -0.271102 4.080842
H -1.992878 0.534546 4.562640
H -1.307615 -0.844937 4.674665
5
Structure 1030 | Energy: -10.835473 Hartree
N -2.233073 -0.279496 0.923424
N -1.279036 0.179433 0.631385
O -0.049146 0.569028 3.546225
H -0.311021 1.343584 4.047808
H 0.393280 -0.026741 4.154005
5
Structure 1031 | Energy: -10.835654 Hartree
N -2.233073 -0.279496 0.923424
N -1.279036 0.179433 0.631385
O -2.526564 3.015577 -0.208242
H -2.602195 3.680991 0.478494
H -2.336365 3.474542 -1.028763
5
Structure 1032 | Energy: -10.835541 Hartree
N -2.233073 -0.279496 0.923424
N -1.279036 0.179433 0.631385
O -3.991020 1.456002 -1.146117
H -4.153421 1.061465 -2.005226
H -4.243655 2.379447 -1.205295
5
Structure 1033 | Energy: -10.835714 Hartree
N -2.233073 -0.279496 0.923424
N -1.279036 0.179433 0.631385
O 0.647416 -2.213377 1.489026
H 1.545609 -1.876980 1.475329
H 0.643146 -2.988943 2.053434
5
Structure 1034 | Energy: -10.835763 Hartree
N -2.233073 -0.279496 0.923424
N -1.279036 0.179433 0.631385
O 0.610639 -2.180580 1.477897
H 1.508832 -1.844184 1.464200
H 0.606369 -2.956147 2.042305
5
Structure 1035 | Energy: -10.835672 Hartree
N -2.526763 -0.702484 1.590732
N -1.685671 -0.040339 1.345343
O 0.610639 -2.180580 1.477897
H 1.508832 -1.844184 1.464200
H 0.606369 -2.956147 2.042305
5
Structure 1036 | Energy: -10.835016 Hartree
N -1.715715 -4.679997 0.700999
N -1.691529 -3.799701 0.044811
O 0.610639 -2.180580 1.477897
H 1.508832 -1.844184 1.464200
H 0.606369 -2.956147 2.042305
5
Structure 1037 | Energy: -10.835024 Hartree
N -1.687092 -4.655364 0.714750
N -1.662906 -3.775068 0.058562
O 0.610639 -2.180580 1.477897
H 1.508832 -1.844184 1.464200
H 0.606369 -2.956147 2.042305
5
Structure 1038 | Energy: -10.835030 Hartree
N -1.644781 -4.618951 0.735077
N -1.620595 -3.738655 0.078888
O 0.610639 -2.180580 1.477897
H 1.508832 -1.844184 1.464200
H 0.606369 -2.956147 2.042305
5
Structure 1039 | Energy: -10.835857 Hartree
N -1.644781 -4.618951 0.735077
N -1.620595 -3.738655 0.078888
O 0.878156 -4.331658 -1.553774
H 1.825692 -4.348570 -1.702068
H 0.620354 -3.411677 -1.468614
5
Structure 1040 | Energy: -10.835565 Hartree
N -1.628812 -4.187829 1.081852
N -1.604626 -3.307533 0.425664
O 0.878156 -4.331658 -1.553774
H 1.825692 -4.348570 -1.702068
H 0.620354 -3.411677 -1.468614
5
Structure 1041 | Energy: -10.835813 Hartree
N -1.442884 -3.324148 0.450569
N -1.790553 -4.171214 1.056947
O 0.878156 -4.331658 -1.553774
H 1.825692 -4.348570 -1.702068
H 0.620354 -3.411677 -1.468614
5
Structure 1042 | Energy: -10.835813 Hartree
N -1.926109 -3.172144 -2.654374
N -2.453795 -3.962583 -3.204685
O 0.878156 -4.331658 -1.553774
H 1.825692 -4.348570 -1.702068
H 0.620354 -3.411677 -1.468614
5
Structure 1043 | Energy: -10.835438 Hartree
N -1.544518 -2.307219 -2.626318
N -2.072204 -3.097658 -3.176630
O 0.878156 -4.331658 -1.553774
H 1.825692 -4.348570 -1.702068
H 0.620354 -3.411677 -1.468614
5
Structure 1044 | Energy: -10.834376 Hartree
N 0.034830 -1.919370 -3.734749
N -0.526075 -1.318771 -3.006219
O 0.878156 -4.331658 -1.553774
H 1.825692 -4.348570 -1.702068
H 0.620354 -3.411677 -1.468614
5
Structure 1045 | Energy: -10.834453 Hartree
N 0.034830 -1.919370 -3.734749
N -0.526075 -1.318771 -3.006219
O -2.631694 0.310659 -1.788001
H -3.356715 -0.292738 -1.613762
H -2.280886 0.090833 -2.653269
5
Structure 1046 | Energy: -10.834453 Hartree
N 0.034830 -1.919370 -3.734749
N -0.526075 -1.318771 -3.006219
O -2.631694 -0.433710 -1.174345
H -3.356715 -0.147580 -1.733430
H -2.280886 -1.241163 -1.555173
5
Structure 1047 | Energy: -10.835949 Hartree
N 0.034830 -1.919370 -3.734749
N -0.526075 -1.318771 -3.006219
O -1.932642 -0.781612 -0.476685
H -1.407971 -0.081974 -0.082566
H -1.929622 -0.638982 -1.425224
5
Structure 1048 | Energy: -10.835893 Hartree
N 0.034830 -1.919370 -3.734749
N -0.526075 -1.318771 -3.006219
O -1.918183 -0.789328 -0.501657
H -1.393513 -0.089690 -0.107538
H -1.915163 -0.646699 -1.450196
5
Structure 1049 | Energy: -10.833555 Hartree
N -1.608205 -1.042500 -0.896944
N -2.169109 -0.441901 -0.168414
O -0.275148 -1.666198 -3.339462
H 0.249522 -0.966560 -2.945343
H -0.272129 -1.523569 -4.288001
5
Structure 1050 | Energy: -10.835313 Hartree
N -1.608205 -1.042500 -0.896944
N -2.169109 -0.441901 -0.168414
O 0.551375 1.545554 -0.916917
H -0.255285 2.037589 -0.751678
H 1.039707 2.019431 -1.592972
5
Structure 1051 | Energy: -10.835351 Hartree
N -1.608205 -1.042500 -0.896944
N -2.169109 -0.441901 -0.168414
O 0.496569 1.492568 -0.907576
H -0.310091 1.984603 -0.742337
H 0.984901 1.966445 -1.583631
5
Structure 1052 | Energy: -10.835351 Hartree
N 0.558728 1.407642 2.385701
N -0.536502 1.404081 2.304791
O 0.496569 1.492568 -0.907576
H -0.310091 1.984603 -0.742337
H 0.984901 1.966445 -1.583631
5
Structure 1053 | Energy: -10.834364 Hartree
N 1.026372 1.548394 -0.895703
N -0.068858 1.544833 -0.976613
O 0.028925 1.351816 2.373828
H -0.777735 1.843851 2.539067
H 0.517257 1.825693 1.697773
5
Structure 1054 | Energy: -10.834492 Hartree
N 1.026372 1.548394 -0.895703
N -0.068858 1.544833 -0.976613
O 0.715028 2.373579 2.297510
H -0.015280 2.976919 2.448287
H 1.075087 2.574263 1.431391
5
Structure 1055 | Energy: -10.834678 Hartree
N 1.026372 1.548394 -0.895703
N -0.068858 1.544833 -0.976613
O 0.715028 2.373580 2.297510
H -0.091977 2.884752 2.384391
H 1.151781 2.666427 1.495285
5
Structure 1056 | Energy: -10.835302 Hartree
N 3.326277 0.821344 1.103496
N 2.710358 -0.086092 1.046097
O 0.715028 2.373580 2.297510
H -0.091977 2.884752 2.384391
H 1.151781 2.666427 1.495285
5
Structure 1057 | Energy: -10.835313 Hartree
N 3.285848 0.857022 1.124070
N 2.669930 -0.050413 1.066671
O 0.715028 2.373580 2.297510
H -0.091977 2.884752 2.384391
H 1.151781 2.666427 1.495285
5
Structure 1058 | Energy: -10.834280 Hartree
N 3.285848 0.857022 1.124070
N 2.669930 -0.050413 1.066671
O 0.223515 -0.831841 -0.060269
H -0.562385 -1.374579 -0.149147
H 0.168046 -0.388499 0.788523
5
Structure 1059 | Energy: -10.835131 Hartree
N 3.285848 0.857022 1.124070
N 2.669930 -0.050413 1.066671
O 0.188494 -0.799236 -0.067277
H -0.284467 -1.633334 -0.093530
H 0.445975 -0.647264 0.844143
5
Structure 1060 | Energy: -10.835220 Hartree
N 3.779030 0.508203 1.069640
N 3.163112 -0.399233 1.012241
O 0.188494 -0.799236 -0.067277
H -0.284467 -1.633334 -0.093530
H 0.445975 -0.647264 0.844143
5
Structure 1061 | Energy: -10.834597 Hartree
N -2.288480 0.445673 -2.889968
N -1.854230 0.721958 -1.919823
O 0.188494 -0.799236 -0.067277
H -0.284467 -1.633334 -0.093530
H 0.445975 -0.647264 0.844143
5
Structure 1062 | Energy: -10.834588 Hartree
N -2.288480 0.445673 -2.889968
N -1.854230 0.721958 -1.919823
O 0.130874 -0.762804 -0.128470
H -0.342087 -1.596903 -0.154722
H 0.388355 -0.610832 0.782950
5
Structure 1063 | Energy: -10.834588 Hartree
N -2.288480 0.445673 -2.889968
N -1.854230 0.721958 -1.919823
O -2.262545 -0.480592 0.862487
H -2.121765 -1.387058 0.582125
H -1.772559 -0.356036 1.677642
5
Structure 1064 | Energy: -10.834581 Hartree
N -2.288480 0.445673 -2.889968
N -1.854230 0.721958 -1.919823
O -2.260942 -0.469192 0.828566
H -2.120162 -1.375658 0.548204
H -1.770955 -0.344636 1.643721
5
Structure 1065 | Energy: -10.835133 Hartree
N -1.978832 3.194637 -0.221680
N -1.379537 2.296668 -0.020222
O -2.260942 -0.469192 0.828566
H -2.120162 -1.375658 0.548204
H -1.770955 -0.344636 1.643721
5
Structure 1066 | Energy: -10.835126 Hartree
N -1.978832 3.194637 -0.221680
N -1.379537 2.296668 -0.020222
O -2.264324 -0.489362 0.834629
H -2.123544 -1.395828 0.554267
H -1.774338 -0.364806 1.649784
5
Structure 1067 | Energy: -10.834842 Hartree
N -1.978832 3.194637 -0.221680
N -1.379537 2.296668 -0.020222
O -1.616375 -0.220206 1.588019
H -1.489542 -1.162262 1.459389
H -0.902654 0.088422 2.149650
5
Structure 1068 | Energy: -10.835549 Hartree
N -1.384908 2.614487 0.323705
N -1.973461 2.876818 -0.565607
O -1.616375 -0.220206 1.588019
H -1.489542 -1.162262 1.459389
H -0.902654 0.088422 2.149650
5
Structure 1069 | Energy: -10.835519 Hartree
N -1.385900 2.641608 0.308043
N -1.974454 2.903939 -0.581269
O -1.616375 -0.220206 1.588019
H -1.489542 -1.162262 1.459389
H -0.902654 0.088422 2.149650
5
Structure 1070 | Energy: -10.835378 Hartree
N 0.137221 -2.538713 0.196640
N 1.189031 -2.377642 -0.075099
O -1.616375 -0.220206 1.588019
H -1.489542 -1.162262 1.459389
H -0.902654 0.088422 2.149650
5
Structure 1071 | Energy: -10.835290 Hartree
N -2.095248 -0.336184 1.748116
N -1.043439 -0.175113 1.476378
O 0.616094 -2.422735 0.036543
H 0.742927 -3.364791 -0.092088
H 1.329815 -2.114108 0.598174
5
Structure 1072 | Energy: -10.835290 Hartree
N -2.095248 -0.336184 1.748116
N -1.043439 -0.175113 1.476378
O 0.392474 -2.043073 -0.603973
H 0.294628 -2.603670 -1.376151
H 0.808611 -1.229207 -0.894714
5
Structure 1073 | Energy: -10.835210 Hartree
N -2.289088 0.260480 1.506332
N -1.237279 0.421552 1.234594
O 0.392474 -2.043073 -0.603973
H 0.294628 -2.603670 -1.376151
H 0.808611 -1.229207 -0.894714
5
Structure 1074 | Energy: -10.835210 Hartree
N 3.047310 -2.097963 2.542351
N 2.594081 -1.271734 1.978421
O 0.392474 -2.043073 -0.603973
H 0.294628 -2.603670 -1.376151
H 0.808611 -1.229207 -0.894714
5
Structure 1075 | Energy: -10.834753 Hartree
N 3.799543 -1.873023 3.179693
N 3.346314 -1.046793 2.615763
O 0.392474 -2.043073 -0.603973
H 0.294628 -2.603670 -1.376151
H 0.808611 -1.229207 -0.894714
5
Structure 1076 | Energy: -10.834709 Hartree
N 3.710382 -1.720752 2.434490
N 3.435474 -1.199064 3.360965
O 0.392474 -2.043073 -0.603973
H 0.294628 -2.603670 -1.376151
H 0.808611 -1.229207 -0.894714
5
Structure 1077 | Energy: -10.834702 Hartree
N 3.729965 -1.717228 2.456540
N 3.455056 -1.195541 3.383015
O 0.392474 -2.043073 -0.603973
H 0.294628 -2.603670 -1.376151
H 0.808611 -1.229207 -0.894714
5
Structure 1078 | Energy: -10.834510 Hartree
N 3.058636 -1.334498 2.960318
N 4.126385 -1.578271 2.879237
O 0.392474 -2.043073 -0.603973
H 0.294628 -2.603670 -1.376151
H 0.808611 -1.229207 -0.894714
5
Structure 1079 | Energy: -10.834548 Hartree
N 2.519526 -0.937163 3.885578
N 3.587275 -1.180936 3.804498
O 0.392474 -2.043073 -0.603973
H 0.294628 -2.603670 -1.376151
H 0.808611 -1.229207 -0.894714
5
Structure 1080 | Energy: -10.834621 Hartree
N 2.136141 -0.214565 3.290050
N 3.203890 -0.458338 3.208969
O 0.392474 -2.043073 -0.603973
H 0.294628 -2.603670 -1.376151
H 0.808611 -1.229207 -0.894714
5
Structure 1081 | Energy: -10.834562 Hartree
N -0.123591 -1.907016 -0.622906
N 0.944158 -2.150789 -0.703987
O 2.652206 -0.350623 3.308983
H 2.554360 -0.911219 2.536805
H 3.068343 0.463244 3.018242
5
Structure 1082 | Energy: -10.834701 Hartree
N -0.123591 -1.907016 -0.622906
N 0.944158 -2.150789 -0.703987
O 2.149508 -1.157559 2.861637
H 2.051662 -1.718156 2.089458
H 2.565645 -0.343693 2.570896
5
Structure 1083 | Energy: -10.834726 Hartree
N -0.072836 -1.881436 -0.522796
N 0.994913 -2.125209 -0.603877
O 2.149508 -1.157559 2.861637
H 2.051662 -1.718156 2.089458
H 2.565645 -0.343693 2.570896
5
Structure 1084 | Energy: -10.835049 Hartree
N -0.962361 0.210903 5.035851
N -0.713502 -0.851621 5.159144
O 2.149508 -1.157559 2.861637
H 2.051662 -1.718156 2.089458
H 2.565645 -0.343693 2.570896
5
Structure 1085 | Energy: -10.835097 Hartree
N -0.962361 0.210903 5.035851
N -0.713502 -0.851621 5.159144
O 2.085442 -1.140014 2.910568
H 1.987596 -1.700611 2.138390
H 2.501579 -0.326148 2.619828
5
Structure 1086 | Energy: -10.835097 Hartree
N -1.528469 -1.302962 4.505563
N -0.730907 -0.898164 5.142840
O 2.085442 -1.140014 2.910568
H 1.987596 -1.700611 2.138390
H 2.501579 -0.326148 2.619828
5
Structure 1087 | Energy: -10.835135 Hartree
N -1.528469 -1.302962 4.505563
N -0.730907 -0.898164 5.142840
O 2.032654 -1.139601 2.942786
H 1.934808 -1.700198 2.170607
H 2.448791 -0.325735 2.652045
5
Structure 1088 | Energy: -10.835135 Hartree
N -1.528469 -1.302962 4.505563
N -0.730907 -0.898164 5.142840
O 2.032654 -2.786989 3.989207
H 1.934808 -3.247678 3.153567
H 2.448791 -3.396080 4.602328
5
Structure 1089 | Energy: -10.835192 Hartree
N -1.452717 -1.344559 4.485377
N -0.655155 -0.939761 5.122654
O 2.032654 -2.786989 3.989207
H 1.934808 -3.247678 3.153567
H 2.448791 -3.396080 4.602328
5
Structure 1090 | Energy: -10.835327 Hartree
N -1.452717 -1.344559 4.485377
N -0.655155 -0.939761 5.122654
O 2.014781 -2.894128 3.953382
H 1.740887 -2.240638 4.599937
H 2.926396 -2.702604 3.724573
5
Structure 1091 | Energy: -10.834896 Hartree
N -0.898771 -1.303793 5.305334
N -1.209100 -0.980527 4.302696
O 2.014781 -2.894128 3.953382
H 1.740887 -2.240638 4.599937
H 2.926396 -2.702604 3.724573
5
Structure 1092 | Energy: -10.834896 Hartree
N 4.441617 -3.384907 1.361991
N 3.772976 -2.922010 0.623930
O 2.014781 -2.894128 3.953382
H 1.740887 -2.240638 4.599937
H 2.926396 -2.702604 3.724573
5
Structure 1093 | Energy: -10.834896 Hartree
N 4.441617 -3.384907 1.361991
N 3.772976 -2.922010 0.623930
O 1.276575 -2.383071 3.138534
H 1.012037 -1.736058 3.795417
H 1.797887 -1.921342 2.478900
5
Structure 1094 | Energy: -10.834809 Hartree
N 4.441617 -3.384907 1.361991
N 3.772976 -2.922010 0.623930
O 1.276572 -2.383071 3.138535
H 2.157234 -2.002925 3.143589
H 0.652730 -1.654484 3.130705
5
Structure 1095 | Energy: -10.834158 Hartree
N 4.441617 -3.384907 1.361991
N 3.772976 -2.922010 0.623930
O 1.510065 -2.849084 2.665225
H 2.390727 -2.468938 2.670279
H 0.886223 -2.120498 2.657395
5
Structure 1096 | Energy: -10.834405 Hartree
N 1.858755 -3.018495 3.034100
N 1.190114 -2.555598 2.296039
O 4.092927 -3.215496 0.993116
H 4.973589 -2.835350 0.998170
H 3.469085 -2.486910 0.985286
5
Structure 1097 | Energy: -10.834345 Hartree
N 1.879236 -3.021401 3.020841
N 1.210595 -2.558503 2.282780
O 4.092927 -3.215496 0.993116
H 4.973589 -2.835350 0.998170
H 3.469085 -2.486910 0.985286
5
Structure 1098 | Energy: -10.834264 Hartree
N 3.337476 -2.212019 3.752500
N 3.525352 -1.167961 3.468365
O 4.092927 -3.215496 0.993116
H 4.973589 -2.835350 0.998170
H 3.469085 -2.486910 0.985286
5
Structure 1099 | Energy: -10.834905 Hartree
N 2.939659 -3.275712 -1.784748
N 2.169012 -2.542140 -1.512599
O 4.092927 -3.215496 0.993116
H 4.973589 -2.835350 0.998170
H 3.469085 -2.486910 0.985286
5
Structure 1100 | Energy: -10.834951 Hartree
N 4.492620 -3.520244 0.856886
N 3.721974 -2.786673 1.129035
O 2.539966 -2.970963 -1.648518
H 3.420628 -2.590817 -1.643464
H 1.916124 -2.242377 -1.656348
5
Structure 1101 | Energy: -10.835421 Hartree
N 3.870564 -3.078812 1.482764
N 4.344030 -3.228105 0.503157
O 2.539966 -2.970963 -1.648518
H 3.420628 -2.590817 -1.643464
H 1.916124 -2.242377 -1.656348
5
Structure 1102 | Energy: -10.835051 Hartree
N 3.229975 -2.850702 1.704867
N 3.703441 -2.999994 0.725260
O 2.539966 -2.970963 -1.648518
H 3.420628 -2.590817 -1.643464
H 1.916124 -2.242377 -1.656348
5
Structure 1103 | Energy: -10.833999 Hartree
N 2.081182 0.390634 -2.420125
N 2.861047 -0.376865 -2.326087
O 2.539966 -2.970963 -1.648518
H 3.420628 -2.590817 -1.643464
H 1.916124 -2.242377 -1.656348
5
Structure 1104 | Energy: -10.833523 Hartree
N 2.081182 0.390634 -2.420125
N 2.861047 -0.376865 -2.326087
O 3.730048 -2.499248 -3.610738
H 4.190571 -2.236649 -2.811324
H 2.896783 -2.024416 -3.627522
5
Structure 1105 | Energy: -10.835259 Hartree
N 2.081182 0.390634 -2.420125
N 2.861047 -0.376865 -2.326087
O 3.158813 -3.252178 -3.590189
H 3.619335 -2.989579 -2.790774
H 2.325547 -2.777346 -3.606972
5
Structure 1106 | Energy: -10.835337 Hartree
N 2.081182 0.390634 -2.420125
N 2.861047 -0.376865 -2.326087
O 3.273828 -3.020604 -4.084251
H 3.734350 -2.758006 -3.284837
H 2.440562 -2.545773 -4.101035
5
Structure 1107 | Energy: -10.835321 Hartree
N 2.081182 0.390634 -2.420125
N 2.861047 -0.376865 -2.326087
O 3.280951 -3.047810 -4.099442
H 3.741473 -2.785211 -3.300027
H 2.447685 -2.572979 -4.116225
5
Structure 1108 | Energy: -10.834950 Hartree
N 2.253618 0.746444 -1.975979
N 3.033484 -0.021056 -1.881941
O 3.280951 -3.047810 -4.099442
H 3.741473 -2.785211 -3.300027
H 2.447685 -2.572979 -4.116225
5
Structure 1109 | Energy: -10.834680 Hartree
N 2.253618 0.746444 -1.975979
N 3.033484 -0.021056 -1.881941
O 1.594696 -3.181191 -3.686682
H 2.479679 -2.906659 -3.438610
H 0.979508 -2.660559 -3.166525
5
Structure 1110 | Energy: -10.834644 Hartree
N 1.009313 0.728200 -1.918422
N 1.937863 0.179486 -1.711546
O 1.594696 -3.181191 -3.686682
H 2.479679 -2.906659 -3.438610
H 0.979508 -2.660559 -3.166525
5
Structure 1111 | Energy: -10.834665 Hartree
N 1.012972 0.631755 -1.967543
N 1.941521 0.083041 -1.760667
O 1.594696 -3.181191 -3.686682
H 2.479679 -2.906659 -3.438610
H 0.979508 -2.660559 -3.166525
5
Structure 1112 | Energy: -10.835014 Hartree
N 1.012972 0.631755 -1.967543
N 1.941521 0.083041 -1.760667
O 1.607240 -3.111427 -3.585302
H 1.050692 -3.814530 -3.925893
H 2.209403 -2.859999 -4.288340
5
Structure 1113 | Energy: -10.834145 Hartree
N 1.012972 0.631755 -1.967543
N 1.941521 0.083041 -1.760667
O 3.580103 -2.890175 -1.655713
H 3.606707 -3.755711 -1.243108
H 3.665514 -3.023727 -2.601729
5
Structure 1114 | Energy: -10.835666 Hartree
N 3.122096 -2.671720 -1.788997
N 4.050645 -3.220435 -1.582121
O 1.470979 0.413300 -1.834259
H 1.497584 -0.452236 -1.421654
H 1.556390 0.279748 -2.780275
5
Structure 1115 | Energy: -10.835957 Hartree
N 3.122096 -2.671720 -1.788997
N 4.050645 -3.220435 -1.582121
O 1.813217 0.266578 -2.073559
H 1.839822 -0.598958 -1.660955
H 1.898628 0.133026 -3.019576
5
Structure 1116 | Energy: -10.834929 Hartree
N 3.250791 -2.881638 -2.115391
N 3.921950 -3.010517 -1.255726
O 1.813217 0.266578 -2.073559
H 1.839822 -0.598958 -1.660955
H 1.898628 0.133026 -3.019576
5
Structure 1117 | Energy: -10.835100 Hartree
N 3.592290 3.120249 -2.051195
N 3.035309 3.931950 -2.538024
O 1.813217 0.266578 -2.073559
H 1.839822 -0.598958 -1.660955
H 1.898628 0.133026 -3.019576
5
Structure 1118 | Energy: -10.835100 Hartree
N -0.319918 2.849816 -2.366232
N 0.191220 3.735351 -2.767048
O 1.813217 0.266578 -2.073559
H 1.839822 -0.598958 -1.660955
H 1.898628 0.133026 -3.019576
5
Structure 1119 | Energy: -10.835100 Hartree
N -0.319918 2.849816 -2.366232
N 0.191220 3.735351 -2.767048
O -2.694628 1.774475 -4.490717
H -3.436021 1.165839 -4.489922
H -2.070164 1.460607 -5.147687
5
Structure 1120 | Energy: -10.835089 Hartree
N -0.305364 2.858481 -2.355408
N 0.205775 3.744016 -2.756225
O -2.694628 1.774475 -4.490717
H -3.436021 1.165839 -4.489922
H -2.070164 1.460607 -5.147687
5
Structure 1121 | Energy: -10.834352 Hartree
N -2.956740 1.280090 -4.327024
N -2.445601 2.165625 -4.727841
O -0.043252 3.352866 -2.519101
H -0.784645 2.744229 -2.518306
H 0.581212 3.038998 -3.176071
5
Structure 1122 | Energy: -10.834579 Hartree
N -2.956740 1.280090 -4.327024
N -2.445601 2.165625 -4.727841
O -1.940694 4.394003 -2.069485
H -2.135939 3.464494 -2.203626
H -1.171985 4.602782 -2.603877
5
Structure 1123 | Energy: -10.835020 Hartree
N -2.164176 3.910908 -1.906483
N -1.653038 4.796444 -2.307299
O -2.733258 1.763185 -4.490026
H -2.928502 0.833676 -4.624167
H -1.964548 1.971964 -5.024418
5
Structure 1124 | Energy: -10.835063 Hartree
N -2.181747 3.852584 -1.960146
N -1.670609 4.738119 -2.360962
O -2.733258 1.763185 -4.490026
H -2.928502 0.833676 -4.624167
H -1.964548 1.971964 -5.024418
5
Structure 1125 | Energy: -10.835279 Hartree
N 1.021431 0.637313 2.080438
N 1.283214 -0.309989 1.590360
O 1.704592 0.133338 -0.758399
H 1.305631 -0.135151 -1.588367
H 2.317499 -0.558173 -0.501037
5
Structure 1126 | Energy: -10.834735 Hartree
N 1.034103 0.635426 2.021469
N 1.295885 -0.311876 1.531391
O 1.704592 0.133338 -0.758399
H 1.305631 -0.135151 -1.588367
H 2.317499 -0.558173 -0.501037
5
Structure 1127 | Energy: -10.834726 Hartree
N 0.842589 0.556569 1.980673
N 1.487398 -0.233019 1.572187
O 1.704592 0.133338 -0.758399
H 1.305631 -0.135151 -1.588367
H 2.317499 -0.558173 -0.501037
5
Structure 1128 | Energy: -10.835369 Hartree
N 0.842589 0.556569 1.980673
N 1.487398 -0.233019 1.572187
O 0.696910 0.997360 -1.489219
H 0.297950 0.728871 -2.319187
H 1.309817 0.305848 -1.231857
5
Structure 1129 | Energy: -10.835804 Hartree
N 1.141425 -0.079870 1.283912
N 1.188563 0.403420 2.268949
O 0.696910 0.997360 -1.489219
H 0.297950 0.728871 -2.319187
H 1.309817 0.305848 -1.231857
5
Structure 1130 | Energy: -10.835778 Hartree
N 0.776018 0.280630 2.145339
N 1.553970 0.042920 1.407522
O 0.696910 0.997360 -1.489219
H 0.297950 0.728871 -2.319187
H 1.309817 0.305848 -1.231857
5
Structure 1131 | Energy: -10.835725 Hartree
N 0.783017 0.268632 2.195939
N 1.560968 0.030923 1.458122
O 0.696910 0.997360 -1.489219
H 0.297950 0.728871 -2.319187
H 1.309817 0.305848 -1.231857
5
Structure 1132 | Energy: -10.835671 Hartree
N 0.783017 0.268632 2.195939
N 1.560968 0.030923 1.458122
O 0.689871 1.009427 -1.540115
H 0.290910 0.740938 -2.370082
H 1.302778 0.317916 -1.282753
5
Structure 1133 | Energy: -10.835814 Hartree
N 0.763840 0.301505 2.057293
N 1.541792 0.063796 1.319475
O 0.689871 1.009427 -1.540115
H 0.290910 0.740938 -2.370082
H 1.302778 0.317916 -1.282753
5
Structure 1134 | Energy: -10.835885 Hartree
N 0.751789 0.322163 1.970163
N 1.529740 0.084454 1.232346
O 0.689871 1.009427 -1.540115
H 0.290910 0.740938 -2.370082
H 1.302778 0.317916 -1.282753
5
Structure 1135 | Energy: -10.834403 Hartree
N 0.312866 1.074566 -1.203245
N 1.090817 0.836857 -1.941062
O 1.128794 0.257024 1.633294
H 0.729833 -0.011465 0.803326
H 1.741701 -0.434488 1.890656
5
Structure 1136 | Energy: -10.835725 Hartree
N 0.312866 1.074566 -1.203245
N 1.090817 0.836857 -1.941062
O 1.184617 0.241504 1.575308
H 0.286827 0.111700 1.263497
H 1.298677 -0.311317 2.350844
5
Structure 1137 | Energy: -10.834412 Hartree
N 0.751789 0.322163 1.970163
N 1.529740 0.084454 1.232346
O 0.745694 0.993907 -1.598101
H -0.152096 0.864103 -1.909912
H 0.859754 0.441086 -0.822564
5
Structure 1138 | Energy: -10.835255 Hartree
N 0.751789 0.322163 1.970163
N 1.529740 0.084454 1.232346
O 0.723579 0.924966 -1.520798
H 1.214346 1.546494 -2.062049
H -0.155672 0.852924 -1.897371
5
Structure 1139 | Energy: -10.835667 Hartree
N 1.304449 3.105330 1.250592
N 0.596106 3.259497 0.425624
O 0.723579 0.924966 -1.520798
H 1.214346 1.546494 -2.062049
H -0.155672 0.852924 -1.897371
5
Structure 1140 | Energy: -10.835701 Hartree
N 1.142793 3.175542 0.323897
N 0.757762 3.189286 1.352319
O 0.723579 0.924966 -1.520798
H 1.214346 1.546494 -2.062049
H -0.155672 0.852924 -1.897371
5
Structure 1141 | Energy: -10.835791 Hartree
N 1.163113 3.361096 0.364509
N 0.737442 3.003732 1.311707
O 0.723579 0.924966 -1.520798
H 1.214346 1.546494 -2.062049
H -0.155672 0.852924 -1.897371
5
Structure 1142 | Energy: -10.835775 Hartree
N 1.163113 3.361096 0.364509
N 0.737442 3.003732 1.311707
O -0.377223 0.208113 0.516889
H -1.096056 0.551087 1.051445
H 0.065950 -0.466068 1.035691
5
Structure 1143 | Energy: -10.835808 Hartree
N 1.163113 3.361096 0.364509
N 0.737442 3.003732 1.311707
O -0.377226 0.208113 0.516888
H -0.020219 0.558571 1.335319
H -1.009850 -0.473552 0.751828
5
Structure 1144 | Energy: -10.834230 Hartree
N -1.482804 -3.030986 1.557182
N -2.137458 -2.366207 0.977884
O -0.377226 0.208113 0.516888
H -0.020219 0.558571 1.335319
H -1.009850 -0.473552 0.751828
5
Structure 1145 | Energy: -10.834776 Hartree
N -1.482804 -3.030986 1.557182
N -2.137458 -2.366207 0.977884
O -1.657927 0.558011 0.606483
H -1.394611 0.992139 1.420302
H -1.961941 -0.321473 0.839208
5
Structure 1146 | Energy: -10.834342 Hartree
N 0.746994 1.436254 3.295580
N 0.228440 1.926141 2.460594
O -1.657927 0.558011 0.606483
H -1.394611 0.992139 1.420302
H -1.961941 -0.321473 0.839208
5
Structure 1147 | Energy: -10.834450 Hartree
N 0.746994 1.436254 3.295580
N 0.228440 1.926141 2.460594
O -1.689655 0.541052 0.573793
H -1.426339 0.975179 1.387612
H -1.993669 -0.338432 0.806518
5
Structure 1148 | Energy: -10.835963 Hartree
N 0.746994 1.436254 3.295580
N 0.228440 1.926141 2.460594
O 1.121106 2.949606 -0.178154
H 0.603495 2.799215 0.615296
H 0.770726 2.372484 -0.859507
5
Structure 1149 | Energy: -10.835829 Hartree
N 0.758364 1.460123 3.236280
N 0.239811 1.950011 2.401295
O 1.121106 2.949606 -0.178154
H 0.603495 2.799215 0.615296
H 0.770726 2.372484 -0.859507
5
Structure 1150 | Energy: -10.836018 Hartree
N 0.758364 1.460123 3.236280
N 0.239811 1.950011 2.401295
O 1.121106 2.949608 -0.178151
H 1.008753 2.121071 -0.648263
H 0.365482 3.050605 0.404009
5
Structure 1151 | Energy: -10.836042 Hartree
N 0.758364 1.460123 3.236280
N 0.239811 1.950011 2.401295
O 1.129121 2.966434 -0.219954
H 1.016769 2.137897 -0.690066
H 0.373497 3.067432 0.362206
5
Structure 1152 | Energy: -10.835348 Hartree
N 0.758364 1.460123 3.236280
N 0.239811 1.950011 2.401295
O 1.089671 2.886690 -0.263164
H 0.249174 3.238128 0.037101
H 1.767251 3.232911 0.320869
5
Structure 1153 | Energy: -10.834993 Hartree
N 1.012767 1.744274 2.628739
N -0.014592 1.665860 3.008835
O 1.089671 2.886690 -0.263164
H 0.249174 3.238128 0.037101
H 1.767251 3.232911 0.320869
5
Structure 1154 | Energy: -10.835441 Hartree
N 1.440429 -0.087443 0.306985
N 0.525938 -0.649283 0.074325
O 1.089671 2.886690 -0.263164
H 0.249174 3.238128 0.037101
H 1.767251 3.232911 0.320869
5
Structure 1155 | Energy: -10.835482 Hartree
N 1.441811 -0.040695 0.301247
N 0.527320 -0.602536 0.068587
O 1.089671 2.886690 -0.263164
H 0.249174 3.238128 0.037101
H 1.767251 3.232911 0.320869
5
Structure 1156 | Energy: -10.835553 Hartree
N 1.444164 0.038929 0.291474
N 0.529674 -0.522911 0.058813
O 1.089671 2.886690 -0.263164
H 0.249174 3.238128 0.037101
H 1.767251 3.232911 0.320869
5
Structure 1157 | Energy: -10.835131 Hartree
N 1.444164 0.038929 0.291474
N 0.529674 -0.522911 0.058813
O 1.049511 2.962221 -0.171737
H 1.995242 2.804113 -0.198165
H 0.658592 2.468087 -0.894988
5
Structure 1158 | Energy: -10.835556 Hartree
N 1.444164 0.038929 0.291474
N 0.529674 -0.522911 0.058813
O 1.136953 2.513785 1.840799
H 2.074071 2.309264 1.831652
H 0.853678 2.588870 0.927456
5
Structure 1159 | Energy: -10.835543 Hartree
N 1.444164 0.038929 0.291474
N 0.529674 -0.522911 0.058813
O 1.130765 2.422648 1.787280
H 2.067883 2.218127 1.778133
H 0.847490 2.497733 0.873937
5
Structure 1160 | Energy: -10.835566 Hartree
N 1.444164 0.038929 0.291474
N 0.529674 -0.522911 0.058813
O 1.130765 2.422648 1.787280
H 2.064814 2.204551 1.777863
H 0.850559 2.511309 0.874207
5
Structure 1161 | Energy: -10.835487 Hartree
N -1.487480 2.136375 0.908639
N -2.050777 1.275401 1.292709
O 1.130765 2.422648 1.787280
H 2.064814 2.204551 1.777863
H 0.850559 2.511309 0.874207
5
Structure 1162 | Energy: -10.835227 Hartree
N -1.487480 2.136375 0.908639
N -2.050777 1.275401 1.292709
O 1.840985 2.121424 2.053130
H 2.775034 1.903326 2.043713
H 1.560779 2.210085 1.140058
5
Structure 1163 | Energy: -10.835207 Hartree
N -1.487480 2.136375 0.908639
N -2.050777 1.275401 1.292709
O 1.387557 0.251515 -0.325125
H 1.927513 -0.165634 -0.999318
H 0.976336 1.019925 -0.725778
5
Structure 1164 | Energy: -10.835137 Hartree
N -1.427694 2.360881 0.676498
N -2.089231 1.547520 1.003454
O 1.387557 0.251515 -0.325125
H 1.927513 -0.165634 -0.999318
H 0.976336 1.019925 -0.725778
5
Structure 1165 | Energy: -10.835252 Hartree
N -1.751484 1.968108 0.291086
N -1.765441 1.940292 1.388866
O 1.387557 0.251515 -0.325125
H 1.927513 -0.165634 -0.999318
H 0.976336 1.019925 -0.725778
5
Structure 1166 | Energy: -10.835314 Hartree
N -1.751484 1.968108 0.291086
N -1.765441 1.940292 1.388866
O 1.317205 0.289065 -0.297789
H 1.857161 -0.128083 -0.971982
H 0.905985 1.057475 -0.698442
5
Structure 1167 | Energy: -10.834963 Hartree
N -1.751484 1.968108 0.291086
N -1.765441 1.940292 1.388866
O 1.378330 0.342041 -0.364037
H 1.241844 -0.421072 0.200881
H 0.551129 0.509633 -0.819810
5
Structure 1168 | Energy: -10.834963 Hartree
N -1.751484 1.968108 0.291086
N -1.765441 1.940292 1.388866
O 1.365410 3.649595 -0.280393
H 1.223082 4.382091 0.322347
H 0.539453 3.498802 -0.744217
5
Structure 1169 | Energy: -10.835234 Hartree
N 1.318209 3.696052 -0.821510
N 1.304253 3.668236 0.276270
O -1.704284 1.921652 0.832203
H -1.846612 2.654148 1.434943
H -2.530241 1.770858 0.368379
5
Structure 1170 | Energy: -10.835089 Hartree
N 0.954578 3.671568 0.144763
N 1.667884 3.692720 -0.690003
O -1.704284 1.921652 0.832203
H -1.846612 2.654148 1.434943
H -2.530241 1.770858 0.368379
5
Structure 1171 | Energy: -10.835103 Hartree
N -2.115116 1.943625 1.257360
N -1.401810 1.964776 0.422593
O 1.365410 3.649595 -0.280393
H 1.223082 4.382091 0.322347
H 0.539453 3.498802 -0.744217
5
Structure 1172 | Energy: -10.835124 Hartree
N -2.074592 1.966435 1.242672
N -1.361286 1.987587 0.407905
O 1.365410 3.649595 -0.280393
H 1.223082 4.382091 0.322347
H 0.539453 3.498802 -0.744217
5
Structure 1173 | Energy: -10.834820 Hartree
N -2.074592 1.966435 1.242672
N -1.361286 1.987587 0.407905
O 1.383396 3.607313 -1.242113
H 1.241068 4.339809 -0.639373
H 0.557439 3.456519 -1.705938
5
Structure 1174 | Energy: -10.834397 Hartree
N -2.074592 1.966435 1.242672
N -1.361286 1.987587 0.407905
O 1.284758 3.623082 -1.191950
H 2.023848 4.214674 -1.037460
H 1.340249 3.331379 -2.104040
5
Structure 1175 | Energy: -10.834924 Hartree
N -2.074592 1.966435 1.242672
N -1.361286 1.987587 0.407905
O 2.255592 2.009673 0.895820
H 2.971380 1.827511 1.507838
H 2.653010 2.222061 0.049044
5
Structure 1176 | Energy: -10.834924 Hartree
N -2.074592 1.966435 1.242672
N -1.361286 1.987587 0.407905
O -2.077464 0.495858 -2.845123
H -2.626017 -0.128020 -3.324673
H -1.402183 0.805321 -3.452005
5
Structure 1177 | Energy: -10.834924 Hartree
N -2.161878 2.075204 1.201013
N -1.656104 2.354967 0.267196
O -2.077464 0.495858 -2.845123
H -2.626017 -0.128020 -3.324673
H -1.402183 0.805321 -3.452005
5
Structure 1178 | Energy: -10.834930 Hartree
N -2.323260 0.338384 -2.439004
N -1.817486 0.618146 -3.372821
O -1.916082 2.232678 0.794894
H -2.464635 1.608800 0.315344
H -1.240801 2.542141 0.188012
5
Structure 1179 | Energy: -10.834849 Hartree
N -2.323260 0.338384 -2.439004
N -1.817486 0.618146 -3.372821
O -2.983144 2.205851 1.186196
H -3.531697 1.581972 0.706646
H -2.307863 2.515314 0.579314
5
Structure 1180 | Energy: -10.834542 Hartree
N -3.228940 2.048377 1.592315
N -2.723166 2.328139 0.658498
O -2.077464 0.495858 -2.845123
H -2.626017 -0.128020 -3.324673
H -1.402183 0.805321 -3.452005
5
Structure 1181 | Energy: -10.834342 Hartree
N -3.228940 2.048377 1.592315
N -2.723166 2.328139 0.658498
O -2.031808 0.527691 -2.894732
H -1.762646 -0.361455 -3.133633
H -2.990201 0.533497 -2.855639
5
Structure 1182 | Energy: -10.834342 Hartree
N -3.228940 2.048377 1.592315
N -2.723166 2.328139 0.658498
O 0.185871 0.713084 -1.638050
H 0.365500 -0.183547 -1.927686
H 0.636643 0.836693 -0.800432
5
Structure 1183 | Energy: -10.834965 Hartree
N 4.685622 2.660170 -1.221943
N 4.128251 1.715516 -1.166651
O 0.185871 0.713084 -1.638050
H 0.365500 -0.183547 -1.927686
H 0.636643 0.836693 -0.800432
5
Structure 1184 | Energy: -10.834965 Hartree
N -1.960089 0.049023 2.739840
N -1.243757 -0.395183 2.035825
O 0.185871 0.713084 -1.638050
H 0.365500 -0.183547 -1.927686
H 0.636643 0.836693 -0.800432
5
Structure 1185 | Energy: -10.834954 Hartree
N -1.960089 0.049023 2.739840
N -1.243757 -0.395183 2.035825
O 0.174525 1.619187 -1.120183
H 0.354153 0.722556 -1.409819
H 0.625297 1.742796 -0.282565
5
Structure 1186 | Energy: -10.834982 Hartree
N -1.935085 0.073162 2.691848
N -1.218753 -0.371045 1.987833
O 0.174525 1.619187 -1.120183
H 0.354153 0.722556 -1.409819
H 0.625297 1.742796 -0.282565
5
Structure 1187 | Energy: -10.834459 Hartree
N -1.935085 0.073162 2.691848
N -1.218753 -0.371045 1.987833
O -1.268455 -4.392932 2.582730
H -1.910291 -4.417066 1.870292
H -1.678616 -3.935231 3.319179
5
Structure 1188 | Energy: -10.834590 Hartree
N -1.935085 0.073162 2.691848
N -1.218753 -0.371045 1.987833
O -1.330099 -4.044310 3.387983
H -1.971934 -4.068444 2.675545
H -1.740260 -3.586610 4.124431
5
Structure 1189 | Energy: -10.834876 Hartree
N -1.935085 0.073162 2.691848
N -1.218753 -0.371045 1.987833
O 0.706740 3.017405 1.294578
H 0.717557 2.489143 0.494000
H 1.197056 2.532637 1.961412
5
Structure 1190 | Energy: -10.834513 Hartree
N -1.935085 0.073162 2.691848
N -1.218753 -0.371045 1.987833
O -5.343439 -0.658475 0.966116
H -5.064041 0.130664 0.497822
H -4.824818 -1.389762 0.625046
5
Structure 1191 | Energy: -10.834502 Hartree
N -1.871056 0.072826 2.564651
N -1.182017 -0.378253 1.838124
O -5.343439 -0.658475 0.966116
H -5.064041 0.130664 0.497822
H -4.824818 -1.389762 0.625046
5
Structure 1192 | Energy: -10.834379 Hartree
N -1.871056 0.072826 2.564651
N -1.182017 -0.378253 1.838124
O -5.456057 0.710615 1.796462
H -5.022663 1.481381 1.424721
H -5.257508 -0.031533 1.222117
5
Structure 1193 | Energy: -10.834381 Hartree
N -1.871056 0.072826 2.564651
N -1.182017 -0.378253 1.838124
O -5.484754 0.716989 1.793088
H -5.051360 1.487755 1.421347
H -5.286205 -0.025159 1.218742
5
Structure 1194 | Energy: -10.834970 Hartree
N -2.275002 -0.318264 0.081993
N -1.378186 0.315325 0.101308
O -5.484754 0.716989 1.793088
H -5.051360 1.487755 1.421347
H -5.286205 -0.025159 1.218742
5
Structure 1195 | Energy: -10.834838 Hartree
N -2.275002 -0.318264 0.081993
N -1.378186 0.315325 0.101308
O -5.133053 0.771284 2.492087
H -4.699659 1.542050 2.120346
H -4.934503 0.029137 1.917741
5
Structure 1196 | Energy: -10.834866 Hartree
N -2.327687 -0.305793 0.119802
N -1.430870 0.327797 0.139117
O -5.133053 0.771284 2.492087
H -4.699659 1.542050 2.120346
H -4.934503 0.029137 1.917741
5
Structure 1197 | Energy: -10.834957 Hartree
N -2.772635 -1.996622 1.371540
N -1.724359 -1.866411 1.671959
O -5.133053 0.771284 2.492087
H -4.699659 1.542050 2.120346
H -4.934503 0.029137 1.917741
5
Structure 1198 | Energy: -10.834982 Hartree
N -2.772635 -1.996622 1.371540
N -1.724359 -1.866411 1.671959
O -5.100985 0.740846 2.481761
H -4.667591 1.511612 2.110020
H -4.902435 -0.001302 1.907415
5
Structure 1199 | Energy: -10.834453 Hartree
N -2.772635 -1.996622 1.371540
N -1.724359 -1.866411 1.671959
O -3.840809 -1.606055 -2.160431
H -4.341987 -0.804156 -1.999553
H -3.022155 -1.533401 -1.665854
5
Structure 1200 | Energy: -10.834765 Hartree
N -2.772635 -1.996622 1.371540
N -1.724359 -1.866411 1.671959
O -3.840810 -1.606053 -2.160432
H -3.547606 -1.655495 -1.248462
H -3.816509 -0.682093 -2.416918
5
Structure 1201 | Energy: -10.834793 Hartree
N -2.816279 -1.986244 1.270493
N -1.768003 -1.856034 1.570912
O -3.840810 -1.606053 -2.160432
H -3.547606 -1.655495 -1.248462
H -3.816509 -0.682093 -2.416918
5
Structure 1202 | Energy: -10.834811 Hartree
N -2.849546 -1.978334 1.193471
N -1.801270 -1.848124 1.493890
O -3.840810 -1.606053 -2.160432
H -3.547606 -1.655495 -1.248462
H -3.816509 -0.682093 -2.416918
5
Structure 1203 | Energy: -10.835038 Hartree
N -2.849546 -1.978334 1.193471
N -1.801270 -1.848124 1.493890
O -4.964167 0.366179 -0.240888
H -4.353691 -0.279456 0.120466
H -4.750728 0.469833 -1.170285
5
Structure 1204 | Energy: -10.834907 Hartree
N -5.442204 0.270748 -0.422882
N -4.393928 0.400959 -0.122463
O -2.371509 -1.882903 1.375465
H -1.761032 -2.528538 1.736819
H -2.158069 -1.779249 0.446068
5
Structure 1205 | Energy: -10.835379 Hartree
N -5.438084 0.324523 -0.096675
N -4.398048 0.347184 -0.448669
O -2.371509 -1.882903 1.375465
H -1.761032 -2.528538 1.736819
H -2.158069 -1.779249 0.446068
5
Structure 1206 | Energy: -10.834455 Hartree
N -2.845426 -1.924560 1.519678
N -1.805390 -1.901898 1.167684
O -4.964167 0.366179 -0.240888
H -4.353691 -0.279456 0.120466
H -4.750728 0.469833 -1.170285
5
Structure 1207 | Energy: -10.834451 Hartree
N -2.890243 -1.509817 1.529631
N -1.850207 -1.487155 1.177637
O -4.964167 0.366179 -0.240888
H -4.353691 -0.279456 0.120466
H -4.750728 0.469833 -1.170285
5
Structure 1208 | Energy: -10.834367 Hartree
N -2.890243 -1.509817 1.529631
N -1.850207 -1.487155 1.177637
O -4.890920 0.313445 -0.194134
H -4.280444 -0.332190 0.167220
H -4.677481 0.417098 -1.123531
5
Structure 1209 | Energy: -10.834387 Hartree
N -2.876064 -1.520025 1.538681
N -1.836028 -1.497363 1.186687
O -4.890920 0.313445 -0.194134
H -4.280444 -0.332190 0.167220
H -4.677481 0.417098 -1.123531
5
Structure 1210 | Energy: -10.834412 Hartree
N -2.856532 -1.534087 1.551149
N -1.816496 -1.511426 1.199155
O -4.890920 0.313445 -0.194134
H -4.280444 -0.332190 0.167220
H -4.677481 0.417098 -1.123531
5
Structure 1211 | Energy: -10.834412 Hartree
N -3.300507 -2.042700 1.392464
N -3.031080 -2.902837 0.765040
O -4.890920 0.313445 -0.194134
H -4.280444 -0.332190 0.167220
H -4.677481 0.417098 -1.123531
5
Structure 1212 | Energy: -10.834460 Hartree
N -3.630198 -2.095464 0.717636
N -3.360771 -2.955602 0.090212
O -4.890920 0.313445 -0.194134
H -4.280444 -0.332190 0.167220
H -4.677481 0.417098 -1.123531
5
Structure 1213 | Energy: -10.835157 Hartree
N -3.101608 -1.949226 -0.192649
N -3.090276 -2.749469 -0.944693
O -4.890920 0.313445 -0.194134
H -4.280444 -0.332190 0.167220
H -4.677481 0.417098 -1.123531
5
Structure 1214 | Energy: -10.835194 Hartree
N -4.850485 0.683241 0.150104
N -4.839153 -0.117003 -0.601940
O -3.142043 -2.319022 -0.536887
H -2.531567 -2.964657 -0.175533
H -2.928604 -2.215368 -1.466283
5
Structure 1215 | Energy: -10.835144 Hartree
N -4.850485 0.683241 0.150104
N -4.839153 -0.117003 -0.601940
O -3.203444 -2.226599 -0.524853
H -2.592967 -2.872234 -0.163499
H -2.990004 -2.122946 -1.454250
5
Structure 1216 | Energy: -10.835110 Hartree
N -4.850485 0.683241 0.150104
N -4.839153 -0.117003 -0.601940
O -3.222977 -2.197197 -0.521025
H -2.612501 -2.842832 -0.159671
H -3.009538 -2.093543 -1.450422
5
Structure 1217 | Energy: -10.834355 Hartree
N -3.182542 -1.827401 -0.176787
N -3.171210 -2.627644 -0.928831
O -4.890920 0.313445 -0.194134
H -4.280444 -0.332190 0.167220
H -4.677481 0.417098 -1.123531
5
Structure 1218 | Energy: -10.835468 Hartree
N -3.182542 -1.827401 -0.176787
N -3.171210 -2.627644 -0.928831
O -5.050312 0.805551 -0.176385
H -4.439836 0.159916 0.184969
H -4.836873 0.909205 -1.105781
5
Structure 1219 | Energy: -10.834886 Hartree
N -2.938531 1.559552 -2.490913
N -2.067213 0.974596 -2.814518
O -5.050312 0.805551 -0.176385
H -4.439836 0.159916 0.184969
H -4.836873 0.909205 -1.105781
5
Structure 1220 | Energy: -10.835463 Hartree
N -1.956275 1.651156 -0.018550
N -1.444779 2.054264 0.865738
O -5.050312 0.805551 -0.176385
H -4.439836 0.159916 0.184969
H -4.836873 0.909205 -1.105781
5
Structure 1221 | Energy: -10.835439 Hartree
N -1.925875 1.661071 -0.012737
N -1.414379 2.064178 0.871551
O -5.050312 0.805551 -0.176385
H -4.439836 0.159916 0.184969
H -4.836873 0.909205 -1.105781
5
Structure 1222 | Energy: -10.835481 Hartree
N -1.896922 1.387041 0.310974
N -1.456194 1.816556 1.220569
O -5.050312 0.805551 -0.176385
H -4.439836 0.159916 0.184969
H -4.836873 0.909205 -1.105781
5
Structure 1223 | Energy: -10.835358 Hartree
N -1.910416 1.475015 0.285398
N -1.442700 1.728581 1.246145
O -5.050312 0.805551 -0.176385
H -4.439836 0.159916 0.184969
H -4.836873 0.909205 -1.105781
5
Structure 1224 | Energy: -10.834364 Hartree
N -5.238069 0.648443 -0.688542
N -4.770353 0.902008 0.272205
O -1.722659 1.632124 0.797555
H -1.112183 0.986489 1.158910
H -1.509220 1.735778 -0.131841
5
Structure 1225 | Energy: -10.834335 Hartree
N -5.130853 0.675075 -0.657162
N -4.663136 0.928640 0.303585
O -1.722659 1.632124 0.797555
H -1.112183 0.986489 1.158910
H -1.509220 1.735778 -0.131841
5
Structure 1226 | Energy: -10.835846 Hartree
N -2.679302 -2.053533 0.095874
N -1.780764 -1.458450 0.307045
O -1.722659 1.632124 0.797555
H -1.112183 0.986489 1.158910
H -1.509220 1.735778 -0.131841
5
Structure 1227 | Energy: -10.835244 Hartree
N -2.679302 -2.053533 0.095874
N -1.780764 -1.458450 0.307045
O -1.722660 1.632122 0.797556
H -0.784092 1.826904 0.832962
H -1.837299 0.895392 0.194096
5
Structure 1228 | Energy: -10.835674 Hartree
N -2.679302 -2.053533 0.095874
N -1.780764 -1.458450 0.307045
O -0.889620 1.604594 0.959647
H 0.048947 1.799376 0.995052
H -1.004259 0.867864 0.356186
5
Structure 1229 | Energy: -10.835436 Hartree
N -4.277998 -0.538133 1.910392
N -3.267134 -0.494229 1.483409
O -0.889620 1.604594 0.959647
H 0.048947 1.799376 0.995052
H -1.004259 0.867864 0.356186
5
Structure 1230 | Energy: -10.835467 Hartree
N -4.604724 1.598508 -0.825992
N -3.534591 1.353173 -0.852721
O -0.889620 1.604594 0.959647
H 0.048947 1.799376 0.995052
H -1.004259 0.867864 0.356186
5
Structure 1231 | Energy: -10.834571 Hartree
N -1.378585 1.696938 0.941226
N -0.308452 1.451602 0.914498
O -4.115760 1.506165 -0.807572
H -3.177192 1.700947 -0.772167
H -4.230399 0.769434 -1.411033
5
Structure 1232 | Energy: -10.834585 Hartree
N -1.353251 1.697711 0.955104
N -0.283118 1.452375 0.928375
O -4.115760 1.506165 -0.807572
H -3.177192 1.700947 -0.772167
H -4.230399 0.769434 -1.411033
5
Structure 1233 | Energy: -10.834586 Hartree
N -1.353251 1.697711 0.955104
N -0.283118 1.452375 0.928375
O -4.114908 1.491587 -0.808543
H -3.177782 1.692975 -0.771922
H -4.224112 0.757270 -1.415940
5
Structure 1234 | Energy: -10.834552 Hartree
N -1.353251 1.697711 0.955104
N -0.283118 1.452375 0.928375
O -4.059644 1.493513 -0.778241
H -3.122518 1.694901 -0.741620
H -4.168848 0.759196 -1.385638
5
Structure 1235 | Energy: -10.834551 Hartree
N -1.353251 1.697711 0.955104
N -0.283118 1.452375 0.928375
O -4.455646 1.896317 -1.178803
H -3.518521 2.097704 -1.142182
H -4.564851 1.162000 -1.786200
5
Structure 1236 | Energy: -10.835183 Hartree
N -2.287704 0.249536 -3.845719
N -2.250322 0.042816 -4.923660
O -4.455646 1.896317 -1.178803
H -3.518521 2.097704 -1.142182
H -4.564851 1.162000 -1.786200
5
Structure 1237 | Energy: -10.834905 Hartree
N -2.287704 0.249536 -3.845719
N -2.250322 0.042816 -4.923660
O -4.689701 1.619237 -0.335511
H -3.752575 1.820624 -0.298890
H -4.798906 0.884920 -0.942908
5
Structure 1238 | Energy: -10.834888 Hartree
N -2.287704 0.249536 -3.845719
N -2.250322 0.042816 -4.923660
O -4.646038 0.607725 -0.076301
H -3.735326 0.905156 -0.028961
H -4.703330 -0.017485 -0.801496
5
Structure 1239 | Energy: -10.834672 Hartree
N -2.287704 0.249536 -3.845719
N -2.250322 0.042816 -4.923660
O -4.513796 -0.587185 0.463787
H -3.603084 -0.289754 0.511127
H -4.571088 -1.212395 -0.261408
5
Structure 1240 | Energy: -10.834683 Hartree
N -2.287704 0.249536 -3.845719
N -2.250322 0.042816 -4.923660
O -4.487247 -0.578101 0.405657
H -3.576535 -0.280671 0.452997
H -4.544539 -1.203312 -0.319538
5
Structure 1241 | Energy: -10.834698 Hartree
N -2.287704 0.249536 -3.845719
N -2.250322 0.042816 -4.923660
O -4.456537 -0.567594 0.338415
H -3.545825 -0.270163 0.385755
H -4.513829 -1.192804 -0.386780
5
Structure 1242 | Energy: -10.834702 Hartree
N -2.287704 0.249536 -3.845719
N -2.250322 0.042816 -4.923660
O 0.883092 2.822260 -1.143509
H 0.734102 1.917281 -0.862586
H 0.051451 3.153195 -1.488376
5
Structure 1243 | Energy: -10.834802 Hartree
N -2.287704 0.249536 -3.845719
N -2.250322 0.042816 -4.923660
O -2.414538 3.603137 -0.431122
H -1.772053 2.903640 -0.296884
H -3.188985 3.204271 -0.832640
5
Structure 1244 | Energy: -10.834966 Hartree
N -2.218217 0.327887 -3.187693
N -2.180835 0.121167 -4.265634
O -2.414538 3.603137 -0.431122
H -1.772053 2.903640 -0.296884
H -3.188985 3.204271 -0.832640
5
Structure 1245 | Energy: -10.834333 Hartree
N -2.440613 3.645039 0.092893
N -2.403231 3.438320 -0.985048
O -2.192142 0.285984 -3.711708
H -1.549657 -0.413512 -3.577470
H -2.966589 -0.112881 -4.113226
5
Structure 1246 | Energy: -10.834387 Hartree
N 1.524340 1.574772 -0.462203
N 0.452519 1.503792 -0.690786
O -2.192142 0.285984 -3.711708
H -1.549657 -0.413512 -3.577470
H -2.966589 -0.112881 -4.113226
5
Structure 1247 | Energy: -10.834411 Hartree
N 1.524340 1.574772 -0.462203
N 0.452519 1.503792 -0.690786
O -2.192139 0.285984 -3.711707
H -2.880676 -0.085902 -4.266433
H -1.635616 -0.440481 -3.424287
5
Structure 1248 | Energy: -10.834406 Hartree
N -1.122496 3.830458 -0.236060
N -0.886048 3.345312 -1.192519
O -2.192139 0.285984 -3.711707
H -2.880676 -0.085902 -4.266433
H -1.635616 -0.440481 -3.424287
5
Structure 1249 | Energy: -10.834364 Hartree
N -1.626140 4.680137 0.722975
N -1.389691 4.194992 -0.233485
O -2.192139 0.285984 -3.711707
H -2.880676 -0.085902 -4.266433
H -1.635616 -0.440481 -3.424287
5
Structure 1250 | Energy: -10.834482 Hartree
N -1.626140 4.680137 0.722975
N -1.389691 4.194992 -0.233485
O -2.146321 0.195578 -3.746319
H -2.812585 0.601644 -4.304265
H -2.430939 0.306889 -2.837099
5
Structure 1251 | Energy: -10.834477 Hartree
N 3.253078 2.025356 -1.079657
N 2.297543 2.188768 -1.595737
O -2.146321 0.195578 -3.746319
H -2.812585 0.601644 -4.304265
H -2.430939 0.306889 -2.837099
5
Structure 1252 | Energy: -10.834518 Hartree
N 3.253078 2.025356 -1.079657
N 2.297543 2.188768 -1.595737
O -1.722157 0.418089 -4.562218
H -2.388422 0.824155 -5.120164
H -2.006776 0.529400 -3.652999
5
Structure 1253 | Energy: -10.834556 Hartree
N -2.906687 -3.763990 0.013243
N -3.115966 -3.192843 -0.901132
O -1.722157 0.418089 -4.562218
H -2.388422 0.824155 -5.120164
H -2.006776 0.529400 -3.652999
5
Structure 1254 | Energy: -10.834552 Hartree
N -2.906687 -3.763990 0.013243
N -3.115966 -3.192843 -0.901132
O -1.721026 0.417172 -4.557080
H -2.342667 0.801495 -5.178337
H -2.070490 0.566609 -3.676386
5
Structure 1255 | Energy: -10.834562 Hartree
N -2.881088 -3.682689 -0.071644
N -3.090368 -3.111542 -0.986019
O -1.721026 0.417172 -4.557080
H -2.342667 0.801495 -5.178337
H -2.070490 0.566609 -3.676386
5
Structure 1256 | Energy: -10.834479 Hartree
N -3.136073 -3.397888 -1.056959
N -2.835383 -3.396343 -0.000705
O -1.721026 0.417172 -4.557080
H -2.342667 0.801495 -5.178337
H -2.070490 0.566609 -3.676386
5
Structure 1257 | Energy: -10.834471 Hartree
N -1.925707 0.446265 -5.070690
N -1.625018 0.447811 -4.014436
O -2.931391 -3.426981 -0.543348
H -3.553033 -3.042659 -1.164605
H -3.280855 -3.277545 0.337346
5
Structure 1258 | Energy: -10.834479 Hartree
N -3.136073 -3.397888 -1.056959
N -2.835383 -3.396343 -0.000705
O -1.721026 0.417172 -4.557080
H -2.342667 0.801495 -5.178337
H -2.070490 0.566609 -3.676386
5
Structure 1259 | Energy: -10.834490 Hartree
N -3.136073 -3.397888 -1.056959
N -2.835383 -3.396343 -0.000705
O -1.336712 -0.074955 -5.309572
H -1.958353 0.309368 -5.930829
H -1.686176 0.074481 -4.428878
5
Structure 1260 | Energy: -10.834441 Hartree
N -3.522320 -3.507662 -0.491818
N -2.449135 -3.286569 -0.565845
O -1.336712 -0.074955 -5.309572
H -1.958353 0.309368 -5.930829
H -1.686176 0.074481 -4.428878
5
Structure 1261 | Energy: -10.834420 Hartree
N -6.103410 1.473434 -1.410399
N -6.001675 0.437080 -1.759266
O -1.336712 -0.074955 -5.309572
H -1.958353 0.309368 -5.930829
H -1.686176 0.074481 -4.428878
5
Structure 1262 | Energy: -10.834418 Hartree
N -6.103410 1.473434 -1.410399
N -6.001675 0.437080 -1.759266
O -1.426197 -0.055751 -5.238348
H -2.047839 0.328571 -5.859605
H -1.775661 0.093685 -4.357654
5
Structure 1263 | Energy: -10.834554 Hartree
N -0.941098 -2.406993 0.450721
N -1.939408 -2.222138 0.032039
O -1.426197 -0.055751 -5.238348
H -2.047839 0.328571 -5.859605
H -1.775661 0.093685 -4.357654
5
Structure 1264 | Energy: -10.834554 Hartree
N 0.569962 0.271669 0.595802
N -0.085926 1.063536 0.209997
O -1.426197 -0.055751 -5.238348
H -2.047839 0.328571 -5.859605
H -1.775661 0.093685 -4.357654
5
Structure 1265 | Energy: -10.834552 Hartree
N 0.581152 0.276174 0.632353
N -0.074736 1.068041 0.246547
O -1.426197 -0.055751 -5.238348
H -2.047839 0.328571 -5.859605
H -1.775661 0.093685 -4.357654
5
Structure 1266 | Energy: -10.834417 Hartree
N -1.152590 -0.421819 -5.030929
N -1.808478 0.370048 -5.416735
O 0.307544 0.642242 0.424934
H -0.314097 1.026565 -0.196323
H -0.041920 0.791678 1.305628
5
Structure 1267 | Energy: -10.834417 Hartree
N 0.711820 2.883227 -4.851922
N -0.286490 3.068082 -5.270604
O 0.307544 0.642242 0.424934
H -0.314097 1.026565 -0.196323
H -0.041920 0.791678 1.305628
5
Structure 1268 | Energy: -10.834461 Hartree
N 0.711820 2.883227 -4.851922
N -0.286490 3.068082 -5.270604
O -0.350985 -2.456683 -2.668737
H -0.791989 -1.604873 -2.662615
H -0.555119 -2.888213 -1.836758
5
Structure 1269 | Energy: -10.834481 Hartree
N 0.112072 -2.525594 -2.412502
N -0.886238 -2.340740 -2.831184
O 0.248763 2.952138 -5.108158
H -0.192241 3.803949 -5.102036
H 0.044629 2.520609 -4.276178
5
Structure 1270 | Energy: -10.834461 Hartree
N 0.711820 2.883227 -4.851922
N -0.286490 3.068082 -5.270604
O -0.350985 -2.456683 -2.668737
H -0.791989 -1.604873 -2.662615
H -0.555119 -2.888213 -1.836758
5
Structure 1271 | Energy: -10.834462 Hartree
N 0.707022 2.839960 -4.832408
N -0.291288 3.024814 -5.251090
O -0.350985 -2.456683 -2.668737
H -0.791989 -1.604873 -2.662615
H -0.555119 -2.888213 -1.836758
5
Structure 1272 | Energy: -10.834468 Hartree
N 0.707022 2.839960 -4.832408
N -0.291288 3.024814 -5.251090
O -0.813617 -2.738369 -2.715485
H -1.254621 -1.886558 -2.709362
H -1.017751 -3.169899 -1.883505
5
Structure 1273 | Energy: -10.834468 Hartree
N 0.707022 2.839960 -4.832408
N -0.291288 3.024814 -5.251090
O -2.473163 -2.431074 -3.411484
H -1.928916 -1.761701 -2.992156
H -3.048642 -2.793843 -2.735243
5
Structure 1274 | Energy: -10.834461 Hartree
N 0.707022 2.839960 -4.832408
N -0.291288 3.024814 -5.251090
O 4.139874 -1.170645 -2.528413
H 3.537598 -1.140750 -3.274384
H 4.870262 -1.741127 -2.775723
5
Structure 1275 | Energy: -10.834492 Hartree
N -1.040678 -3.696532 -2.861389
N -2.092291 -3.533004 -3.132421
O 4.139874 -1.170645 -2.528413
H 3.537598 -1.140750 -3.274384
H 4.870262 -1.741127 -2.775723
5
Structure 1276 | Energy: -10.834602 Hartree
N -1.040678 -3.696532 -2.861389
N -2.092291 -3.533004 -3.132421
O 3.762444 -2.210329 -1.530189
H 3.160168 -2.180434 -2.276160
H 4.492833 -2.780811 -1.777499
5
Structure 1277 | Energy: -10.834583 Hartree
N -0.336508 -4.958531 -3.108079
N -1.388121 -4.795003 -3.379111
O 3.762444 -2.210329 -1.530189
H 3.160168 -2.180434 -2.276160
H 4.492833 -2.780811 -1.777499
5
Structure 1278 | Energy: -10.834548 Hartree
N -0.336508 -4.958531 -3.108079
N -1.388121 -4.795003 -3.379111
O 3.712130 -2.214045 -1.578917
H 4.308187 -2.470813 -0.872597
H 4.143411 -2.431452 -2.407657
5
Structure 1279 | Energy: -10.834548 Hartree
N -0.336508 -4.958531 -3.108079
N -1.388121 -4.795003 -3.379111
O 2.979524 -3.471386 0.504999
H 3.883597 -3.199520 0.335162
H 3.009451 -4.377620 0.817923
5
Structure 1280 | Energy: -10.834548 Hartree
N -0.336508 -4.958531 -3.108079
N -1.388121 -4.795003 -3.379111
O 3.712130 -2.214045 -1.578917
H 4.308187 -2.470813 -0.872597
H 4.143411 -2.431452 -2.407657
5
Structure 1281 | Energy: -10.834544 Hartree
N -0.374665 -4.980247 -3.121736
N -1.426278 -4.816719 -3.392768
O 3.712130 -2.214045 -1.578917
H 4.308187 -2.470813 -0.872597
H 4.143411 -2.431452 -2.407657
5
Structure 1282 | Energy: -10.834544 Hartree
N -0.374665 -4.980247 -3.121736
N -1.426278 -4.816719 -3.392768
O 2.973446 -3.481817 0.522289
H 3.877518 -3.209952 0.352452
H 3.003373 -4.388052 0.835212
5
Structure 1283 | Energy: -10.834557 Hartree
N -0.374665 -4.980247 -3.121736
N -1.426278 -4.816719 -3.392768
O 2.871346 -3.517735 0.423793
H 3.775418 -3.245869 0.253957
H 2.901272 -4.423969 0.736717
5
Structure 1284 | Energy: -10.834565 Hartree
N -0.374665 -4.980247 -3.121736
N -1.426278 -4.816719 -3.392768
O 2.810758 -3.539049 0.365345
H 3.714830 -3.267183 0.195508
H 2.840684 -4.445283 0.678268
5
Structure 1285 | Energy: -10.834548 Hartree
N -0.374665 -4.980247 -3.121736
N -1.426278 -4.816719 -3.392768
O 2.904358 -3.615069 0.399881
H 2.097360 -3.847517 -0.063611
H 2.972527 -2.658347 0.389232
5
Structure 1286 | Energy: -10.834577 Hartree
N 3.388824 -3.656308 0.508866
N 2.337212 -3.492780 0.237835
O -0.859132 -4.939009 -3.230722
H -1.666130 -5.171457 -3.694214
H -0.790963 -3.982287 -3.241371
5
Structure 1287 | Energy: -10.834925 Hartree
N 2.059881 -3.139932 0.028750
N 1.008268 -2.976404 -0.242282
O -0.859132 -4.939009 -3.230722
H -1.666130 -5.171457 -3.694214
H -0.790963 -3.982287 -3.241371
5
Structure 1288 | Energy: -10.834925 Hartree
N 2.059881 -3.139932 0.028750
N 1.008268 -2.976404 -0.242282
O 5.140454 -1.191503 -1.698523
H 6.083489 -1.092367 -1.843296
H 4.990005 -1.128377 -0.753294
5
Structure 1289 | Energy: -10.834894 Hartree
N 2.059881 -3.139932 0.028750
N 1.008268 -2.976404 -0.242282
O 5.205420 -1.156641 -1.708189
H 4.544308 -1.845954 -1.619415
H 5.498037 -0.928114 -0.823752
5
Structure 1290 | Energy: -10.834917 Hartree
N 1.813551 -2.811558 0.133457
N 0.761939 -2.648030 -0.137574
O 5.205420 -1.156641 -1.708189
H 4.544308 -1.845954 -1.619415
H 5.498037 -0.928114 -0.823752
5
Structure 1291 | Energy: -10.834932 Hartree
N 1.845336 -2.798938 0.119986
N 0.793724 -2.635410 -0.151046
O 5.205420 -1.156641 -1.708189
H 4.544308 -1.845954 -1.619415
H 5.498037 -0.928114 -0.823752
5
Structure 1292 | Energy: -10.834904 Hartree
N 2.083961 -3.132339 0.215449
N 1.007140 -2.951241 0.098190
O 5.205420 -1.156641 -1.708189
H 4.544308 -1.845954 -1.619415
H 5.498037 -0.928114 -0.823752
5
Structure 1293 | Energy: -10.835079 Hartree
N 2.907546 -2.771040 0.303560
N 1.830726 -2.589942 0.186301
O 5.205420 -1.156641 -1.708189
H 4.544308 -1.845954 -1.619415
H 5.498037 -0.928114 -0.823752
5
Structure 1294 | Energy: -10.834767 Hartree
N 3.193217 -3.280158 0.169234
N 2.116397 -3.099060 0.051975
O 5.205420 -1.156641 -1.708189
H 4.544308 -1.845954 -1.619415
H 5.498037 -0.928114 -0.823752
5
Structure 1295 | Energy: -10.835450 Hartree
N 3.193217 -3.280158 0.169234
N 2.116397 -3.099060 0.051975
O 5.154741 -1.152229 -1.701061
H 5.307019 -2.096966 -1.634845
H 5.539706 -0.747134 -0.921460
5
Structure 1296 | Energy: -10.835450 Hartree
N 3.193217 -3.280158 0.169234
N 2.116397 -3.099060 0.051975
O 1.129889 0.033925 1.093547
H 0.831455 -0.375043 0.278817
H 0.591176 -0.320943 1.803431
5
Structure 1297 | Energy: -10.835135 Hartree
N 2.890008 -3.178097 -0.824816
N 1.813188 -2.996999 -0.942075
O 1.129889 0.033925 1.093547
H 0.831455 -0.375043 0.278817
H 0.591176 -0.320943 1.803431
5
Structure 1298 | Energy: -10.835689 Hartree
N 2.890008 -3.178097 -0.824816
N 1.813188 -2.996999 -0.942075
O 0.466100 -0.538833 0.873363
H 0.167666 -0.947800 0.058633
H -0.072613 -0.893700 1.583247
5
Structure 1299 | Energy: -10.835689 Hartree
N 2.890008 -3.178097 -0.824816
N 1.813188 -2.996999 -0.942075
O 4.547913 -1.225306 1.317847
H 4.861652 -1.737228 0.569778
H 4.781652 -1.710084 2.111846
5
Structure 1300 | Energy: -10.835735 Hartree
N 2.914620 -3.158132 -0.800459
N 1.837799 -2.977034 -0.917718
O 4.547913 -1.225306 1.317847
H 4.861652 -1.737228 0.569778
H 4.781652 -1.710084 2.111846
5
Structure 1301 | Energy: -10.835846 Hartree
N 2.914620 -3.158132 -0.800459
N 1.837799 -2.977034 -0.917718
O 4.489461 -1.272721 1.260001
H 4.803200 -1.784643 0.511933
H 4.723201 -1.757499 2.054001
5
Structure 1302 | Energy: -10.834478 Hartree
N 5.058505 -1.419039 1.321201
N 3.981684 -1.237941 1.203942
O 2.345576 -3.011815 -0.861659
H 2.659315 -3.523737 -1.609727
H 2.579316 -3.496592 -0.067660
5
Structure 1303 | Energy: -10.834646 Hartree
N 5.058505 -1.419039 1.321201
N 3.981684 -1.237941 1.203942
O 2.323650 -3.103475 -0.861182
H 2.833321 -2.796330 -1.613511
H 2.753328 -2.769157 -0.071444
5
Structure 1304 | Energy: -10.835879 Hartree
N 5.058505 -1.419039 1.321201
N 3.981684 -1.237941 1.203942
O 1.441919 -0.320553 -0.149580
H 1.133151 -1.225668 -0.075208
H 2.324130 -0.289645 0.225690
5
Structure 1305 | Energy: -10.835879 Hartree
N 5.058505 -1.419039 1.321201
N 3.981684 -1.237941 1.203942
O 1.227016 -0.243314 1.943229
H 0.932997 -1.153730 1.873964
H 2.167235 -0.233255 1.753586
5
Structure 1306 | Energy: -10.835879 Hartree
N 1.206897 -4.291581 1.696847
N 1.318427 -3.224207 1.463688
O 1.227016 -0.243314 1.943229
H 0.932997 -1.153730 1.873964
H 2.167235 -0.233255 1.753586
5
Structure 1307 | Energy: -10.835614 Hartree
N 1.206912 -4.189256 1.707140
N 1.318442 -3.121882 1.473982
O 1.227016 -0.243314 1.943229
H 0.932997 -1.153730 1.873964
H 2.167235 -0.233255 1.753586
5
Structure 1308 | Energy: -10.833962 Hartree
N 1.206912 -4.189256 1.707140
N 1.318442 -3.121882 1.473982
O 1.249079 -0.346458 1.961488
H 2.097048 -0.129826 1.568906
H 0.653001 0.379941 1.768838
5
Structure 1309 | Energy: -10.835870 Hartree
N 0.123300 1.568840 -1.305350
N 0.414994 1.330562 -0.273737
O 1.249079 -0.346458 1.961488
H 2.097048 -0.129826 1.568906
H 0.653001 0.379941 1.768838
5
Structure 1310 | Energy: -10.835870 Hartree
N 0.123300 1.568840 -1.305350
N 0.414994 1.330562 -0.273737
O 1.602565 1.777077 2.352024
H 2.360967 1.455643 1.860488
H 0.820901 1.388586 1.954337
5
Structure 1311 | Energy: -10.835314 Hartree
N 0.787684 3.795039 -0.912029
N 0.924781 2.979647 -0.189237
O 1.602565 1.777077 2.352024
H 2.360967 1.455643 1.860488
H 0.820901 1.388586 1.954337
5
Structure 1312 | Energy: -10.835609 Hartree
N 0.745956 3.554581 -1.265648
N 0.883052 2.739189 -0.542855
O 1.602565 1.777077 2.352024
H 2.360967 1.455643 1.860488
H 0.820901 1.388586 1.954337
5
Structure 1313 | Energy: -10.835595 Hartree
N 0.745956 3.554581 -1.265648
N 0.883052 2.739189 -0.542855
O 1.607562 1.768123 2.372391
H 2.365965 1.446690 1.880855
H 0.825898 1.379633 1.974704
5
Structure 1314 | Energy: -10.835595 Hartree
N 0.745956 3.554581 -1.265648
N 0.883052 2.739189 -0.542855
O 1.607580 1.768124 2.372390
H 2.365816 1.446546 1.880691
H 0.825759 1.379764 1.974885
5
Structure 1315 | Energy: -10.836167 Hartree
N 0.745956 3.554581 -1.265648
N 0.883052 2.739189 -0.542855
O 1.607582 1.768126 2.372389
H 1.678360 0.812094 2.405496
H 1.513191 2.014194 1.450099
5
Structure 1316 | Energy: -10.835823 Hartree
N 0.745956 3.554581 -1.265648
N 0.883052 2.739189 -0.542855
O 1.651860 1.768289 2.342252
H 1.008471 1.935400 1.650713
H 1.480289 0.888300 2.683224
5
Structure 1317 | Energy: -10.836118 Hartree
N -1.749361 3.738250 1.037665
N -1.066006 2.894449 1.202330
O 1.651860 1.768289 2.342252
H 1.008471 1.935400 1.650713
H 1.480289 0.888300 2.683224
5
Structure 1318 | Energy: -10.833860 Hartree
N 0.049699 5.025115 4.235652
N 0.800635 4.386139 3.752028
O 1.651860 1.768289 2.342252
H 1.008471 1.935400 1.650713
H 1.480289 0.888300 2.683224
5
Structure 1319 | Energy: -10.834076 Hartree
N 0.049699 5.025115 4.235652
N 0.800635 4.386139 3.752028
O 1.502033 3.065379 0.992103
H 0.750971 3.465845 0.549796
H 1.424693 2.115915 0.879788
5
Structure 1320 | Energy: -10.834281 Hartree
N -0.452444 0.902272 3.872009
N -0.121443 1.858886 3.446076
O 1.502033 3.065379 0.992103
H 0.750971 3.465845 0.549796
H 1.424693 2.115915 0.879788
5
Structure 1321 | Energy: -10.834202 Hartree
N -0.399485 0.952540 3.790017
N -0.068484 1.909153 3.364084
O 1.502033 3.065379 0.992103
H 0.750971 3.465845 0.549796
H 1.424693 2.115915 0.879788
5
Structure 1322 | Energy: -10.834172 Hartree
N -0.384635 0.966636 3.767025
N -0.053634 1.923249 3.341092
O 1.502033 3.065379 0.992103
H 0.750971 3.465845 0.549796
H 1.424693 2.115915 0.879788
5
Structure 1323 | Energy: -10.834784 Hartree
N 1.290180 2.556354 1.174036
N 1.621181 3.512967 0.748104
O -0.172783 1.475661 3.585092
H -0.923844 1.876128 3.142784
H -0.250122 0.526197 3.472777
5
Structure 1324 | Energy: -10.834465 Hartree
N 1.664142 2.753459 1.384145
N 1.247220 3.315862 0.537996
O -0.172783 1.475661 3.585092
H -0.923844 1.876128 3.142784
H -0.250122 0.526197 3.472777
5
Structure 1325 | Energy: -10.834465 Hartree
N 1.664142 2.753459 1.384145
N 1.247220 3.315862 0.537996
O -1.024822 2.131515 -1.274841
H -1.044538 1.368736 -0.693565
H -0.683152 1.835254 -2.120754
5
Structure 1326 | Energy: -10.834518 Hartree
N 1.664142 2.753459 1.384145
N 1.247220 3.315862 0.537996
O -1.534426 2.541576 -0.707459
H -1.581969 1.823469 -0.073295
H -1.423944 2.147556 -1.574996
5
Structure 1327 | Energy: -10.834086 Hartree
N 1.664142 2.753459 1.384145
N 1.247220 3.315862 0.537996
O -1.535155 2.542723 -0.725076
H -0.822645 2.048186 -0.315362
H -2.171695 1.904634 -1.053310
5
Structure 1328 | Energy: -10.834537 Hartree
N 1.664142 2.753459 1.384145
N 1.247220 3.315862 0.537996
O -1.526761 2.536085 -0.691899
H -1.832156 2.370691 -1.586036
H -1.295417 1.687489 -0.309222
5
Structure 1329 | Energy: -10.834841 Hartree
N -1.322444 2.198148 -0.297442
N -1.739365 2.760551 -1.143591
O 1.459824 3.091397 0.989688
H 1.154430 2.926003 0.095551
H 1.691168 2.242800 1.372365
5
Structure 1330 | Energy: -10.835526 Hartree
N -0.530929 0.910459 -0.280997
N -1.595152 0.922249 -0.010111
O 1.459824 3.091397 0.989688
H 1.154430 2.926003 0.095551
H 1.691168 2.242800 1.372365
5
Structure 1331 | Energy: -10.835564 Hartree
N -0.530929 0.910459 -0.280997
N -1.595152 0.922249 -0.010111
O 1.417226 3.055571 0.970972
H 1.111831 2.890176 0.076835
H 1.648570 2.206974 1.353649
5
Structure 1332 | Energy: -10.835564 Hartree
N -0.530929 0.910459 -0.280997
N -1.595152 0.922249 -0.010111
O -2.662671 3.100770 2.009464
H -2.825388 2.933795 1.079010
H -2.700531 2.255156 2.460664
5
Structure 1333 | Energy: -10.835564 Hartree
N -5.836690 1.579072 0.526883
N -4.770237 1.322362 0.473342
O -2.662671 3.100770 2.009464
H -2.825388 2.933795 1.079010
H -2.700531 2.255156 2.460664
5
Structure 1334 | Energy: -10.834687 Hartree
N -3.207121 3.172467 2.009419
N -2.140668 2.915757 1.955878
O -5.292240 1.507375 0.526928
H -5.454957 1.340400 -0.403526
H -5.330100 0.661761 0.978128
5
Structure 1335 | Energy: -10.834926 Hartree
N -3.461381 3.477355 1.672660
N -2.394928 3.220645 1.619119
O -5.292240 1.507375 0.526928
H -5.454957 1.340400 -0.403526
H -5.330100 0.661761 0.978128
5
Structure 1336 | Energy: -10.835277 Hartree
N -4.538440 -0.793722 -1.303394
N -3.620990 -0.629709 -1.884319
O -5.292240 1.507375 0.526928
H -5.454957 1.340400 -0.403526
H -5.330100 0.661761 0.978128
5
Structure 1337 | Energy: -10.835213 Hartree
N -4.538440 -0.793722 -1.303394
N -3.620990 -0.629709 -1.884319
O -5.260194 1.450746 0.472093
H -5.422910 1.283772 -0.458362
H -5.298053 0.605132 0.923293
5
Structure 1338 | Energy: -10.835053 Hartree
N -4.572497 -0.733541 -1.245118
N -3.655047 -0.569529 -1.826043
O -5.260194 1.450746 0.472093
H -5.422910 1.283772 -0.458362
H -5.298053 0.605132 0.923293
5
Structure 1339 | Energy: -10.835053 Hartree
N -4.572497 -0.733541 -1.245118
N -3.655047 -0.569529 -1.826043
O -2.410234 1.960233 -1.332488
H -3.126505 1.694300 -1.912435
H -1.785480 1.233074 -1.300852
5
Structure 1340 | Energy: -10.834930 Hartree
N -4.548884 -0.698002 -1.242721
N -3.631434 -0.533989 -1.823646
O -2.410234 1.960233 -1.332488
H -3.126505 1.694300 -1.912435
H -1.785480 1.233074 -1.300852
5
Structure 1341 | Energy: -10.834837 Hartree
N -5.757364 1.683290 -1.712884
N -4.934225 1.402268 -2.383374
O -2.410234 1.960233 -1.332488
H -3.126505 1.694300 -1.912435
H -1.785480 1.233074 -1.300852
5
Structure 1342 | Energy: -10.834999 Hartree
N -5.782946 1.680131 -1.718863
N -4.959806 1.399109 -2.389354
O -2.410234 1.960233 -1.332488
H -3.126505 1.694300 -1.912435
H -1.785480 1.233074 -1.300852
5
Structure 1343 | Energy: -10.834900 Hartree
N -5.638916 2.503987 -2.238992
N -4.823595 1.993306 -2.768657
O -2.410234 1.960233 -1.332488
H -3.126505 1.694300 -1.912435
H -1.785480 1.233074 -1.300852
5
Structure 1344 | Energy: -10.835337 Hartree
N -5.628162 2.926306 -1.752690
N -4.941535 2.407402 -2.434871
O -2.410234 1.960233 -1.332488
H -3.126505 1.694300 -1.912435
H -1.785480 1.233074 -1.300852
5
Structure 1345 | Energy: -10.834798 Hartree
N -5.628162 2.926306 -1.752690
N -4.941535 2.407402 -2.434871
O -2.367182 1.933683 -1.333292
H -2.618298 1.012025 -1.246172
H -2.977005 2.336753 -1.954363
5
Structure 1346 | Energy: -10.834798 Hartree
N -5.628162 2.926306 -1.752690
N -4.941535 2.407402 -2.434871
O -4.490674 3.538468 0.776452
H -5.022339 2.828829 1.142304
H -4.868004 3.765836 -0.075607
5
Structure 1347 | Energy: -10.834708 Hartree
N -5.628162 2.926306 -1.752690
N -4.941535 2.407402 -2.434871
O -4.495438 3.533054 0.758229
H -5.027103 2.823415 1.124081
H -4.872768 3.760422 -0.093830
5
Structure 1348 | Energy: -10.834329 Hartree
N -5.628162 2.926306 -1.752690
N -4.941535 2.407402 -2.434871
O -4.510911 3.515473 0.699049
H -5.042576 2.805834 1.064902
H -4.888241 3.742841 -0.153010
5
Structure 1349 | Energy: -10.834495 Hartree
N -5.634239 2.919400 -1.775936
N -4.947613 2.400496 -2.458117
O -4.510911 3.515473 0.699049
H -5.042576 2.805834 1.064902
H -4.888241 3.742841 -0.153010
5
Structure 1350 | Energy: -10.834495 Hartree
N -5.634239 2.919400 -1.775936
N -4.947613 2.400496 -2.458117
O -4.513698 3.507673 0.702177
H -4.465011 4.422154 0.416769
H -5.131863 3.061062 0.120379
5
Structure 1351 | Energy: -10.834599 Hartree
N -5.634239 2.919400 -1.775936
N -4.947613 2.400496 -2.458117
O -4.509288 3.512844 0.718571
H -4.460601 4.427324 0.433163
H -5.127452 3.066233 0.136773
5
Structure 1352 | Energy: -10.834730 Hartree
N -5.640583 2.911962 -1.799517
N -4.953957 2.393058 -2.481698
O -4.509288 3.512844 0.718571
H -4.460601 4.427324 0.433163
H -5.127452 3.066233 0.136773
5
Structure 1353 | Energy: -10.834759 Hartree
N -4.884465 3.798475 1.011138
N -4.197839 3.279571 0.328957
O -5.265406 2.626331 -2.092085
H -5.216719 3.540811 -2.377492
H -5.883570 2.179720 -2.673883
5
Structure 1354 | Energy: -10.834730 Hartree
N -5.640583 2.911962 -1.799517
N -4.953957 2.393058 -2.481698
O -4.509288 3.512844 0.718571
H -4.460601 4.427324 0.433163
H -5.127452 3.066233 0.136773
5
Structure 1355 | Energy: -10.834865 Hartree
N -5.640583 2.911962 -1.799517
N -4.953957 2.393058 -2.481698
O -4.501520 3.521951 0.747444
H -4.452834 4.436431 0.462036
H -5.119685 3.075340 0.165645
5
Structure 1356 | Energy: -10.835919 Hartree
N -2.910499 3.880600 -1.565697
N -2.289764 3.008633 -1.811561
O -4.501520 3.521951 0.747444
H -4.452834 4.436431 0.462036
H -5.119685 3.075340 0.165645
5
Structure 1357 | Energy: -10.835792 Hartree
N -3.026241 3.514399 -1.667547
N -2.534530 2.555484 -1.879188
O -4.501520 3.521951 0.747444
H -4.452834 4.436431 0.462036
H -5.119685 3.075340 0.165645
5
Structure 1358 | Energy: -10.834775 Hartree
N -4.779240 4.027587 0.804741
N -4.287529 3.068672 0.593100
O -2.748522 3.008763 -1.724845
H -2.699835 3.923243 -2.010252
H -3.366686 2.562152 -2.306643
5
Structure 1359 | Energy: -10.835381 Hartree
N -4.779240 4.027587 0.804741
N -4.287529 3.068672 0.593100
O -2.757796 3.054565 -1.717156
H -3.375058 2.334871 -1.862521
H -2.544257 3.423556 -2.576414
5
Structure 1360 | Energy: -10.835381 Hartree
N -4.779240 4.027587 0.804741
N -4.287529 3.068672 0.593100
O -4.794237 2.058826 -1.936924
H -3.836654 2.109168 -1.912336
H -5.062388 2.192290 -2.848165
5
Structure 1361 | Energy: -10.835387 Hartree
N -4.777571 4.038695 0.824910
N -4.285860 3.079780 0.613269
O -4.794237 2.058826 -1.936924
H -3.836654 2.109168 -1.912336
H -5.062388 2.192290 -2.848165
5
Structure 1362 | Energy: -10.835387 Hartree
N -4.777571 4.038695 0.824910
N -4.285860 3.079780 0.613269
O -4.794237 1.080260 2.496817
H -3.836654 1.136275 2.495703
H -5.062388 0.817771 3.379581
5
Structure 1363 | Energy: -10.836070 Hartree
N -5.075832 2.623666 -0.497462
N -4.190468 2.383817 0.106436
O -4.794237 1.080260 2.496817
H -3.836654 1.136275 2.495703
H -5.062388 0.817771 3.379581
5
Structure 1364 | Energy: -10.836066 Hartree
N -5.075832 2.623666 -0.497462
N -4.190468 2.383817 0.106436
O -4.789958 1.130378 2.401066
H -3.832376 1.186393 2.399951
H -5.058110 0.867889 3.283830
5
Structure 1365 | Energy: -10.835905 Hartree
N -5.075832 2.623666 -0.497462
N -4.190468 2.383817 0.106436
O -4.568193 1.400608 2.530622
H -3.631168 1.271091 2.371526
H -4.718214 1.266819 3.468531
5
Structure 1366 | Energy: -10.836082 Hartree
N -4.658251 2.966526 -0.539724
N -3.772888 2.726677 0.064174
O -4.568193 1.400608 2.530622
H -3.631168 1.271091 2.371526
H -4.718214 1.266819 3.468531
5
Structure 1367 | Energy: -10.836082 Hartree
N -4.658251 2.966526 -0.539724
N -3.772888 2.726677 0.064174
O -1.357610 3.015354 -1.535025
H -1.172092 2.507871 -0.742468
H -0.523917 3.376319 -1.842821
5
Structure 1368 | Energy: -10.836082 Hartree
N -4.658251 2.966526 -0.539724
N -3.772888 2.726677 0.064174
O -4.568193 1.400608 2.530622
H -3.631168 1.271091 2.371526
H -4.718214 1.266819 3.468531
5
Structure 1369 | Energy: -10.835392 Hartree
N -4.658251 2.966526 -0.539724
N -3.772888 2.726677 0.064174
O -3.188245 0.364388 1.393938
H -2.881328 1.087968 1.943788
H -3.193718 -0.424481 1.939588
5
Structure 1370 | Energy: -10.835323 Hartree
N -4.658251 2.966526 -0.539724
N -3.772888 2.726677 0.064174
O -3.212996 0.423311 1.353807
H -2.906078 1.146892 1.903658
H -3.218469 -0.365558 1.899457
5
Structure 1371 | Energy: -10.835323 Hartree
N -4.658251 2.966526 -0.539724
N -3.772888 2.726677 0.064174
O -3.212996 3.517547 2.582739
H -2.906078 2.613885 2.486301
H -3.218469 3.717074 3.520949
5
Structure 1372 | Energy: -10.834771 Hartree
N -4.658251 2.966526 -0.539724
N -3.772888 2.726677 0.064174
O -3.212997 3.517545 2.582738
H -2.375260 3.515005 3.049957
H -3.749268 2.815986 2.957312
5
Structure 1373 | Energy: -10.835458 Hartree
N -4.658251 2.966526 -0.539724
N -3.772888 2.726677 0.064174
O -3.968163 3.424115 2.764870
H -3.262348 3.590747 3.392693
H -4.339890 2.565601 2.976652
5
Structure 1374 | Energy: -10.835466 Hartree
N -4.658251 2.966526 -0.539724
N -3.772888 2.726677 0.064174
O -3.971653 3.417049 2.724875
H -3.265838 3.583681 3.352698
H -4.343379 2.558535 2.936657
5
Structure 1375 | Energy: -10.835607 Hartree
N -4.571167 2.692155 0.151093
N -3.859971 3.001047 -0.626643
O -3.971653 3.417049 2.724875
H -3.265838 3.583681 3.352698
H -4.343379 2.558535 2.936657
5
Structure 1376 | Energy: -10.835299 Hartree
N -1.550462 3.793657 1.438840
N -1.249488 3.034512 0.704536
O -3.971653 3.417049 2.724875
H -3.265838 3.583681 3.352698
H -4.343379 2.558535 2.936657
5
Structure 1377 | Energy: -10.835588 Hartree
N -4.103447 3.757908 3.139006
N -3.802472 2.998763 2.404702
O -1.418668 3.452798 1.024709
H -0.712853 3.619430 1.652532
H -1.790395 2.594284 1.236491
5
Structure 1378 | Energy: -10.835663 Hartree
N -4.103447 3.757908 3.139006
N -3.802472 2.998763 2.404702
O -1.454843 3.490966 0.561107
H -0.749028 3.657598 1.188929
H -1.826569 2.632452 0.772889
5
Structure 1379 | Energy: -10.835696 Hartree
N -4.060071 3.759182 3.101715
N -3.759097 3.000037 2.367411
O -1.454843 3.490966 0.561107
H -0.749028 3.657598 1.188929
H -1.826569 2.632452 0.772889
5
Structure 1380 | Energy: -10.835734 Hartree
N -4.055495 3.841074 2.993952
N -3.763673 2.918145 2.475174
O -1.454843 3.490966 0.561107
H -0.749028 3.657598 1.188929
H -1.826569 2.632452 0.772889
5
Structure 1381 | Energy: -10.835678 Hartree
N -4.055495 3.841074 2.993952
N -3.763673 2.918145 2.475174
O -3.873996 3.548881 -0.541432
H -4.823480 3.601895 -0.667019
H -3.688178 2.700119 -0.135042
5
Structure 1382 | Energy: -10.835693 Hartree
N -4.002015 3.944049 2.984283
N -3.729105 3.002857 2.488535
O -3.873996 3.548881 -0.541432
H -4.823480 3.601895 -0.667019
H -3.688178 2.700119 -0.135042
5
Structure 1383 | Energy: -10.835891 Hartree
N -2.621736 5.079403 2.366157
N -2.720150 3.991817 2.249712
O -3.873996 3.548881 -0.541432
H -4.823480 3.601895 -0.667019
H -3.688178 2.700119 -0.135042
5
Structure 1384 | Energy: -10.835881 Hartree
N -2.621736 5.079403 2.366157
N -2.720150 3.991817 2.249712
O -3.831566 3.567854 -0.565437
H -4.775383 3.649889 -0.715708
H -3.683139 2.716452 -0.149310
5
Structure 1385 | Energy: -10.835356 Hartree
N -2.621736 5.079403 2.366157
N -2.720150 3.991817 2.249712
O -4.334098 3.221094 -0.799419
H -5.277915 3.303129 -0.949690
H -4.185671 2.369692 -0.383292
5
Structure 1386 | Energy: -10.836006 Hartree
N -3.290423 5.175277 1.626327
N -3.388837 4.087691 1.509882
O -4.334098 3.221094 -0.799419
H -5.277915 3.303129 -0.949690
H -4.185671 2.369692 -0.383292
5
Structure 1387 | Energy: -10.835981 Hartree
N -3.321203 5.132218 1.556629
N -3.419617 4.044632 1.440184
O -4.334098 3.221094 -0.799419
H -5.277915 3.303129 -0.949690
H -4.185671 2.369692 -0.383292
5
Structure 1388 | Energy: -10.836045 Hartree
N -3.321203 5.132218 1.556629
N -3.419617 4.044632 1.440184
O -4.353359 3.406685 -0.892324
H -5.273278 3.597125 -1.086194
H -4.320892 2.531812 -0.500378
5
Structure 1389 | Energy: -10.835398 Hartree
N -3.321203 5.132218 1.556629
N -3.419617 4.044632 1.440184
O -4.363610 3.376468 -0.930608
H -5.191929 3.836922 -0.782377
H -4.239541 2.771618 -0.196550
5
Structure 1390 | Energy: -10.835696 Hartree
N -2.922081 5.465784 1.413266
N -3.020495 4.378198 1.296821
O -4.363610 3.376468 -0.930608
H -5.191929 3.836922 -0.782377
H -4.239541 2.771618 -0.196550
5
Structure 1391 | Energy: -10.835696 Hartree
N -2.922081 5.465784 1.413266
N -3.020495 4.378198 1.296821
O -1.919077 3.157773 -0.954023
H -1.019519 3.463645 -0.822343
H -2.134559 2.583300 -0.216713
5
Structure 1392 | Energy: -10.835481 Hartree
N -2.132476 5.917780 1.789405
N -2.230890 4.830194 1.672960
O -1.919077 3.157773 -0.954023
H -1.019519 3.463645 -0.822343
H -2.134559 2.583300 -0.216713
5
Structure 1393 | Energy: -10.835535 Hartree
N -2.132476 5.917780 1.789405
N -2.230890 4.830194 1.672960
O -1.925575 3.205959 -0.897083
H -1.026017 3.511831 -0.765403
H -2.141057 2.631486 -0.159773
5
Structure 1394 | Energy: -10.835064 Hartree
N -2.132476 5.917780 1.789405
N -2.230890 4.830194 1.672960
O -1.795626 2.804686 -1.423108
H -0.896068 3.110558 -1.291427
H -2.011107 2.230213 -0.685797
5
Structure 1395 | Energy: -10.835119 Hartree
N -2.132476 5.917780 1.789405
N -2.230890 4.830194 1.672960
O -1.805249 2.863292 -1.352678
H -0.905690 3.169164 -1.220998
H -2.020730 2.288819 -0.615368
5
Structure 1396 | Energy: -10.835167 Hartree
N -2.132476 5.917780 1.789405
N -2.230890 4.830194 1.672960
O -2.129614 3.499615 -1.696634
H -1.230056 3.805487 -1.564953
H -2.345096 2.925142 -0.959323
5
Structure 1397 | Energy: -10.835003 Hartree
N -2.132476 5.917780 1.789405
N -2.230890 4.830194 1.672960
O -1.757004 3.520326 -1.944200
H -0.857446 3.826198 -1.812520
H -1.972486 2.945853 -1.206890
5
Structure 1398 | Energy: -10.835044 Hartree
N -2.124346 5.884967 1.725722
N -2.222761 4.797381 1.609277
O -1.757004 3.520326 -1.944200
H -0.857446 3.826198 -1.812520
H -1.972486 2.945853 -1.206890
5
Structure 1399 | Energy: -10.835067 Hartree
N -2.120071 5.867708 1.692226
N -2.218485 4.780122 1.575781
O -1.757004 3.520326 -1.944200
H -0.857446 3.826198 -1.812520
H -1.972486 2.945853 -1.206890
5
Structure 1400 | Energy: -10.834791 Hartree
N -1.669521 4.049090 -1.837355
N -1.767935 2.961503 -1.953800
O -2.207554 5.338944 1.585380
H -1.307996 5.644816 1.717061
H -2.423036 4.764471 2.322691
5
Structure 1401 | Energy: -10.835067 Hartree
N -2.120071 5.867708 1.692226
N -2.218485 4.780122 1.575781
O -1.757004 3.520326 -1.944200
H -0.857446 3.826198 -1.812520
H -1.972486 2.945853 -1.206890
5
Structure 1402 | Energy: -10.835067 Hartree
N -1.614586 6.266791 1.417683
N -0.781110 5.914938 0.795103
O -1.757004 3.520326 -1.944200
H -0.857446 3.826198 -1.812520
H -1.972486 2.945853 -1.206890
5
Structure 1403 | Energy: -10.834998 Hartree
N -1.279508 6.562430 1.070286
N -0.446032 6.210577 0.447706
O -1.757004 3.520326 -1.944200
H -0.857446 3.826198 -1.812520
H -1.972486 2.945853 -1.206890
5
Structure 1404 | Energy: -10.834728 Hartree
N -1.279508 6.562430 1.070286
N -0.446032 6.210577 0.447706
O -3.174217 3.680277 -1.152928
H -2.237766 3.766655 -1.341877
H -3.253767 3.215101 -0.317847
5
Structure 1405 | Energy: -10.834495 Hartree
N -1.560258 5.849976 0.477137
N -0.726782 5.498123 -0.145443
O -3.174217 3.680277 -1.152928
H -2.237766 3.766655 -1.341877
H -3.253767 3.215101 -0.317847
5
Structure 1406 | Energy: -10.834495 Hartree
N -2.554741 5.310117 1.479454
N -2.820552 4.361511 1.964820
O -3.174217 3.680277 -1.152928
H -2.237766 3.766655 -1.341877
H -3.253767 3.215101 -0.317847
5
Structure 1407 | Energy: -10.835142 Hartree
N -2.554741 5.310117 1.479454
N -2.820552 4.361511 1.964820
O -3.097170 3.715717 -1.117701
H -3.643049 3.367929 -0.409772
H -3.071368 3.051329 -1.809078
5
Structure 1408 | Energy: -10.836111 Hartree
N -2.554741 5.310117 1.479454
N -2.820552 4.361511 1.964820
O -3.915401 2.695637 -0.121573
H -3.795367 2.480950 0.805575
H -3.943416 1.866887 -0.603722
5
Structure 1409 | Energy: -10.836108 Hartree
N -2.554741 5.310117 1.479454
N -2.820552 4.361511 1.964820
O -5.404117 3.532018 1.083458
H -4.937569 3.245798 1.871184
H -5.996184 2.821193 0.829957
5
Structure 1410 | Energy: -10.835779 Hartree
N -2.000338 3.424126 1.254430
N -2.709773 2.706557 1.687886
O -5.404117 3.532018 1.083458
H -4.937569 3.245798 1.871184
H -5.996184 2.821193 0.829957
5
Structure 1411 | Energy: -10.834071 Hartree
N -2.000338 3.424126 1.254430
N -2.709773 2.706557 1.687886
O -4.956603 3.925995 1.433377
H -4.490055 3.639775 2.221103
H -5.548670 3.215171 1.179876
5
Structure 1412 | Energy: -10.835108 Hartree
N -2.103591 3.696279 0.561257
N -2.583744 2.989533 1.251222
O -4.956603 3.925995 1.433377
H -4.490055 3.639775 2.221103
H -5.548670 3.215171 1.179876
5
Structure 1413 | Energy: -10.835675 Hartree
N -2.103591 3.696279 0.561257
N -2.583744 2.989533 1.251222
O -4.930131 3.924153 1.468070
H -4.879529 3.168582 2.056844
H -5.579366 3.715605 0.793475
5
Structure 1414 | Energy: -10.833212 Hartree
N -4.723549 4.223580 1.118286
N -5.203703 3.516834 1.808251
O -2.310172 3.396852 0.911041
H -2.259570 2.641281 1.499815
H -2.959407 3.188304 0.236446
5
Structure 1415 | Energy: -10.833351 Hartree
N -4.740083 4.226908 1.121801
N -5.220237 3.520162 1.811766
O -2.310172 3.396852 0.911041
H -2.259570 2.641281 1.499815
H -2.959407 3.188304 0.236446
5
Structure 1416 | Energy: -10.833157 Hartree
N -4.911755 4.263391 1.086185
N -5.048564 3.483679 1.847382
O -2.310172 3.396852 0.911041
H -2.259570 2.641281 1.499815
H -2.959407 3.188304 0.236446
5
Structure 1417 | Energy: -10.832793 Hartree
N -4.766937 4.705651 0.913483
N -4.903745 3.925939 1.674680
O -2.310172 3.396852 0.911041
H -2.259570 2.641281 1.499815
H -2.959407 3.188304 0.236446
5
Structure 1418 | Energy: -10.834012 Hartree
N -4.946696 4.048185 1.385027
N -5.083505 3.268473 2.146224
O -2.310172 3.396852 0.911041
H -2.259570 2.641281 1.499815
H -2.959407 3.188304 0.236446
5
Structure 1419 | Energy: -10.834066 Hartree
N -4.946696 4.048185 1.385027
N -5.083505 3.268473 2.146224
O -2.275335 3.141122 1.181241
H -2.408246 2.288946 1.601041
H -2.845058 3.169824 0.410092
5
Structure 1420 | Energy: -10.835290 Hartree
N -2.246245 3.484902 0.780983
N -2.383054 2.705190 1.542180
O -4.975786 3.704405 1.785285
H -5.108696 2.852229 2.205085
H -5.545509 3.733107 1.014136
5
Structure 1421 | Energy: -10.835290 Hartree
N -2.315674 3.624919 0.591684
N -3.014209 3.978035 -0.178671
O -4.975786 3.704405 1.785285
H -5.108696 2.852229 2.205085
H -5.545509 3.733107 1.014136
5
Structure 1422 | Energy: -10.835117 Hartree
N -2.400507 2.880325 0.658933
N -3.060481 3.134148 -0.181363
O -4.975786 3.704405 1.785285
H -5.108696 2.852229 2.205085
H -5.545509 3.733107 1.014136
5
Structure 1423 | Energy: -10.835117 Hartree
N -2.400507 2.880325 0.658933
N -3.060481 3.134148 -0.181363
O -4.582596 3.553186 2.285904
H -5.242288 2.903607 2.034992
H -4.023683 3.147818 2.951766
5
Structure 1424 | Energy: -10.835330 Hartree
N -1.775559 2.853031 0.936239
N -2.435532 3.106855 0.095943
O -4.582596 3.553186 2.285904
H -5.242288 2.903607 2.034992
H -4.023683 3.147818 2.951766
5
Structure 1425 | Energy: -10.835330 Hartree
N -1.775559 2.853031 0.936239
N -2.435532 3.106855 0.095943
O -0.430115 1.467275 -1.605558
H -0.997578 0.771367 -1.942901
H -0.001247 1.127232 -0.817827
5
Structure 1426 | Energy: -10.835330 Hartree
N -1.775559 2.853031 0.936239
N -2.435532 3.106855 0.095943
O -4.223994 1.291507 2.018751
H -4.379957 1.743149 2.850494
H -4.800302 1.692653 1.365277
5
Structure 1427 | Energy: -10.835281 Hartree
N -1.775559 2.853031 0.936239
N -2.435532 3.106855 0.095943
O -4.223994 1.291507 2.018751
H -4.452854 1.677170 2.866683
H -4.727408 1.758630 1.349088
5
Structure 1428 | Energy: -10.835302 Hartree
N 0.877584 -0.824093 0.426926
N 0.371464 0.009480 0.931988
O -1.109469 1.842309 -0.898498
H -1.793727 1.313096 -0.483978
H -0.346705 1.826314 -0.317108
5
Structure 1429 | Energy: -10.835302 Hartree
N -1.219122 -1.567749 0.185160
N -1.457954 -0.639375 0.721043
O -1.109469 1.842309 -0.898498
H -1.793727 1.313096 -0.483978
H -0.346705 1.826314 -0.317108
5
Structure 1430 | Energy: -10.834461 Hartree
N -0.825860 -0.909005 0.481933
N -1.851216 -1.298118 0.424270
O -1.109469 1.842309 -0.898498
H -1.793727 1.313096 -0.483978
H -0.346705 1.826314 -0.317108
5
Structure 1431 | Energy: -10.835420 Hartree
N 1.355301 0.166657 -0.153103
N 1.583609 -0.317066 -1.112257
O -1.109469 1.842309 -0.898498
H -1.793727 1.313096 -0.483978
H -0.346705 1.826314 -0.317108
5
Structure 1432 | Energy: -10.835319 Hartree
N 1.256131 0.239343 -0.161196
N 1.484440 -0.244380 -1.120350
O -1.109469 1.842309 -0.898498
H -1.793727 1.313096 -0.483978
H -0.346705 1.826314 -0.317108
5
Structure 1433 | Energy: -10.834901 Hartree
N -1.219231 2.053664 -0.363197
N -0.990922 1.569942 -1.322350
O 1.365893 0.027988 -0.696497
H 0.681635 -0.501225 -0.281977
H 2.128656 0.011993 -0.115108
5
Structure 1434 | Energy: -10.834848 Hartree
N -1.219231 2.053664 -0.363197
N -0.990922 1.569942 -1.322350
O 1.365891 0.027986 -0.696498
H 1.223264 0.407549 0.172807
H 1.587046 -0.896749 -0.569876
5
Structure 1435 | Energy: -10.835240 Hartree
N -1.219231 2.053664 -0.363197
N -0.990922 1.569942 -1.322350
O -1.560788 -0.777340 0.705692
H -0.677897 -0.807746 0.331952
H -1.500026 -1.105543 1.604952
5
Structure 1436 | Energy: -10.835146 Hartree
N -1.219231 2.053664 -0.363197
N -0.990922 1.569942 -1.322350
O -1.549320 -0.703073 0.660780
H -0.666429 -0.733479 0.287040
H -1.488558 -1.031275 1.560040
5
Structure 1437 | Energy: -10.835146 Hartree
N -1.219231 2.053664 -0.363197
N -0.990922 1.569942 -1.322350
O -0.784656 -0.629892 0.805887
H -1.449949 -0.808464 0.138355
H -1.106608 -0.994721 1.632522
5
Structure 1438 | Energy: -10.835186 Hartree
N -1.214280 1.569479 -1.323269
N -0.995872 2.054127 -0.362278
O -0.784656 -0.629892 0.805887
H -1.449949 -0.808464 0.138355
H -1.106608 -0.994721 1.632522
5
Structure 1439 | Energy: -10.833804 Hartree
N -1.214280 1.569479 -1.323269
N -0.995872 2.054127 -0.362278
O -0.896750 -0.686604 0.803357
H -0.442116 -0.658537 1.647526
H -0.335282 -0.244523 0.163515
5
Structure 1440 | Energy: -10.834958 Hartree
N -1.214280 1.569479 -1.323269
N -0.995872 2.054127 -0.362278
O -0.896751 -0.686603 0.803359
H -0.041381 -1.099347 0.668870
H -0.736003 0.196271 1.142138
5
Structure 1441 | Energy: -10.835181 Hartree
N -1.214280 1.569479 -1.323269
N -0.995872 2.054127 -0.362278
O -0.785370 -0.628289 0.807199
H -0.925280 -1.562116 0.638395
H -1.619936 -0.266516 1.111662
5
Structure 1442 | Energy: -10.835925 Hartree
N 0.995510 1.724974 0.024142
N 1.584137 0.801625 -0.059721
O -0.785370 -0.628289 0.807199
H -0.925280 -1.562116 0.638395
H -1.619936 -0.266516 1.111662
5
Structure 1443 | Energy: -10.835742 Hartree
N 0.995510 1.724974 0.024142
N 1.584137 0.801625 -0.059721
O -0.840426 -0.600980 0.791631
H -1.248393 -1.371605 0.391878
H -0.422971 -0.890480 1.605264
5
Structure 1444 | Energy: -10.834959 Hartree
N 1.219761 0.720910 -0.067052
N 1.359886 1.805689 0.031473
O -0.840426 -0.600980 0.791631
H -1.248393 -1.371605 0.391878
H -0.422971 -0.890480 1.605264
5
Structure 1445 | Energy: -10.834473 Hartree
N 1.112704 0.624215 -0.025200
N 1.252829 1.708994 0.073325
O -0.840426 -0.600980 0.791631
H -1.248393 -1.371605 0.391878
H -0.422971 -0.890480 1.605264
5
Structure 1446 | Energy: -10.834782 Hartree
N 1.112704 0.624215 -0.025200
N 1.252829 1.708994 0.073325
O -0.894939 -0.650217 0.812942
H -1.302905 -1.420841 0.413189
H -0.477484 -0.939717 1.626575
5
Structure 1447 | Energy: -10.832877 Hartree
N 1.112704 0.624215 -0.025200
N 1.252829 1.708994 0.073325
O -0.845891 -0.748805 0.848710
H -1.562373 -0.909411 0.231489
H -0.996507 0.113658 1.240566
5
Structure 1448 | Energy: -10.831882 Hartree
N 1.112704 0.624215 -0.025200
N 1.252829 1.708994 0.073325
O -0.829595 -0.934380 0.047579
H -1.171357 -1.212545 -0.804433
H -1.213797 -0.077166 0.241617
5
Structure 1449 | Energy: -10.833723 Hartree
N -0.940278 -1.444370 -0.038499
N -0.800153 -0.359591 0.060026
O 1.223387 1.134205 0.060879
H 0.881625 0.856040 -0.791134
H 0.839185 1.991419 0.254916
5
Structure 1450 | Energy: -10.833475 Hartree
N -0.940278 -1.444370 -0.038499
N -0.800153 -0.359591 0.060026
O 1.169953 1.186041 0.108815
H 0.872654 0.882527 -0.751182
H 0.757246 2.037180 0.267919
5
Structure 1451 | Energy: -10.834789 Hartree
N -1.557158 -2.483916 0.424480
N -1.417032 -1.399136 0.523006
O 1.169953 1.186041 0.108815
H 0.872654 0.882527 -0.751182
H 0.757246 2.037180 0.267919
5
Structure 1452 | Energy: -10.834809 Hartree
N -1.508047 -2.424657 0.416897
N -1.367922 -1.339877 0.515422
O 1.169953 1.186041 0.108815
H 0.872654 0.882527 -0.751182
H 0.757246 2.037180 0.267919
5
Structure 1453 | Energy: -10.834332 Hartree
N 1.060163 0.674292 0.020335
N 1.200288 1.759072 0.118860
O -1.398258 -1.912908 0.505377
H -1.695556 -2.216422 -0.354620
H -1.810964 -1.061769 0.664481
5
Structure 1454 | Energy: -10.834332 Hartree
N 1.060163 0.674292 0.020335
N 1.200288 1.759072 0.118860
O -1.398258 -1.783186 -0.922889
H -1.695556 -2.236674 -0.131647
H -1.810964 -0.917310 -0.926045
5
Structure 1455 | Energy: -10.834345 Hartree
N 1.060163 0.674292 0.020335
N 1.200288 1.759072 0.118860
O -1.448483 -1.841402 -0.941437
H -1.745782 -2.294890 -0.150194
H -1.861189 -0.975526 -0.944592
5
Structure 1456 | Energy: -10.834792 Hartree
N 0.878411 0.888153 -0.107688
N 1.427361 1.711504 -0.583962
O -1.448483 -1.841402 -0.941437
H -1.745782 -2.294890 -0.150194
H -1.861189 -0.975526 -0.944592
5
Structure 1457 | Energy: -10.834835 Hartree
N 0.770950 0.761281 -0.130128
N 1.319899 1.584632 -0.606402
O -1.448483 -1.841402 -0.941437
H -1.745782 -2.294890 -0.150194
H -1.861189 -0.975526 -0.944592
5
Structure 1458 | Energy: -10.834702 Hartree
N 1.083417 1.046584 -0.901283
N 1.007432 1.299330 0.164753
O -1.448483 -1.841402 -0.941437
H -1.745782 -2.294890 -0.150194
H -1.861189 -0.975526 -0.944592
5
Structure 1459 | Energy: -10.834686 Hartree
N 1.083417 1.046584 -0.901283
N 1.007432 1.299330 0.164753
O -1.490241 -1.890703 -0.950157
H -1.787540 -2.344191 -0.158914
H -1.902947 -1.024827 -0.953312
5
Structure 1460 | Energy: -10.834686 Hartree
N 1.083417 1.046584 -0.901283
N 1.007432 1.299330 0.164753
O -1.641693 -1.386937 1.174638
H -1.844305 -2.155377 0.637469
H -2.023297 -0.624517 0.735125
5
Structure 1461 | Energy: -10.835043 Hartree
N -1.636389 -1.513647 0.586971
N -1.712375 -1.260901 1.653008
O 1.078114 1.173294 -0.313616
H 0.875502 0.404854 -0.850786
H 0.696510 1.935714 -0.753129
5
Structure 1462 | Energy: -10.835070 Hartree
N -1.636389 -1.513647 0.586971
N -1.712375 -1.260901 1.653008
O 1.194752 0.987148 -0.402559
H 0.945985 0.217699 -0.918472
H 0.849504 1.757853 -0.857416
5
Structure 1463 | Energy: -10.834510 Hartree
N -1.636389 -1.513647 0.586971
N -1.712375 -1.260901 1.653008
O 1.194772 1.035904 -0.432819
H 0.583717 0.472429 0.045940
H 1.211456 0.729258 -1.341537
5
Structure 1464 | Energy: -10.834419 Hartree
N -1.636389 -1.513647 0.586971
N -1.712375 -1.260901 1.653008
O 2.127622 2.225148 -0.285740
H 1.516567 1.661673 0.193019
H 2.144306 1.918502 -1.194458
5
Structure 1465 | Energy: -10.834615 Hartree
N 2.132358 2.050089 -0.842816
N 2.056372 2.302835 0.223221
O -1.641125 -1.338588 1.144047
H -2.252180 -1.902063 1.622806
H -1.624441 -1.645234 0.235329
5
Structure 1466 | Energy: -10.834681 Hartree
N -1.869969 -2.187480 -1.153722
N -1.945954 -1.934734 -0.087685
O 1.664422 1.815405 0.175450
H 2.248425 2.572414 0.098122
H 1.637607 1.570875 1.102576
5
Structure 1467 | Energy: -10.834713 Hartree
N -1.761606 -2.070047 -1.128351
N -1.837592 -1.817301 -0.062314
O 1.664422 1.815405 0.175450
H 2.248425 2.572414 0.098122
H 1.637607 1.570875 1.102576
5
Structure 1468 | Energy: -10.834701 Hartree
N -1.472150 -2.110289 0.052890
N -1.548136 -1.857543 1.118926
O 1.664422 1.815405 0.175450
H 2.248425 2.572414 0.098122
H 1.637607 1.570875 1.102576
5
Structure 1469 | Energy: -10.834706 Hartree
N -1.472150 -2.110289 0.052890
N -1.548136 -1.857543 1.118926
O 1.664424 1.815407 0.175447
H 1.476186 1.730430 1.112169
H 2.409820 2.412830 0.088564
5
Structure 1470 | Energy: -10.834583 Hartree
N -1.472150 -2.110289 0.052890
N -1.548136 -1.857543 1.118926
O 1.740647 1.821932 0.183816
H 1.668449 1.647456 1.124267
H 1.007746 2.392239 -0.056360
5
Structure 1471 | Energy: -10.834630 Hartree
N 1.733592 1.717707 -0.310020
N 1.657606 1.970453 0.756017
O -1.465095 -2.006064 0.546725
H -1.537293 -2.180540 1.487176
H -2.197996 -1.435758 0.306549
5
Structure 1472 | Energy: -10.834659 Hartree
N 1.733592 1.717707 -0.310020
N 1.657606 1.970453 0.756017
O -1.366518 -1.888352 0.535566
H -1.438716 -2.062828 1.476017
H -2.099419 -1.318046 0.295390
5
Structure 1473 | Energy: -10.834659 Hartree
N 1.733592 1.717707 -0.310020
N 1.657606 1.970453 0.756017
O -1.414080 -1.730148 1.202845
H -1.364818 -2.308628 0.439277
H -2.154063 -1.136285 1.062024
5
Structure 1474 | Energy: -10.834698 Hartree
N 1.623718 1.593000 -0.277590
N 1.547732 1.845745 0.788447
O -1.414080 -1.730148 1.202845
H -1.364818 -2.308628 0.439277
H -2.154063 -1.136285 1.062024
5
Structure 1475 | Energy: -10.834665 Hartree
N 1.623718 1.593000 -0.277590
N 1.547732 1.845745 0.788447
O -1.416593 -1.777483 1.131588
H -2.167716 -1.393202 0.675248
H -1.311280 -1.300409 1.957050
5
Structure 1476 | Energy: -10.834639 Hartree
N 2.009757 1.410475 0.417604
N 1.161692 2.028270 0.093253
O -1.416593 -1.777483 1.131588
H -2.167716 -1.393202 0.675248
H -1.311280 -1.300409 1.957050
5
Structure 1477 | Energy: -10.834639 Hartree
N 2.009757 1.410475 0.417604
N 1.161692 2.028270 0.093253
O -1.273659 -1.881607 1.186255
H -0.586944 -2.544757 1.279830
H -1.255985 -1.340690 1.978199
5
Structure 1478 | Energy: -10.834379 Hartree
N 2.009757 1.410475 0.417604
N 1.161692 2.028270 0.093253
O -1.277645 -1.927397 1.261386
H -0.555315 -2.181370 0.683598
H -1.224354 -0.977290 1.381942
5
Structure 1479 | Energy: -10.834379 Hartree
N 2.700001 0.168271 -0.302867
N 2.460511 -0.309164 -1.262445
O -1.277645 -1.927397 1.261386
H -0.555315 -2.181370 0.683598
H -1.224354 -0.977290 1.381942
5
Structure 1480 | Energy: -10.834379 Hartree
N 2.009757 1.410475 0.417604
N 1.161692 2.028270 0.093253
O -1.277645 -1.927397 1.261386
H -0.555315 -2.181370 0.683598
H -1.224354 -0.977290 1.381942
5
Structure 1481 | Energy: -10.834379 Hartree
N 2.009757 1.410475 0.417604
N 1.161692 2.028270 0.093253
O -1.253612 -1.896651 1.253031
H -0.531283 -2.150623 0.675243
H -1.200322 -0.946543 1.373587
5
Structure 1482 | Energy: -10.834443 Hartree
N 1.233114 1.638350 -0.749980
N 0.385049 2.256145 -1.074331
O -1.253612 -1.896651 1.253031
H -0.531283 -2.150623 0.675243
H -1.200322 -0.946543 1.373587
5
Structure 1483 | Energy: -10.834443 Hartree
N 1.233114 1.638350 -0.749980
N 0.385049 2.256145 -1.074331
O -1.253612 -2.017722 1.022425
H -0.531283 -1.686338 1.559572
H -1.200322 -1.577447 0.171898
5
Structure 1484 | Energy: -10.834667 Hartree
N 1.233114 1.638350 -0.749980
N 0.385049 2.256145 -1.074331
O 0.976155 -2.877949 -0.273518
H 1.514591 -2.408817 0.366875
H 0.742208 -2.251499 -0.961201
5
Structure 1485 | Energy: -10.834647 Hartree
N 2.049356 1.541178 -0.427634
N 1.394927 2.304582 -0.869252
O 0.976155 -2.877949 -0.273518
H 1.514591 -2.408817 0.366875
H 0.742208 -2.251499 -0.961201
5
Structure 1486 | Energy: -10.834549 Hartree
N 2.426124 1.444523 0.663294
N 1.771695 2.207926 0.221676
O 0.976155 -2.877949 -0.273518
H 1.514591 -2.408817 0.366875
H 0.742208 -2.251499 -0.961201
5
Structure 1487 | Energy: -10.834591 Hartree
N 2.426124 1.444523 0.663294
N 1.771695 2.207926 0.221676
O 1.048315 -2.811205 -0.307580
H 0.941937 -2.938491 0.637186
H 0.169532 -2.781193 -0.690879
5
Structure 1488 | Energy: -10.834619 Hartree
N 2.426124 1.444523 0.663294
N 1.771695 2.207926 0.221676
O 1.084153 -2.660722 -0.284288
H 0.977775 -2.788008 0.660479
H 0.205370 -2.630711 -0.667586
5
Structure 1489 | Energy: -10.834796 Hartree
N 1.585202 1.639409 0.390265
N 2.612617 2.013040 0.494705
O 1.084153 -2.660722 -0.284288
H 0.977775 -2.788008 0.660479
H 0.205370 -2.630711 -0.667586
5
Structure 1490 | Energy: -10.834875 Hartree
N 1.535013 1.428665 0.357645
N 2.562427 1.802296 0.462085
O 1.084153 -2.660722 -0.284288
H 0.977775 -2.788008 0.660479
H 0.205370 -2.630711 -0.667586
5
Structure 1491 | Energy: -10.834875 Hartree
N 1.173924 1.502201 -0.263225
N 1.635597 1.991047 -1.131543
O 1.084153 -2.660722 -0.284288
H 0.977775 -2.788008 0.660479
H 0.205370 -2.630711 -0.667586
5
Structure 1492 | Energy: -10.834424 Hartree
N 0.798193 -2.910588 0.181287
N 1.259866 -2.421742 -0.687031
O 1.459884 1.752067 -0.728800
H 1.353506 1.624781 0.215967
H 0.581101 1.782078 -1.112098
5
Structure 1493 | Energy: -10.834426 Hartree
N 0.798193 -2.910588 0.181287
N 1.259866 -2.421742 -0.687031
O 1.456390 1.711030 -0.724666
H 1.350012 1.583744 0.220101
H 0.577607 1.741041 -1.107964
5
Structure 1494 | Energy: -10.834426 Hartree
N -0.122648 -2.723056 -1.402044
N 0.904767 -2.349425 -1.297603
O 1.456390 1.711030 -0.724666
H 1.350012 1.583744 0.220101
H 0.577607 1.741041 -1.107964
5
Structure 1495 | Energy: -10.834361 Hartree
N -0.122648 -2.723056 -1.402044
N 0.904767 -2.349425 -1.297603
O 1.456391 1.711032 -0.724664
H 0.889816 0.937432 -0.699391
H 1.037786 2.387331 -0.188504
5
Structure 1496 | Energy: -10.834766 Hartree
N -0.122648 -2.723056 -1.402044
N 0.904767 -2.349425 -1.297603
O 1.364237 1.741374 -0.655790
H 2.195800 2.006038 -1.053983
H 1.194472 0.837129 -0.927082
5
Structure 1497 | Energy: -10.834540 Hartree
N -1.971533 0.076070 2.206144
N -1.220089 0.857178 2.383043
O 1.364237 1.741374 -0.655790
H 2.195800 2.006038 -1.053983
H 1.194472 0.837129 -0.927082
5
Structure 1498 | Energy: -10.834304 Hartree
N -3.292738 0.040859 0.573475
N -2.541295 0.821967 0.750373
O 1.364237 1.741374 -0.655790
H 2.195800 2.006038 -1.053983
H 1.194472 0.837129 -0.927082
5
Structure 1499 | Energy: -10.834740 Hartree
N -3.005335 -0.937185 -0.608342
N -2.284137 -0.418537 -1.254071
O 1.364237 1.741374 -0.655790
H 2.195800 2.006038 -1.053983
H 1.194472 0.837129 -0.927082
5
Structure 1500 | Energy: -10.834634 Hartree
N -2.382714 -1.093244 -1.176815
N -2.906758 -0.262478 -0.685598
O 1.364237 1.741374 -0.655790
H 2.195800 2.006038 -1.053983
H 1.194472 0.837129 -0.927082
5
Structure 1501 | Energy: -10.834641 Hartree
N -2.770171 -0.896271 -0.443267
N -2.519300 -0.459451 -1.419146
O 1.364237 1.741374 -0.655790
H 2.195800 2.006038 -1.053983
H 1.194472 0.837129 -0.927082
5
Structure 1502 | Energy: -10.834486 Hartree
N -2.666070 -0.164906 -1.125999
N -2.623402 -1.190816 -0.736414
O 1.364237 1.741374 -0.655790
H 2.195800 2.006038 -1.053983
H 1.194472 0.837129 -0.927082
5
Structure 1503 | Energy: -10.834495 Hartree
N -2.666070 -0.164906 -1.125999
N -2.623402 -1.190816 -0.736414
O 1.245020 1.671145 -0.662801
H 2.076584 1.935809 -1.060994
H 1.075256 0.766900 -0.934093
5
Structure 1504 | Energy: -10.834425 Hartree
N -2.666070 -0.164906 -1.125999
N -2.623402 -1.190816 -0.736414
O 1.325451 1.681361 -0.707695
H 1.356310 0.802585 -1.090973
H 0.518928 1.737978 -0.191562
5
Structure 1505 | Energy: -10.834401 Hartree
N -2.666070 -0.164906 -1.125999
N -2.623402 -1.190816 -0.736414
O 2.833491 1.704350 -0.195272
H 2.864349 0.825573 -0.578550
H 2.026967 1.760967 0.320861
5
Structure 1506 | Energy: -10.834403 Hartree
N -2.722970 -0.189365 -1.133782
N -2.680303 -1.215275 -0.744197
O 2.833491 1.704350 -0.195272
H 2.864349 0.825573 -0.578550
H 2.026967 1.760967 0.320861
5
Structure 1507 | Energy: -10.834401 Hartree
N -2.645779 -0.156184 -1.123224
N -2.603111 -1.182094 -0.733639
O 2.833491 1.704350 -0.195272
H 2.864349 0.825573 -0.578550
H 2.026967 1.760967 0.320861
5
Structure 1508 | Energy: -10.834595 Hartree
N 2.768756 2.171302 -0.382631
N 2.811424 1.145392 0.006954
O -2.581044 -0.623136 -0.935865
H -2.550186 -1.501913 -1.319143
H -3.387567 -0.566519 -0.419732
5
Structure 1509 | Energy: -10.834401 Hartree
N -2.645779 -0.156184 -1.123224
N -2.603111 -1.182094 -0.733639
O 2.833491 1.704350 -0.195272
H 2.864349 0.825573 -0.578550
H 2.026967 1.760967 0.320861
5
Structure 1510 | Energy: -10.834595 Hartree
N 2.768756 2.171302 -0.382631
N 2.811424 1.145392 0.006954
O -2.581044 -0.623136 -0.935865
H -2.550186 -1.501913 -1.319143
H -3.387567 -0.566519 -0.419732
5
Structure 1511 | Energy: -10.834591 Hartree
N 2.798385 1.116967 -0.096400
N 2.781794 2.199727 -0.279276
O -2.581044 -0.623136 -0.935865
H -2.550186 -1.501913 -1.319143
H -3.387567 -0.566519 -0.419732
5
Structure 1512 | Energy: -10.834516 Hartree
N 2.571617 1.162337 -0.099713
N 3.008563 2.154357 -0.275963
O -2.581044 -0.623136 -0.935865
H -2.550186 -1.501913 -1.319143
H -3.387567 -0.566519 -0.419732
5
Structure 1513 | Energy: -10.834624 Hartree
N 2.270241 -0.336162 1.305317
N 2.707187 0.655858 1.129067
O -2.581044 -0.623136 -0.935865
H -2.550186 -1.501913 -1.319143
H -3.387567 -0.566519 -0.419732
5
Structure 1514 | Energy: -10.834624 Hartree
N 2.270241 -0.336162 1.305317
N 2.707187 0.655858 1.129067
O -2.603717 -0.618806 -0.961478
H -2.370259 -1.536280 -1.115885
H -3.207633 -0.600887 -0.216466
5
Structure 1515 | Energy: -10.834425 Hartree
N -2.842918 -1.165149 -0.840306
N -2.405972 -0.173129 -1.016556
O 2.509442 0.210181 1.184146
H 2.742900 -0.707293 1.029739
H 1.905526 0.228100 1.929157
5
Structure 1516 | Energy: -10.834504 Hartree
N -2.842918 -1.165149 -0.840306
N -2.405972 -0.173129 -1.016556
O 2.454274 0.198630 1.254138
H 3.015165 0.460416 0.521354
H 2.508891 -0.756273 1.326626
5
Structure 1517 | Energy: -10.834538 Hartree
N -2.842918 -1.165149 -0.840306
N -2.405972 -0.173129 -1.016556
O 2.473554 0.186188 1.273152
H 2.971049 -0.623279 1.141378
H 2.247000 0.524905 0.404808
5
Structure 1518 | Energy: -10.834569 Hartree
N 2.270241 -0.336162 1.305317
N 2.707187 0.655858 1.129067
O -2.639605 -0.642799 -0.872471
H -2.142110 -1.452266 -1.004246
H -2.866159 -0.304082 -1.740816
5
Structure 1519 | Energy: -10.834563 Hartree
N 2.759473 0.095320 1.690529
N 2.217955 0.224377 0.743855
O -2.639605 -0.642799 -0.872471
H -2.142110 -1.452266 -1.004246
H -2.866159 -0.304082 -1.740816
5
Structure 1520 | Energy: -10.834402 Hartree
N -2.353686 -0.733667 -0.455094
N -2.895204 -0.604610 -1.401768
O 2.473554 0.186188 1.273152
H 2.971049 -0.623279 1.141378
H 2.247000 0.524905 0.404808
5
Structure 1521 | Energy: -10.834402 Hartree
N -2.353686 -0.733667 -0.455094
N -2.895204 -0.604610 -1.401768
O 2.106613 -2.961633 1.053917
H 2.778235 -2.277341 1.026178
H 1.822410 -3.117458 0.151130
5
Structure 1522 | Energy: -10.834399 Hartree
N -2.353686 -0.733667 -0.455094
N -2.895204 -0.604610 -1.401768
O 1.994871 -2.908429 1.008534
H 2.666493 -2.224137 0.980795
H 1.710668 -3.064255 0.105747
5
Structure 1523 | Energy: -10.834534 Hartree
N -2.353686 -0.733667 -0.455094
N -2.895204 -0.604610 -1.401768
O 2.347629 -2.823968 -0.068475
H 2.665548 -2.462926 0.761391
H 2.225469 -2.087276 -0.670506
5
Structure 1524 | Energy: -10.834579 Hartree
N -0.641677 1.084459 1.581438
N -1.459937 1.525002 0.996236
O 2.347629 -2.823968 -0.068475
H 2.665548 -2.462926 0.761391
H 2.225469 -2.087276 -0.670506
5
Structure 1525 | Energy: -10.834590 Hartree
N -0.562401 1.428425 1.070475
N -1.539212 1.181037 1.507199
O 2.347629 -2.823968 -0.068475
H 2.665548 -2.462926 0.761391
H 2.225469 -2.087276 -0.670506
5
Structure 1526 | Energy: -10.834590 Hartree
N -0.102185 1.035609 2.567888
N -1.185421 0.879059 2.658336
O 2.347629 -2.823968 -0.068475
H 2.665548 -2.462926 0.761391
H 2.225469 -2.087276 -0.670506
5
Structure 1527 | Energy: -10.834661 Hartree
N 0.444124 1.050680 1.499915
N -0.639112 0.894130 1.590362
O 2.347629 -2.823968 -0.068475
H 2.665548 -2.462926 0.761391
H 2.225469 -2.087276 -0.670506
5
Structure 1528 | Energy: -10.834531 Hartree
N 0.247997 1.917688 0.867885
N -0.835239 1.761138 0.958332
O 2.347629 -2.823968 -0.068475
H 2.665548 -2.462926 0.761391
H 2.225469 -2.087276 -0.670506
5
Structure 1529 | Energy: -10.834501 Hartree
N 0.886892 1.793789 1.401651
N -0.196344 1.637239 1.492098
O 2.347629 -2.823968 -0.068475
H 2.665548 -2.462926 0.761391
H 2.225469 -2.087276 -0.670506
5
Structure 1530 | Energy: -10.834636 Hartree
N 2.900200 -2.684271 -0.100951
N 1.816965 -2.840821 -0.010504
O 0.334320 1.654092 1.434126
H 0.652239 2.015135 2.263993
H 0.212161 2.390784 0.832096
5
Structure 1531 | Energy: -10.834632 Hartree
N 2.251691 -2.703887 0.479675
N 2.465474 -2.821206 -0.591129
O 0.334320 1.654092 1.434126
H 0.652239 2.015135 2.263993
H 0.212161 2.390784 0.832096
5
Structure 1532 | Energy: -10.834632 Hartree
N -2.570175 -2.180105 2.099035
N -3.398806 -2.184191 1.378312
O 0.334320 1.654092 1.434126
H 0.652239 2.015135 2.263993
H 0.212161 2.390784 0.832096
5
Structure 1533 | Energy: -10.834632 Hartree
N 2.251691 -2.703887 0.479675
N 2.465474 -2.821206 -0.591129
O 0.334320 1.654092 1.434126
H 0.652239 2.015135 2.263993
H 0.212161 2.390784 0.832096
5
Structure 1534 | Energy: -10.834622 Hartree
N 2.251691 -2.703887 0.479675
N 2.465474 -2.821206 -0.591129
O 0.310530 1.707007 1.451882
H 0.628449 2.068049 2.281748
H 0.188370 2.443698 0.849852
5
Structure 1535 | Energy: -10.834540 Hartree
N 0.214592 1.827088 2.000032
N 0.428375 1.709769 0.929228
O 2.347629 -2.823968 -0.068475
H 2.665548 -2.462926 0.761391
H 2.225469 -2.087276 -0.670506
5
Structure 1536 | Energy: -10.834554 Hartree
N 0.214592 1.827088 2.000032
N 0.428375 1.709769 0.929228
O 2.298896 -2.715575 -0.032104
H 2.616815 -2.354533 0.797762
H 2.176737 -1.978884 -0.634135
5
Structure 1537 | Energy: -10.834526 Hartree
N 0.214592 1.827088 2.000032
N 0.428375 1.709769 0.929228
O 2.853282 -2.674187 0.288074
H 3.171200 -2.313144 1.117941
H 2.731122 -1.937495 -0.313956
5
Structure 1538 | Energy: -10.834537 Hartree
N 0.214592 1.827088 2.000032
N 0.428375 1.709769 0.929228
O 2.805013 -2.591020 0.310167
H 3.122931 -2.229977 1.140033
H 2.682853 -1.854328 -0.291863
5
Structure 1539 | Energy: -10.834663 Hartree
N 2.709075 -2.470938 0.858317
N 2.922858 -2.588257 -0.212487
O 0.310530 1.707007 1.451882
H 0.628449 2.068049 2.281748
H 0.188370 2.443698 0.849852
5
Structure 1540 | Energy: -10.834647 Hartree
N 2.709075 -2.470938 0.858317
N 2.922858 -2.588257 -0.212487
O 0.881864 2.184744 1.410221
H 1.199783 2.545787 2.240087
H 0.759704 2.921436 0.808190
5
Structure 1541 | Energy: -10.834632 Hartree
N 2.709310 -2.434908 0.853179
N 2.922623 -2.624288 -0.207349
O 0.881864 2.184744 1.410221
H 1.199783 2.545787 2.240087
H 0.759704 2.921436 0.808190
5
Structure 1542 | Energy: -10.834632 Hartree
N -1.765823 -1.948791 2.356093
N -2.601873 -2.024182 1.647980
O 0.881864 2.184744 1.410221
H 1.199783 2.545787 2.240087
H 0.759704 2.921436 0.808190
5
Structure 1543 | Energy: -10.834676 Hartree
N -1.765823 -1.948791 2.356093
N -2.601873 -2.024182 1.647980
O 0.876155 1.911953 0.619141
H 1.194073 2.272996 1.449007
H 0.753995 2.648645 0.017110
5
Structure 1544 | Energy: -10.834545 Hartree
N -1.765823 -1.948791 2.356093
N -2.601873 -2.024182 1.647980
O 0.898644 1.932603 0.679425
H 1.011179 2.884812 0.706524
H 0.579946 1.709078 -0.197243
5
Structure 1545 | Energy: -10.834526 Hartree
N -1.765823 -1.948791 2.356093
N -2.601873 -2.024182 1.647980
O 1.414315 1.413210 0.550967
H 1.591131 2.338840 0.371947
H 1.288956 0.979154 -0.295176
5
Structure 1546 | Energy: -10.834565 Hartree
N -1.181897 0.574376 -3.699650
N -2.019083 -0.081716 -3.426241
O 1.414315 1.413210 0.550967
H 1.591131 2.338840 0.371947
H 1.288956 0.979154 -0.295176
5
Structure 1547 | Energy: -10.834462 Hartree
N -1.181897 0.574376 -3.699650
N -2.019083 -0.081716 -3.426241
O 1.001215 1.214343 1.364088
H 1.178031 2.139972 1.185068
H 0.875856 0.780286 0.517945
5
Structure 1548 | Energy: -10.834477 Hartree
N -1.181897 0.574376 -3.699650
N -2.019083 -0.081716 -3.426241
O 1.106203 0.250654 0.706794
H 1.283019 1.176283 0.527774
H 0.980844 -0.183403 -0.139349
5
Structure 1549 | Energy: -10.834475 Hartree
N -1.181897 0.574376 -3.699650
N -2.019083 -0.081716 -3.426241
O 1.130484 0.250939 0.744543
H 1.307301 1.176568 0.565523
H 1.005126 -0.183118 -0.101601
5
Structure 1550 | Energy: -10.834482 Hartree
N -1.181897 0.574376 -3.699650
N -2.019083 -0.081716 -3.426241
O 1.056022 0.250064 0.628782
H 1.232839 1.175694 0.449762
H 0.930664 -0.183992 -0.217361
5
Structure 1551 | Energy: -10.834442 Hartree
N -1.181897 0.574376 -3.699650
N -2.019083 -0.081716 -3.426241
O 1.497115 -1.642923 -0.177208
H 0.717460 -1.832475 0.348444
H 1.298712 -0.871498 -0.711640
5
Structure 1552 | Energy: -10.834446 Hartree
N -1.181897 0.574376 -3.699650
N -2.019083 -0.081716 -3.426241
O 0.110797 -1.654685 -0.516510
H -0.668858 -1.844237 0.009143
H -0.087607 -0.883261 -1.050942
5
Structure 1553 | Energy: -10.834445 Hartree
N -1.181897 0.574376 -3.699650
N -2.019083 -0.081716 -3.426241
O 0.373783 -2.743880 0.388955
H -0.405873 -2.933431 0.914608
H 0.175379 -1.972455 -0.145477
5
Structure 1554 | Energy: -10.834471 Hartree
N -1.181897 0.574376 -3.699650
N -2.019083 -0.081716 -3.426241
O 0.373783 -2.743880 0.388956
H -0.480724 -3.062699 0.686065
H 0.250228 -1.843192 0.083058
5
Structure 1555 | Energy: -10.834473 Hartree
N -1.156370 0.535043 -3.647101
N -1.993555 -0.121049 -3.373693
O 0.373783 -2.743880 0.388956
H -0.480724 -3.062699 0.686065
H 0.250228 -1.843192 0.083058
5
Structure 1556 | Energy: -10.834473 Hartree
N -0.034120 2.502064 1.691318
N -0.819877 1.936114 2.209367
O 0.373783 -2.743880 0.388956
H -0.480724 -3.062699 0.686065
H 0.250228 -1.843192 0.083058
5
Structure 1557 | Energy: -10.834452 Hartree
N -0.654133 4.094784 1.631490
N -1.439891 3.528833 2.149539
O 0.373783 -2.743880 0.388956
H -0.480724 -3.062699 0.686065
H 0.250228 -1.843192 0.083058
5
Structure 1558 | Energy: -10.834432 Hartree
N 2.041077 -0.451856 -2.474068
N 1.255320 -1.017806 -1.956019
O -2.034654 1.711034 3.048484
H -2.543539 2.308174 2.496612
H -1.177886 1.599772 2.631773
5
Structure 1559 | Energy: -10.834427 Hartree
N 0.870332 -0.643313 -3.259550
N 0.084575 -1.209263 -2.741501
O -2.034654 1.711034 3.048484
H -2.543539 2.308174 2.496612
H -1.177886 1.599772 2.631773
5
Structure 1560 | Energy: -10.834445 Hartree
N 2.840736 -1.392833 -2.954856
N 2.054978 -1.958783 -2.436808
O -2.034654 1.711034 3.048484
H -2.543539 2.308174 2.496612
H -1.177886 1.599772 2.631773
5
Structure 1561 | Energy: -10.834445 Hartree
N 2.977879 -0.277423 -1.938435
N 2.192122 -0.843374 -1.420386
O -2.034654 1.711034 3.048484
H -2.543539 2.308174 2.496612
H -1.177886 1.599772 2.631773
5
Structure 1562 | Energy: -10.834444 Hartree
N 2.884460 -0.230744 -1.843523
N 2.098703 -0.796694 -1.325474
O -2.034654 1.711034 3.048484
H -2.543539 2.308174 2.496612
H -1.177886 1.599772 2.631773
5
Structure 1563 | Energy: -10.834442 Hartree
N 2.784353 -0.180722 -1.741816
N 1.998596 -0.746673 -1.223768
O -2.034654 1.711034 3.048484
H -2.543539 2.308174 2.496612
H -1.177886 1.599772 2.631773
5
Structure 1564 | Energy: -10.834516 Hartree
N -1.622310 2.021196 2.735264
N -2.408068 1.455246 3.253313
O 2.372009 -0.490884 -1.428596
H 1.863124 0.106255 -1.980469
H 3.228777 -0.602146 -1.845307
5
Structure 1565 | Energy: -10.834456 Hartree
N -2.091310 2.047128 3.441842
N -1.939068 1.429314 2.546735
O 2.372009 -0.490884 -1.428596
H 1.863124 0.106255 -1.980469
H 3.228777 -0.602146 -1.845307
5
Structure 1566 | Energy: -10.834510 Hartree
N -2.091310 2.047128 3.441842
N -1.939068 1.429314 2.546735
O 1.673149 1.103790 -2.462083
H 1.035343 0.401906 -2.605832
H 2.031945 1.341504 -3.319308
5
Structure 1567 | Energy: -10.834510 Hartree
N -2.091310 2.047128 3.441842
N -1.939068 1.429314 2.546735
O 1.673149 -3.138471 0.465975
H 1.035343 -3.023950 -0.241266
H 2.031945 -4.024281 0.384219
5
Structure 1568 | Energy: -10.834503 Hartree
N 1.581416 -2.872720 0.869382
N 1.733659 -3.490534 -0.025726
O -1.999577 1.781377 3.038436
H -2.637384 1.895898 2.331194
H -1.640781 0.895567 2.956679
5
Structure 1569 | Energy: -10.834504 Hartree
N 1.549522 -2.829996 0.891721
N 1.701765 -3.447809 -0.003386
O -1.999577 1.781377 3.038436
H -2.637384 1.895898 2.331194
H -1.640781 0.895567 2.956679
5
Structure 1570 | Energy: -10.834506 Hartree
N 1.527508 -2.800507 0.907140
N 1.679751 -3.418320 0.012033
O -1.999577 1.781377 3.038436
H -2.637384 1.895898 2.331194
H -1.640781 0.895567 2.956679
5
Structure 1571 | Energy: -10.834513 Hartree
N -2.091310 2.047128 3.441842
N -1.939068 1.429314 2.546735
O 1.619241 -3.066257 0.503734
H 0.981435 -2.951737 -0.203508
H 1.978037 -3.952067 0.421977
5
Structure 1572 | Energy: -10.834522 Hartree
N -2.091310 2.047128 3.441842
N -1.939068 1.429314 2.546735
O 1.498771 -2.904880 0.588114
H 0.860965 -2.790359 -0.119128
H 1.857567 -3.790690 0.506358
5
Structure 1573 | Energy: -10.834515 Hartree
N 1.407038 -2.639129 0.991520
N 1.559281 -3.256943 0.096413
O -1.999577 1.781377 3.038436
H -2.637384 1.895898 2.331194
H -1.640781 0.895567 2.956679
5
Structure 1574 | Energy: -10.834522 Hartree
N -2.091310 2.047128 3.441842
N -1.939068 1.429314 2.546735
O 1.498771 -2.904880 0.588114
H 0.860965 -2.790359 -0.119128
H 1.857567 -3.790690 0.506358
5
Structure 1575 | Energy: -10.834567 Hartree
N -2.091310 2.047128 3.441842
N -1.939068 1.429314 2.546735
O 1.482968 -2.955558 0.607201
H 0.794634 -2.543942 0.081015
H 2.174715 -3.232739 0.003268
5
Structure 1576 | Energy: -10.834577 Hartree
N -2.091310 2.047128 3.441842
N -1.939068 1.429314 2.546735
O 1.414130 -2.863345 0.655416
H 0.725796 -2.451730 0.129231
H 2.105877 -3.140527 0.051483
5
Structure 1577 | Energy: -10.834411 Hartree
N -2.091310 2.047128 3.441842
N -1.939068 1.429314 2.546735
O 3.201355 -0.364314 0.391985
H 3.223083 0.068932 1.247513
H 3.905637 -1.015483 0.385380
5
Structure 1578 | Energy: -10.834477 Hartree
N -2.091310 2.047128 3.441842
N -1.939068 1.429314 2.546735
O 3.275438 -0.422473 0.410803
H 2.535413 0.060225 0.037348
H 3.417456 -0.083669 1.296873
5
Structure 1579 | Energy: -10.834537 Hartree
N -2.263582 2.084539 3.340535
N -1.766796 1.391902 2.648042
O 3.275438 -0.422473 0.410803
H 2.535413 0.060225 0.037348
H 3.417456 -0.083669 1.296873
5
Structure 1580 | Energy: -10.834542 Hartree
N -2.188235 2.054231 3.303919
N -1.691450 1.361594 2.611426
O 3.275438 -0.422473 0.410803
H 2.535413 0.060225 0.037348
H 3.417456 -0.083669 1.296873
5
Structure 1581 | Energy: -10.834546 Hartree
N -2.188235 2.054231 3.303919
N -1.691450 1.361594 2.611426
O 3.219536 -0.399986 0.437969
H 2.479511 0.082712 0.064515
H 3.361554 -0.061182 1.324040
5
Structure 1582 | Energy: -10.834561 Hartree
N -2.018080 1.985785 3.221230
N -1.521294 1.293148 2.528737
O 3.219536 -0.399986 0.437969
H 2.479511 0.082712 0.064515
H 3.361554 -0.061182 1.324040
5
Structure 1583 | Energy: -10.834561 Hartree
N -2.018080 1.985785 3.221230
N -1.521294 1.293148 2.528737
O 0.009838 -3.853401 1.589507
H -0.654353 -3.289111 1.188845
H -0.013171 -3.692155 2.534784
5
Structure 1584 | Energy: -10.834561 Hartree
N -2.018080 1.985785 3.221230
N -1.521294 1.293148 2.528737
O 3.219536 -0.399986 0.437969
H 2.479511 0.082712 0.064515
H 3.361554 -0.061182 1.324040
5
Structure 1585 | Energy: -10.834625 Hartree
N -2.018080 1.985785 3.221230
N -1.521294 1.293148 2.528737
O 2.198912 -1.231007 -0.441846
H 1.898828 -0.320013 -0.453732
H 2.224434 -1.509714 0.475623
5
Structure 1586 | Energy: -10.834480 Hartree
N -4.115027 -0.972521 0.658923
N -3.091821 -1.267642 0.390520
O 2.198912 -1.231007 -0.441846
H 1.898828 -0.320013 -0.453732
H 2.224434 -1.509714 0.475623
5
Structure 1587 | Energy: -10.834479 Hartree
N -4.148721 -0.972081 0.664256
N -3.125514 -1.267202 0.395853
O 2.198912 -1.231007 -0.441846
H 1.898828 -0.320013 -0.453732
H 2.224434 -1.509714 0.475623
5
Structure 1588 | Energy: -10.834446 Hartree
N -4.148721 -0.972081 0.664256
N -3.125514 -1.267202 0.395853
O 2.224992 -0.499953 0.012477
H 1.810334 0.357696 -0.099767
H 2.207830 -0.703275 0.949731
5
Structure 1589 | Energy: -10.834445 Hartree
N -4.072606 -0.963524 0.658110
N -3.049399 -1.258646 0.389706
O 2.224992 -0.499953 0.012477
H 1.810334 0.357696 -0.099767
H 2.207830 -0.703275 0.949731
5
Structure 1590 | Energy: -10.834464 Hartree
N -3.702169 -0.580571 0.536126
N -3.419836 -1.641599 0.511690
O 2.224992 -0.499953 0.012477
H 1.810334 0.357696 -0.099767
H 2.207830 -0.703275 0.949731
5
Structure 1591 | Energy: -10.834483 Hartree
N -3.702169 -0.580571 0.536126
N -3.419836 -1.641599 0.511690
O 1.966236 -0.516637 0.748985
H 1.551578 0.341013 0.636741
H 1.949074 -0.719959 1.686238
5
Structure 1592 | Energy: -10.834392 Hartree
N -3.702169 -0.580571 0.536126
N -3.419836 -1.641599 0.511690
O 0.507960 -4.764681 -0.500385
H 0.430953 -4.150363 -1.233042
H 1.052946 -4.343612 0.167275
5
Structure 1593 | Energy: -10.834360 Hartree
N -3.152888 -1.664326 -0.822445
N -2.870554 -2.725353 -0.846882
O 0.507960 -4.764681 -0.500385
H 0.430953 -4.150363 -1.233042
H 1.052946 -4.343612 0.167275
5
Structure 1594 | Energy: -10.834364 Hartree
N -3.909275 -1.807192 -0.464267
N -3.626941 -2.868220 -0.488704
O 0.507960 -4.764681 -0.500385
H 0.430953 -4.150363 -1.233042
H 1.052946 -4.343612 0.167275
5
Structure 1595 | Energy: -10.834482 Hartree
N -3.909275 -1.807192 -0.464267
N -3.626941 -2.868220 -0.488704
O 0.536195 -4.770351 -0.506369
H 1.232241 -4.189761 -0.192463
H -0.196490 -4.214213 -0.778329
5
Structure 1596 | Energy: -10.834479 Hartree
N -3.952126 -1.783597 -0.463993
N -3.669792 -2.844624 -0.488429
O 0.536195 -4.770351 -0.506369
H 1.232241 -4.189761 -0.192463
H -0.196490 -4.214213 -0.778329
5
Structure 1597 | Energy: -10.834481 Hartree
N -3.952126 -1.783597 -0.463993
N -3.669792 -2.844624 -0.488429
O 0.503629 -4.752418 -0.506161
H 1.199675 -4.171829 -0.192254
H -0.229056 -4.196280 -0.778120
5
Structure 1598 | Energy: -10.834481 Hartree
N -2.751214 -1.636594 -3.398749
N -2.529614 -2.705056 -3.274767
O 0.503629 -4.752418 -0.506161
H 1.199675 -4.171829 -0.192254
H -0.229056 -4.196280 -0.778120
5
Structure 1599 | Energy: -10.834479 Hartree
N -2.751214 -1.636594 -3.398749
N -2.529614 -2.705056 -3.274767
O 0.530997 -4.774352 -0.481484
H 1.227044 -4.193762 -0.167577
H -0.201687 -4.218214 -0.753443
5
Structure 1600 | Energy: -10.834479 Hartree
N -3.962322 -1.784845 -0.439075
N -3.679988 -2.845872 -0.463512
O 0.530997 -4.774352 -0.481484
H 1.227044 -4.193762 -0.167577
H -0.201687 -4.218214 -0.753443
5
Structure 1601 | Energy: -10.834479 Hartree
N -3.962322 -1.784845 -0.439075
N -3.679988 -2.845872 -0.463512
O -1.266142 1.979404 -0.325937
H -0.370100 1.808401 -0.029341
H -1.628826 1.145059 -0.629921
5
Structure 1602 | Energy: -10.834483 Hartree
N -3.962322 -1.784845 -0.439075
N -3.679988 -2.845872 -0.463512
O -1.300911 1.922391 -0.327618
H -0.404870 1.751387 -0.031021
H -1.663595 1.088046 -0.631602
5
Structure 1603 | Energy: -10.834360 Hartree
N -3.962322 -1.784845 -0.439075
N -3.679988 -2.845872 -0.463512
O -1.334049 1.863239 -0.336985
H -0.734195 1.117921 -0.267868
H -0.808309 2.660367 -0.246085
5
Structure 1604 | Energy: -10.834589 Hartree
N -3.962322 -1.784845 -0.439075
N -3.679988 -2.845872 -0.463512
O -1.294191 1.818324 -0.292898
H -1.805892 2.497110 -0.737324
H -0.369242 1.994071 -0.476368
5
Structure 1605 | Energy: -10.834459 Hartree
N -3.962322 -1.784845 -0.439075
N -3.679988 -2.845872 -0.463512
O -2.323862 2.294873 -0.408307
H -2.976793 2.815406 0.063740
H -1.464024 2.672049 -0.212103
5
Structure 1606 | Energy: -10.834692 Hartree
N 1.284127 -0.492923 -1.254060
N 0.921214 -0.657816 -0.230735
O -2.355178 0.134827 0.410756
H -2.424319 0.617182 -0.415474
H -1.650577 -0.507627 0.306495
5
Structure 1607 | Energy: -10.834530 Hartree
N 1.214587 -0.495549 -1.274023
N 0.990753 -0.655190 -0.210772
O -2.355178 0.134827 0.410756
H -2.424319 0.617182 -0.415474
H -1.650577 -0.507627 0.306495
5
Structure 1608 | Energy: -10.834508 Hartree
N 0.877068 -0.124233 -0.525369
N 1.328272 -1.026507 -0.959426
O -2.355178 0.134827 0.410756
H -2.424319 0.617182 -0.415474
H -1.650577 -0.507627 0.306495
5
Structure 1609 | Energy: -10.835488 Hartree
N 0.877068 -0.124233 -0.525369
N 1.328272 -1.026507 -0.959426
O -2.361987 0.094147 0.394105
H -2.544818 0.580643 -0.412119
H -1.422005 0.174584 0.567429
5
Structure 1610 | Energy: -10.835800 Hartree
N 0.877068 -0.124233 -0.525369
N 1.328272 -1.026507 -0.959426
O -0.584042 2.310317 0.861209
H 0.052649 2.913339 0.472504
H -0.144418 1.464835 0.970611
5
Structure 1611 | Energy: -10.835800 Hartree
N 0.877068 -0.124233 -0.525369
N 1.328272 -1.026507 -0.959426
O -0.257855 2.438958 0.932875
H -0.932186 2.524941 0.256128
H -0.034579 1.508153 0.994743
5
Structure 1612 | Energy: -10.835591 Hartree
N 0.877068 -0.124233 -0.525369
N 1.328272 -1.026507 -0.959426
O -0.176918 2.265665 0.837039
H -0.851249 2.351647 0.160291
H 0.046358 1.334859 0.898907
5
Structure 1613 | Energy: -10.835989 Hartree
N 0.877068 -0.124233 -0.525369
N 1.328272 -1.026507 -0.959426
O -0.361327 2.594175 -0.623488
H 0.384235 2.968384 -1.096994
H -0.036942 1.832208 -0.139485
5
Structure 1614 | Energy: -10.835494 Hartree
N 0.733110 -0.212844 -0.559305
N 1.472230 -0.937895 -0.925490
O -0.361327 2.594175 -0.623488
H 0.384235 2.968384 -1.096994
H -0.036942 1.832208 -0.139485
5
Structure 1615 | Energy: -10.835311 Hartree
N 0.733110 -0.212844 -0.559305
N 1.472230 -0.937895 -0.925490
O -0.323964 2.510413 -0.626668
H 0.421597 2.884622 -1.100174
H 0.000421 1.748446 -0.142665
5
Structure 1616 | Energy: -10.835446 Hartree
N 0.757548 -0.267629 -0.561385
N 1.496667 -0.992680 -0.927570
O -0.323964 2.510413 -0.626668
H 0.421597 2.884622 -1.100174
H 0.000421 1.748446 -0.142665
5
Structure 1617 | Energy: -10.835454 Hartree
N 0.711104 -0.275934 -0.400083
N 1.442353 -1.031369 -0.717386
O -0.323964 2.510413 -0.626668
H 0.421597 2.884622 -1.100174
H 0.000421 1.748446 -0.142665
5
Structure 1618 | Energy: -10.835366 Hartree
N 0.711104 -0.275934 -0.400083
N 1.442353 -1.031369 -0.717386
O -0.308458 2.474073 -0.625889
H 0.437103 2.848282 -1.099395
H 0.015927 1.712107 -0.141886
5
Structure 1619 | Energy: -10.835181 Hartree
N 0.711104 -0.275934 -0.400083
N 1.442353 -1.031369 -0.717386
O -0.253327 2.843446 0.010048
H 0.492234 3.217655 -0.463458
H 0.071058 2.081479 0.494052
5
Structure 1620 | Energy: -10.835192 Hartree
N 0.711104 -0.275934 -0.400083
N 1.442353 -1.031369 -0.717386
O -0.219234 2.750164 -0.005234
H 0.526327 3.124373 -0.478740
H 0.105151 1.988197 0.478769
5
Structure 1621 | Energy: -10.834755 Hartree
N -0.524992 3.106185 0.154005
N 0.206257 2.350750 -0.163298
O 1.016862 -0.631955 -0.559322
H 1.762423 -0.257746 -1.032828
H 1.341247 -1.393922 -0.075319
5
Structure 1622 | Energy: -10.834497 Hartree
N -0.487323 3.161277 -0.086153
N 0.168588 2.295658 0.076860
O 1.016862 -0.631955 -0.559322
H 1.762423 -0.257746 -1.032828
H 1.341247 -1.393922 -0.075319
5
Structure 1623 | Energy: -10.834747 Hartree
N 0.748773 -0.220842 -0.640241
N 1.404684 -1.086461 -0.477229
O -0.219234 2.750164 -0.005234
H 0.526327 3.124373 -0.478740
H 0.105151 1.988197 0.478769
5
Structure 1624 | Energy: -10.834597 Hartree
N 0.748773 -0.220842 -0.640241
N 1.404684 -1.086461 -0.477229
O -0.169976 2.615385 -0.027314
H 0.575586 2.989594 -0.500820
H 0.154409 1.853419 0.456689
5
Structure 1625 | Energy: -10.834311 Hartree
N 0.766096 -0.276292 -0.808994
N 1.387362 -1.031010 -0.308476
O -0.169976 2.615385 -0.027314
H 0.575586 2.989594 -0.500820
H 0.154409 1.853419 0.456689
5
Structure 1626 | Energy: -10.834353 Hartree
N 0.781584 -0.318670 -0.815936
N 1.402850 -1.073388 -0.315418
O -0.169976 2.615385 -0.027314
H 0.575586 2.989594 -0.500820
H 0.154409 1.853419 0.456689
5
Structure 1627 | Energy: -10.834830 Hartree
N -2.646693 0.923848 -0.849632
N -3.615804 0.745534 -0.364745
O -0.169976 2.615385 -0.027314
H 0.575586 2.989594 -0.500820
H 0.154409 1.853419 0.456689
5
Structure 1628 | Energy: -10.835142 Hartree
N -2.646693 0.923848 -0.849632
N -3.615804 0.745534 -0.364745
O -0.694130 3.243506 -0.829302
H 0.051432 3.617715 -1.302808
H -0.369745 2.481539 -0.345298
5
Structure 1629 | Energy: -10.835142 Hartree
N -2.618128 0.951156 -0.852166
N -3.587240 0.772842 -0.367279
O -0.694130 3.243506 -0.829302
H 0.051432 3.617715 -1.302808
H -0.369745 2.481539 -0.345298
5
Structure 1630 | Energy: -10.834056 Hartree
N -0.149707 3.310967 -1.071158
N -1.118818 3.132653 -0.586271
O -3.162551 0.883695 -0.610310
H -2.416990 1.257904 -1.083816
H -2.838166 0.121728 -0.126306
5
Structure 1631 | Energy: -10.835142 Hartree
N -2.618128 0.951156 -0.852166
N -3.587240 0.772842 -0.367279
O -0.694130 3.243506 -0.829302
H 0.051432 3.617715 -1.302808
H -0.369745 2.481539 -0.345298
5
Structure 1632 | Energy: -10.836044 Hartree
N 0.829657 2.630768 1.740284
N 1.019837 3.194765 2.663229
O -0.694130 3.243506 -0.829302
H 0.051432 3.617715 -1.302808
H -0.369745 2.481539 -0.345298
5
Structure 1633 | Energy: -10.835570 Hartree
N 0.829657 2.630768 1.740284
N 1.019837 3.194765 2.663229
O -0.356843 3.853316 -0.514710
H 0.388719 4.227525 -0.988216
H -0.032458 3.091349 -0.030706
5
Structure 1634 | Energy: -10.834979 Hartree
N 1.233373 3.258034 2.496821
N 0.616121 2.567499 1.906693
O -0.356843 3.853316 -0.514710
H 0.388719 4.227525 -0.988216
H -0.032458 3.091349 -0.030706
5
Structure 1635 | Energy: -10.834106 Hartree
N 0.593987 2.774094 2.620294
N -0.221044 2.402699 1.984780
O -0.356843 3.853316 -0.514710
H 0.388719 4.227525 -0.988216
H -0.032458 3.091349 -0.030706
5
Structure 1636 | Energy: -10.834309 Hartree
N -0.079146 1.911970 2.548988
N -0.894177 1.540576 1.913473
O -0.356843 3.853316 -0.514710
H 0.388719 4.227525 -0.988216
H -0.032458 3.091349 -0.030706
5
Structure 1637 | Energy: -10.835157 Hartree
N 0.110540 4.017317 -0.196365
N -0.704491 3.645922 -0.831880
O -0.546529 1.747970 2.230643
H 0.199033 2.122178 1.757137
H -0.222144 0.986003 2.714647
5
Structure 1638 | Energy: -10.834819 Hartree
N 0.110540 4.017317 -0.196365
N -0.704491 3.645922 -0.831880
O -0.227042 0.944788 2.690733
H 0.518520 1.318996 2.217227
H 0.097343 0.182821 3.174736
5
Structure 1639 | Energy: -10.834928 Hartree
N 0.110540 4.017317 -0.196365
N -0.704491 3.645922 -0.831880
O 1.637624 1.751995 2.732765
H 2.048100 2.188072 1.983466
H 2.307758 1.202208 3.143535
5
Structure 1640 | Energy: -10.834929 Hartree
N 0.110540 4.017317 -0.196365
N -0.704491 3.645922 -0.831880
O 1.727631 1.706079 2.673600
H 1.333817 2.552451 2.452991
H 1.593447 1.566601 3.613078
5
Structure 1641 | Energy: -10.834836 Hartree
N 0.110540 4.017317 -0.196365
N -0.704491 3.645922 -0.831880
O 1.194198 1.368986 2.509648
H 0.800384 2.215357 2.289038
H 1.060014 1.229507 3.449125
5
Structure 1642 | Energy: -10.834818 Hartree
N 0.092758 4.046796 -0.233641
N -0.722273 3.675401 -0.869156
O 1.194198 1.368986 2.509648
H 0.800384 2.215357 2.289038
H 1.060014 1.229507 3.449125
5
Structure 1643 | Energy: -10.834844 Hartree
N 0.118170 4.004668 -0.180370
N -0.696861 3.633273 -0.815885
O 1.194198 1.368986 2.509648
H 0.800384 2.215357 2.289038
H 1.060014 1.229507 3.449125
5
Structure 1644 | Energy: -10.834372 Hartree
N 0.118170 4.004668 -0.180370
N -0.696861 3.633273 -0.815885
O 1.749450 1.095686 1.884533
H 1.263513 1.238854 1.069996
H 2.257414 0.289523 1.774297
5
Structure 1645 | Energy: -10.834714 Hartree
N 0.114459 4.022219 1.498808
N -0.700572 3.650825 0.863294
O 1.749450 1.095686 1.884533
H 1.263513 1.238854 1.069996
H 2.257414 0.289523 1.774297
5
Structure 1646 | Energy: -10.834699 Hartree
N 0.176373 3.938063 1.518552
N -0.638659 3.566669 0.883038
O 1.749450 1.095686 1.884533
H 1.263513 1.238854 1.069996
H 2.257414 0.289523 1.774297
5
Structure 1647 | Energy: -10.834494 Hartree
N 2.158198 1.244286 2.150546
N 1.343166 0.872892 1.515032
O -0.232375 3.789463 1.252539
H -0.718312 3.932632 0.438002
H 0.275589 2.983300 1.142303
5
Structure 1648 | Energy: -10.834699 Hartree
N 0.176373 3.938063 1.518552
N -0.638659 3.566669 0.883038
O 1.749450 1.095686 1.884533
H 1.263513 1.238854 1.069996
H 2.257414 0.289523 1.774297
5
Structure 1649 | Energy: -10.834957 Hartree
N 0.477517 3.730560 2.105538
N -0.337514 3.359165 1.470024
O 1.749450 1.095686 1.884533
H 1.263513 1.238854 1.069996
H 2.257414 0.289523 1.774297
5
Structure 1650 | Energy: -10.833300 Hartree
N 0.477517 3.730560 2.105538
N -0.337514 3.359165 1.470024
O 1.782116 1.004685 1.820083
H 1.820429 1.506853 2.636454
H 1.182019 1.465888 1.230800
5
Structure 1651 | Energy: -10.833270 Hartree
N 0.477517 3.730560 2.105538
N -0.337514 3.359165 1.470024
O 1.813604 1.057236 1.842489
H 1.167337 1.535568 2.365595
H 1.335322 0.603086 1.146018
5
Structure 1652 | Energy: -10.832556 Hartree
N 0.530805 3.651729 2.106965
N -0.284226 3.280335 1.471451
O 1.813604 1.057236 1.842489
H 1.167337 1.535568 2.365595
H 1.335322 0.603086 1.146018
5
Structure 1653 | Energy: -10.832998 Hartree
N 0.105411 3.742943 2.263046
N 0.141168 3.189121 1.315370
O 1.813604 1.057236 1.842489
H 1.167337 1.535568 2.365595
H 1.335322 0.603086 1.146018
5
Structure 1654 | Energy: -10.835100 Hartree
N 1.732803 1.335500 2.306627
N 1.768561 0.781678 1.358951
O 0.186212 3.464679 1.798908
H -0.460055 3.943011 2.322014
H -0.292071 3.010529 1.102437
5
Structure 1655 | Energy: -10.834825 Hartree
N 1.732803 1.335500 2.306627
N 1.768561 0.781678 1.358951
O -0.138348 3.256525 2.192655
H -0.784615 3.734857 2.715761
H -0.616630 2.802375 1.496184
5
Structure 1656 | Energy: -10.835373 Hartree
N 1.732803 1.335500 2.306627
N 1.768561 0.781678 1.358951
O 0.168781 3.293001 1.341623
H -0.477486 3.771333 1.864728
H -0.309501 2.838851 0.645151
5
Structure 1657 | Energy: -10.835323 Hartree
N 1.732803 1.335500 2.306627
N 1.768561 0.781678 1.358951
O 1.019809 3.513444 0.748464
H 0.536487 4.267948 1.090848
H 0.460767 3.091661 0.092988
5
Structure 1658 | Energy: -10.834856 Hartree
N 1.704586 1.423937 2.267232
N 1.740344 0.870115 1.319555
O 1.019809 3.513444 0.748464
H 0.536487 4.267948 1.090848
H 0.460767 3.091661 0.092988
5
Structure 1659 | Energy: -10.834256 Hartree
N 2.056441 1.581642 1.826418
N 1.388489 0.712409 1.760369
O 1.019809 3.513444 0.748464
H 0.536487 4.267948 1.090848
H 0.460767 3.091661 0.092988
5
Structure 1660 | Energy: -10.834613 Hartree
N 1.259079 0.852862 1.809629
N 2.185851 1.441189 1.777158
O 1.019809 3.513444 0.748464
H 0.536487 4.267948 1.090848
H 0.460767 3.091661 0.092988
5
Structure 1661 | Energy: -10.834769 Hartree
N 1.267524 0.826395 1.821419
N 2.194295 1.414722 1.788948
O 1.019809 3.513444 0.748464
H 0.536487 4.267948 1.090848
H 0.460767 3.091661 0.092988
5
Structure 1662 | Energy: -10.831391 Hartree
N 1.267524 0.826395 1.821419
N 2.194295 1.414722 1.788948
O 0.995159 3.566430 0.689233
H 1.306559 3.229187 1.531492
H 0.081930 3.289434 0.592469
5
Structure 1663 | Energy: -10.831807 Hartree
N 1.275739 0.800647 1.832889
N 2.202511 1.388974 1.800418
O 0.995159 3.566430 0.689233
H 1.306559 3.229187 1.531492
H 0.081930 3.289434 0.592469
5
Structure 1664 | Energy: -10.831220 Hartree
N 1.275739 0.800647 1.832889
N 2.202511 1.388974 1.800418
O 1.006465 3.530996 0.705018
H 1.317865 3.193753 1.547276
H 0.093236 3.253999 0.608254
5
Structure 1665 | Energy: -10.830691 Hartree
N 1.275739 0.800647 1.832889
N 2.202511 1.388974 1.800418
O 0.744711 3.397814 0.627184
H 0.875492 3.048320 1.510843
H 0.006116 2.923415 0.240531
5
Structure 1666 | Energy: -10.834641 Hartree
N 1.275739 0.800647 1.832889
N 2.202511 1.388974 1.800418
O 0.734724 3.339755 0.712743
H 0.026172 3.952695 0.506925
H 1.013946 2.940554 -0.113545
5
Structure 1667 | Energy: -10.835193 Hartree
N 1.275739 0.800647 1.832889
N 2.202511 1.388974 1.800418
O -0.019753 2.643953 0.448561
H -0.728305 3.256893 0.242743
H 0.259468 2.244753 -0.377728
5
Structure 1668 | Energy: -10.835296 Hartree
N 1.295626 0.783235 1.848793
N 2.222397 1.371562 1.816322
O -0.019753 2.643953 0.448561
H -0.728305 3.256893 0.242743
H 0.259468 2.244753 -0.377728
5
Structure 1669 | Energy: -10.835296 Hartree
N 1.295626 0.783235 1.848793
N 2.222397 1.371562 1.816322
O 2.489784 -1.297228 0.666080
H 2.753620 -2.211406 0.544546
H 2.288546 -0.941877 -0.201853
5
Structure 1670 | Energy: -10.835361 Hartree
N 1.295626 0.783235 1.848793
N 2.222397 1.371562 1.816322
O 2.511344 -1.292765 0.660237
H 2.582515 -2.246825 0.590917
H 2.117435 -0.977298 -0.155480
5
Structure 1671 | Energy: -10.834587 Hartree
N 1.295626 0.783235 1.848793
N 2.222397 1.371562 1.816322
O 2.473248 -1.290946 0.563349
H 2.003051 -1.479392 1.377907
H 3.301562 -1.773597 0.595333
5
Structure 1672 | Energy: -10.835481 Hartree
N 1.466418 1.159810 1.903780
N 2.393189 1.748137 1.871310
O 2.473248 -1.290946 0.563349
H 2.003051 -1.479392 1.377907
H 3.301562 -1.773597 0.595333
5
Structure 1673 | Energy: -10.835544 Hartree
N 1.466418 1.159810 1.903780
N 2.393189 1.748137 1.871310
O 1.981505 -1.187861 0.282933
H 1.511308 -1.376307 1.097491
H 2.809819 -1.670512 0.314916
5
Structure 1674 | Energy: -10.835803 Hartree
N 1.466418 1.159810 1.903780
N 2.393189 1.748137 1.871310
O 2.038769 -1.180632 0.304528
H 1.218671 -1.518378 -0.060806
H 2.193567 -1.643184 1.130458
5
Structure 1675 | Energy: -10.836022 Hartree
N 1.466418 1.159810 1.903780
N 2.393189 1.748137 1.871310
O 0.390628 0.379585 -0.548761
H -0.235195 0.966246 -0.978037
H -0.109434 -0.183736 0.045113
5
Structure 1676 | Energy: -10.836078 Hartree
N 1.466418 1.159810 1.903780
N 2.393189 1.748137 1.871310
O 0.429833 0.405843 -0.489370
H -0.195990 0.992504 -0.918646
H -0.070229 -0.157477 0.104504
5
Structure 1677 | Energy: -10.836058 Hartree
N 1.482376 1.170498 1.927956
N 2.409148 1.758825 1.895485
O 0.429833 0.405843 -0.489370
H -0.195990 0.992504 -0.918646
H -0.070229 -0.157477 0.104504
5
Structure 1678 | Energy: -10.836058 Hartree
N 0.896726 -2.051213 -1.621138
N 1.706815 -2.104768 -2.360716
O 0.429833 0.405843 -0.489370
H -0.195990 0.992504 -0.918646
H -0.070229 -0.157477 0.104504
5
Structure 1679 | Energy: -10.835730 Hartree
N -1.803059 -0.762490 -1.725013
N -1.607778 -1.387258 -2.606840
O 0.429833 0.405843 -0.489370
H -0.195990 0.992504 -0.918646
H -0.070229 -0.157477 0.104504
5
Structure 1680 | Energy: -10.835520 Hartree
N -1.728876 -0.709436 -1.664665
N -1.533595 -1.334204 -2.546492
O 0.429833 0.405843 -0.489370
H -0.195990 0.992504 -0.918646
H -0.070229 -0.157477 0.104504
5
Structure 1681 | Energy: -10.835454 Hartree
N -1.714846 -0.699402 -1.653252
N -1.519565 -1.324170 -2.535079
O 0.429833 0.405843 -0.489370
H -0.195990 0.992504 -0.918646
H -0.070229 -0.157477 0.104504
5
Structure 1682 | Energy: -10.835224 Hartree
N -1.714846 -0.699402 -1.653252
N -1.519565 -1.324170 -2.535079
O 0.430302 0.410705 -0.483964
H -0.199718 0.953921 -0.961553
H -0.073958 -0.196061 0.061596
5
Structure 1683 | Energy: -10.834238 Hartree
N -1.714846 -0.699402 -1.653252
N -1.519565 -1.324170 -2.535079
O -3.344299 1.218291 -1.170899
H -3.775006 0.378147 -1.340462
H -2.635063 1.053003 -0.546607
5
Structure 1684 | Energy: -10.833624 Hartree
N -1.621822 -0.726732 -2.563468
N -1.612589 -1.296841 -1.624863
O -3.344299 1.218291 -1.170899
H -3.775006 0.378147 -1.340462
H -2.635063 1.053003 -0.546607
5
Structure 1685 | Energy: -10.833980 Hartree
N -0.958512 0.210484 -2.548442
N -0.969012 -0.621678 -1.831864
O -3.344299 1.218291 -1.170899
H -3.775006 0.378147 -1.340462
H -2.635063 1.053003 -0.546607
5
Structure 1686 | Energy: -10.835547 Hartree
N -3.323465 1.578115 -1.503745
N -3.333965 0.745953 -0.787167
O -0.979347 -0.149340 -2.215597
H -1.410054 -0.989484 -2.385160
H -0.270110 -0.314628 -1.591304
5
Structure 1687 | Energy: -10.835718 Hartree
N -2.933160 2.105750 -2.201538
N -3.248409 1.422408 -1.401694
O -0.979347 -0.149340 -2.215597
H -1.410054 -0.989484 -2.385160
H -0.270110 -0.314628 -1.591304
5
Structure 1688 | Energy: -10.834883 Hartree
N -2.459147 0.296742 0.404546
N -1.861028 -0.612382 0.552313
O -0.979347 -0.149340 -2.215597
H -1.410054 -0.989484 -2.385160
H -0.270110 -0.314628 -1.591304
5
Structure 1689 | Energy: -10.835292 Hartree
N -2.670100 0.978966 0.024842
N -3.305977 0.916271 -0.868365
O -0.979347 -0.149340 -2.215597
H -1.410054 -0.989484 -2.385160
H -0.270110 -0.314628 -1.591304
5
Structure 1690 | Energy: -10.835396 Hartree
N -2.328628 1.499628 -0.029747
N -2.964505 1.436933 -0.922954
O -0.979347 -0.149340 -2.215597
H -1.410054 -0.989484 -2.385160
H -0.270110 -0.314628 -1.591304
5
Structure 1691 | Energy: -10.835267 Hartree
N -2.328628 1.499628 -0.029747
N -2.964505 1.436933 -0.922954
O -0.979504 -0.143904 -2.191320
H -0.469575 -0.613712 -2.854159
H -1.208100 -0.776671 -1.507632
5
Structure 1692 | Energy: -10.835666 Hartree
N -2.328628 1.499628 -0.029747
N -2.964505 1.436933 -0.922954
O -0.979504 -0.143905 -2.191322
H -0.333303 -0.555466 -1.614136
H -1.344367 -0.834915 -2.747612
5
Structure 1693 | Energy: -10.835221 Hartree
N -2.571313 1.957397 0.619251
N -3.207189 1.894701 -0.273956
O -0.979504 -0.143905 -2.191322
H -0.333303 -0.555466 -1.614136
H -1.344367 -0.834915 -2.747612
5
Structure 1694 | Energy: -10.834255 Hartree
N -2.571313 1.957397 0.619251
N -3.207189 1.894701 -0.273956
O -1.690368 0.462893 -1.536852
H -1.044167 0.051332 -0.959665
H -2.055231 -0.228118 -2.093141
5
Structure 1695 | Energy: -10.834255 Hartree
N -2.571313 1.957397 0.619251
N -3.207189 1.894701 -0.273956
O -0.461106 1.750848 -0.584946
H -0.601175 1.407093 -1.469432
H 0.252532 1.243829 -0.192859
5
Structure 1696 | Energy: -10.833757 Hartree
N -2.529559 1.953615 0.605926
N -3.165435 1.890920 -0.287282
O -0.461106 1.750848 -0.584946
H -0.601175 1.407093 -1.469432
H 0.252532 1.243829 -0.192859
5
Structure 1697 | Energy: -10.835684 Hartree
N -2.529559 1.953615 0.605926
N -3.165435 1.890920 -0.287282
O -0.099077 0.689411 -0.687110
H -0.239146 0.345657 -1.571596
H 0.614561 0.182393 -0.295023
5
Structure 1698 | Energy: -10.834321 Hartree
N 0.250955 0.673155 -0.268057
N -0.384922 0.610460 -1.161265
O -2.879590 1.969871 0.186873
H -3.019659 1.626117 -0.697613
H -2.165953 1.462853 0.578960
5
Structure 1699 | Energy: -10.834248 Hartree
N -1.527578 0.692965 -2.684965
N -0.981491 0.405745 -1.776459
O -2.879590 1.969871 0.186873
H -3.019659 1.626117 -0.697613
H -2.165953 1.462853 0.578960
5
Structure 1700 | Energy: -10.835942 Hartree
N -1.527578 0.692965 -2.684965
N -0.981491 0.405745 -1.776459
O -2.871523 1.914494 0.100863
H -2.158047 1.408644 0.494781
H -3.155608 2.559278 0.751729
5
Structure 1701 | Energy: -10.835920 Hartree
N -1.511898 0.679452 -2.708490
N -0.965811 0.392232 -1.799984
O -2.871523 1.914494 0.100863
H -2.158047 1.408644 0.494781
H -3.155608 2.559278 0.751729
5
Structure 1702 | Energy: -10.836149 Hartree
N -1.511898 0.679452 -2.708490
N -0.965811 0.392232 -1.799984
O -1.763814 2.232482 0.158330
H -1.050338 1.726633 0.552248
H -2.047900 2.877267 0.809196
5
Structure 1703 | Energy: -10.836109 Hartree
N -1.511898 0.679452 -2.708490
N -0.965811 0.392232 -1.799984
O -1.579099 -2.252599 -1.213332
H -0.815603 -2.042412 -0.672041
H -1.818350 -3.162393 -1.025948
5
Structure 1704 | Energy: -10.836079 Hartree
N -1.511898 0.679452 -2.708490
N -0.965811 0.392232 -1.799984
O -1.493119 2.214994 0.213646
H -0.709310 1.742748 0.501274
H -1.710956 2.848514 0.900143
5
Structure 1705 | Energy: -10.836121 Hartree
N -1.511898 0.679452 -2.708490
N -0.965811 0.392232 -1.799984
O -1.493117 2.214991 0.213646
H -1.453793 3.028117 0.720975
H -0.966499 1.563190 0.680450
5
Structure 1706 | Energy: -10.835844 Hartree
N -1.451220 0.942522 -2.555956
N -1.026489 0.129161 -1.952518
O -1.493117 2.214991 0.213646
H -1.453793 3.028117 0.720975
H -0.966499 1.563190 0.680450
5
Structure 1707 | Energy: -10.835720 Hartree
N -1.911247 1.158050 -2.426663
N -1.486516 0.344690 -1.823225
O -1.493117 2.214991 0.213646
H -1.453793 3.028117 0.720975
H -0.966499 1.563190 0.680450
5
Structure 1708 | Energy: -10.835460 Hartree
N -1.911247 1.158050 -2.426663
N -1.486516 0.344690 -1.823225
O -1.498770 2.179931 0.156671
H -1.459446 2.993056 0.664000
H -0.972151 1.528129 0.623475
5
Structure 1709 | Energy: -10.835337 Hartree
N -1.909261 1.170371 -2.406642
N -1.484530 0.357010 -1.803205
O -1.498770 2.179931 0.156671
H -1.459446 2.993056 0.664000
H -0.972151 1.528129 0.623475
5
Structure 1710 | Energy: -10.835527 Hartree
N -1.909261 1.170371 -2.406642
N -1.484530 0.357010 -1.803205
O -1.495555 2.199871 0.189075
H -1.456231 3.012996 0.696404
H -0.968936 1.548069 0.655878
5
Structure 1711 | Energy: -10.835987 Hartree
N -1.909261 1.170371 -2.406642
N -1.484530 0.357010 -1.803205
O -1.712265 2.187950 0.532941
H -1.672940 3.001076 1.040270
H -1.185646 1.536149 0.999745
5
Structure 1712 | Energy: -10.835982 Hartree
N -1.909405 1.157663 -2.430512
N -1.484675 0.344303 -1.827075
O -1.712265 2.187950 0.532941
H -1.672940 3.001076 1.040270
H -1.185646 1.536149 0.999745
5
Structure 1713 | Energy: -10.835816 Hartree
N -1.909405 1.157663 -2.430512
N -1.484675 0.344303 -1.827075
O -1.673476 2.157031 0.538368
H -2.457915 2.257362 1.081223
H -1.016323 2.770609 0.872658
5
Structure 1714 | Energy: -10.835974 Hartree
N -1.206930 0.902694 -2.324492
N -2.187150 0.599272 -1.933095
O -1.673476 2.157031 0.538368
H -2.457915 2.257362 1.081223
H -1.016323 2.770609 0.872658
5
Structure 1715 | Energy: -10.835318 Hartree
N -1.206930 0.902694 -2.324492
N -2.187150 0.599272 -1.933095
O -2.822339 2.057535 0.268624
H -3.606778 2.157866 0.811479
H -2.165186 2.671113 0.602915
5
Structure 1716 | Energy: -10.835889 Hartree
N -1.206930 0.902694 -2.324492
N -2.187150 0.599272 -1.933095
O -2.785649 2.080375 0.274772
H -2.616881 2.443858 1.146265
H -3.737424 2.022601 0.170542
5
Structure 1717 | Energy: -10.836086 Hartree
N -1.206930 0.902694 -2.324492
N -2.187150 0.599272 -1.933095
O -2.793466 2.115781 0.268463
H -2.554847 2.162878 1.196334
H -3.675387 1.741611 0.220613
5
Structure 1718 | Energy: -10.836091 Hartree
N -1.254375 0.959108 -2.221992
N -2.234595 0.655686 -1.830595
O -2.793466 2.115781 0.268463
H -2.554847 2.162878 1.196334
H -3.675387 1.741611 0.220613
5
Structure 1719 | Energy: -10.835621 Hartree
N -1.254375 0.959108 -2.221992
N -2.234595 0.655686 -1.830595
O -2.777388 2.071684 0.291662
H -3.163146 1.842030 1.139337
H -3.322275 2.762370 -0.090607
5
Structure 1720 | Energy: -10.835565 Hartree
N -1.254375 0.959108 -2.221992
N -2.234595 0.655686 -1.830595
O -2.758209 2.048880 0.250228
H -3.143967 1.819225 1.097902
H -3.303096 2.739565 -0.132041
5
Structure 1721 | Energy: -10.835924 Hartree
N -1.302132 -0.221510 -1.259850
N -2.129209 -0.302423 -0.541878
O -2.758209 2.048880 0.250228
H -3.143967 1.819225 1.097902
H -3.303096 2.739565 -0.132041
5
Structure 1722 | Energy: -10.835611 Hartree
N -1.354060 -0.284847 -1.313461
N -2.077281 -0.239087 -0.488267
O -2.758209 2.048880 0.250228
H -3.143967 1.819225 1.097902
H -3.303096 2.739565 -0.132041
5
Structure 1723 | Energy: -10.835611 Hartree
N 0.367162 1.822555 0.040774
N -0.344551 1.882406 0.875023
O -2.758209 2.048880 0.250228
H -3.143967 1.819225 1.097902
H -3.303096 2.739565 -0.132041
5
Structure 1724 | Energy: -10.835617 Hartree
N 0.365514 1.784894 0.062920
N -0.349423 1.873351 0.891853
O -2.758209 2.048880 0.250228
H -3.143967 1.819225 1.097902
H -3.303096 2.739565 -0.132041
5
Structure 1725 | Energy: -10.835640 Hartree
N 0.898158 1.497855 0.641301
N 0.183220 1.586311 1.470233
O -2.758209 2.048880 0.250228
H -3.143967 1.819225 1.097902
H -3.303096 2.739565 -0.132041
5
Structure 1726 | Energy: -10.835719 Hartree
N 0.826438 1.509254 0.624617
N 0.111501 1.597710 1.453550
O -2.758209 2.048880 0.250228
H -3.143967 1.819225 1.097902
H -3.303096 2.739565 -0.132041
5
Structure 1727 | Energy: -10.835719 Hartree
N 0.826438 1.509254 0.624617
N 0.111501 1.597710 1.453550
O -2.758209 0.902775 0.372530
H -3.143967 1.306135 1.152655
H -3.303096 0.146976 0.144618
5
Structure 1728 | Energy: -10.834963 Hartree
N 0.826438 1.509254 0.624617
N 0.111501 1.597710 1.453550
O -2.814070 0.836373 0.360282
H -2.145447 1.523096 0.398463
H -3.414994 0.983949 1.093214
5
Structure 1729 | Energy: -10.834905 Hartree
N 0.826438 1.509254 0.624617
N 0.111501 1.597710 1.453550
O -2.720729 0.855457 0.378376
H -2.052106 1.542179 0.416556
H -3.321653 1.003032 1.111308
5
Structure 1730 | Energy: -10.834905 Hartree
N 0.826438 1.509254 0.624617
N 0.111501 1.597710 1.453550
O 1.677611 1.255706 4.129143
H 1.466170 1.862343 3.416832
H 1.033440 1.399346 4.825196
5
Structure 1731 | Energy: -10.834905 Hartree
N 0.826438 1.509254 0.624617
N 0.111501 1.597710 1.453550
O -2.720729 0.855457 0.378376
H -2.052106 1.542179 0.416556
H -3.321653 1.003032 1.111308
5
Structure 1732 | Energy: -10.835539 Hartree
N 0.826438 1.509254 0.624617
N 0.111501 1.597710 1.453550
O 0.495644 3.951389 -1.273335
H 0.614602 3.015041 -1.102441
H 1.362363 4.318940 -1.457137
5
Structure 1733 | Energy: -10.835539 Hartree
N 0.825856 1.492421 0.641073
N 0.110919 1.580878 1.470005
O 0.495644 3.951389 -1.273335
H 0.614602 3.015041 -1.102441
H 1.362363 4.318940 -1.457137
5
Structure 1734 | Energy: -10.835539 Hartree
N 0.825856 1.492421 0.641073
N 0.110919 1.580878 1.470005
O -1.487531 -1.100541 1.744720
H -1.009513 -0.352866 2.108838
H -2.422932 -0.897951 1.808444
5
Structure 1735 | Energy: -10.835539 Hartree
N 0.825856 1.492421 0.641073
N 0.110919 1.580878 1.470005
O 0.365763 -0.931891 3.325151
H -0.143333 -0.274043 2.847490
H 0.424456 -0.638838 4.236608
5
Structure 1736 | Energy: -10.835077 Hartree
N 0.825856 1.492421 0.641073
N 0.110919 1.580878 1.470005
O 0.373758 -0.932784 3.354563
H -0.032163 -0.587818 2.556861
H 0.186387 -0.310890 4.060409
5
Structure 1737 | Energy: -10.834991 Hartree
N 0.821607 1.412135 0.717323
N 0.106670 1.500591 1.546255
O 0.373758 -0.932784 3.354563
H -0.032163 -0.587818 2.556861
H 0.186387 -0.310890 4.060409
5
Structure 1738 | Energy: -10.834864 Hartree
N 2.810647 -1.829363 1.025182
N 2.492901 -2.388199 1.915590
O 0.373758 -0.932784 3.354563
H -0.032163 -0.587818 2.556861
H 0.186387 -0.310890 4.060409
5
Structure 1739 | Energy: -10.835414 Hartree
N 2.810647 -1.829363 1.025182
N 2.492901 -2.388199 1.915590
O 0.344055 -0.816245 3.337418
H 0.203556 -1.512659 2.692925
H 0.422116 -1.235767 4.196478
5
Structure 1740 | Energy: -10.834588 Hartree
N 2.810647 -1.829363 1.025182
N 2.492901 -2.388199 1.915590
O 0.373003 -0.932234 3.361053
H 0.383578 -0.426043 2.546338
H -0.217367 -0.481402 3.967925
5
Structure 1741 | Energy: -10.834462 Hartree
N 0.499434 -0.599267 2.904219
N 0.181688 -1.158103 3.794628
O 2.684215 -2.162330 1.482015
H 2.694791 -1.656139 0.667300
H 2.093846 -1.711498 2.088887
5
Structure 1742 | Energy: -10.833214 Hartree
N 0.147983 -0.529091 2.972303
N 0.533139 -1.228279 3.726544
O 2.684215 -2.162330 1.482015
H 2.694791 -1.656139 0.667300
H 2.093846 -1.711498 2.088887
5
Structure 1743 | Energy: -10.835680 Hartree
N 0.147983 -0.529091 2.972303
N 0.533139 -1.228279 3.726544
O 2.658759 -2.063641 1.514757
H 2.784761 -3.006593 1.637512
H 2.407925 -1.927425 0.599003
5
Structure 1744 | Energy: -10.835708 Hartree
N 0.411327 -0.354539 3.201825
N 0.269795 -1.402831 3.497022
O 2.658759 -2.063641 1.514757
H 2.784761 -3.006593 1.637512
H 2.407925 -1.927425 0.599003
5
Structure 1745 | Energy: -10.835565 Hartree
N 0.411327 -0.354539 3.201825
N 0.269795 -1.402831 3.497022
O 0.487770 -2.018742 0.379110
H -0.347712 -1.950523 -0.087172
H 1.127533 -1.494011 -0.106110
5
Structure 1746 | Energy: -10.835546 Hartree
N 0.411327 -0.354539 3.201825
N 0.269795 -1.402831 3.497022
O 0.489450 -2.032385 0.341844
H -0.346032 -1.964166 -0.124438
H 1.129213 -1.507654 -0.143376
5
Structure 1747 | Energy: -10.835671 Hartree
N 0.411327 -0.354539 3.201825
N 0.269795 -1.402831 3.497022
O -1.584596 0.624833 1.244208
H -2.444009 0.838311 1.612907
H -1.165802 1.453058 1.001857
5
Structure 1748 | Energy: -10.835647 Hartree
N 0.425290 -0.365723 3.216850
N 0.283757 -1.414015 3.512046
O -1.584596 0.624833 1.244208
H -2.444009 0.838311 1.612907
H -1.165802 1.453058 1.001857
5
Structure 1749 | Energy: -10.835500 Hartree
N 0.755577 0.070458 3.577922
N 0.614044 -0.977834 3.873119
O -1.584596 0.624833 1.244208
H -2.444009 0.838311 1.612907
H -1.165802 1.453058 1.001857
5
Structure 1750 | Energy: -10.835331 Hartree
N -0.228172 -2.379453 1.558364
N -0.854846 -3.047490 0.952480
O -1.584596 0.624833 1.244208
H -2.444009 0.838311 1.612907
H -1.165802 1.453058 1.001857
5
Structure 1751 | Energy: -10.835427 Hartree
N -0.425563 -2.493753 1.745118
N -0.657455 -2.933189 0.765725
O -1.584596 0.624833 1.244208
H -2.444009 0.838311 1.612907
H -1.165802 1.453058 1.001857
5
Structure 1752 | Energy: -10.835082 Hartree
N -0.526707 -2.905718 1.467754
N -0.758599 -3.345155 0.488362
O -1.584596 0.624833 1.244208
H -2.444009 0.838311 1.612907
H -1.165802 1.453058 1.001857
5
Structure 1753 | Energy: -10.835065 Hartree
N -0.526707 -2.905718 1.467754
N -0.758599 -3.345155 0.488362
O -1.592168 0.654670 1.246349
H -2.451581 0.868148 1.615048
H -1.173375 1.482895 1.003998
5
Structure 1754 | Energy: -10.835065 Hartree
N -0.526707 -2.905718 1.467754
N -0.758599 -3.345155 0.488362
O -2.866677 -0.036454 1.858211
H -2.518299 0.831969 1.647077
H -3.739116 0.091578 2.235751
5
Structure 1755 | Energy: -10.835065 Hartree
N -0.863130 -2.955652 0.707264
N -0.276020 -3.273528 1.579241
O -2.866677 -0.036454 1.858211
H -2.518299 0.831969 1.647077
H -3.739116 0.091578 2.235751
5
Structure 1756 | Energy: -10.835756 Hartree
N -0.863130 -2.955652 0.707264
N -0.276020 -3.273528 1.579241
O -1.942743 -0.489626 2.428429
H -1.594365 0.378796 2.217295
H -2.815182 -0.361594 2.805969
5
Structure 1757 | Energy: -10.834527 Hartree
N 1.013114 0.859329 2.437743
N 0.973529 0.907207 1.341281
O -1.942743 -0.489626 2.428429
H -1.594365 0.378796 2.217295
H -2.815182 -0.361594 2.805969
5
Structure 1758 | Energy: -10.835152 Hartree
N 1.244934 -0.627780 2.881554
N 1.391129 -0.144874 1.906097
O -1.942743 -0.489626 2.428429
H -1.594365 0.378796 2.217295
H -2.815182 -0.361594 2.805969
5
Structure 1759 | Energy: -10.835244 Hartree
N 1.244934 -0.627780 2.881554
N 1.391129 -0.144874 1.906097
O 1.793741 -2.997041 0.495829
H 0.965059 -2.547371 0.319234
H 1.683787 -3.911197 0.226928
5
Structure 1760 | Energy: -10.835287 Hartree
N 1.244934 -0.627780 2.881554
N 1.391129 -0.144874 1.906097
O 2.467997 -1.749616 -0.338123
H 1.585834 -1.386750 -0.439206
H 2.565467 -2.445433 -0.991129
5
Structure 1761 | Energy: -10.835366 Hartree
N 1.804746 -0.499119 2.621662
N 0.831317 -0.273535 2.165989
O 2.467997 -1.749616 -0.338123
H 1.585834 -1.386750 -0.439206
H 2.565467 -2.445433 -0.991129
5
Structure 1762 | Energy: -10.835302 Hartree
N 1.620393 -0.533366 2.592104
N 0.649855 -0.375445 2.103018
O 2.467997 -1.749616 -0.338123
H 1.585834 -1.386750 -0.439206
H 2.565467 -2.445433 -0.991129
5
Structure 1763 | Energy: -10.833703 Hartree
N -0.383044 -0.076089 0.132266
N -0.741047 -1.056439 0.474079
O 2.467997 -1.749616 -0.338123
H 1.585834 -1.386750 -0.439206
H 2.565467 -2.445433 -0.991129
5
Structure 1764 | Energy: -10.833718 Hartree
N -0.383044 -0.076089 0.132266
N -0.741047 -1.056439 0.474079
O 2.586461 -1.601522 0.214340
H 1.731930 -1.244795 -0.035912
H 2.856640 -2.205371 -0.480245
5
Structure 1765 | Energy: -10.833718 Hartree
N -0.236860 0.166209 -0.021518
N 0.370336 0.785661 -0.695077
O 2.586461 -1.601522 0.214340
H 1.731930 -1.244795 -0.035912
H 2.856640 -2.205371 -0.480245
5
Structure 1766 | Energy: -10.833816 Hartree
N -0.236860 0.166209 -0.021518
N 0.370336 0.785661 -0.695077
O 2.610950 -1.622114 0.219458
H 1.756419 -1.265387 -0.030794
H 2.881129 -2.225963 -0.475127
5
Structure 1767 | Energy: -10.833676 Hartree
N -0.202730 0.137511 -0.014385
N 0.404465 0.756962 -0.687944
O 2.610950 -1.622114 0.219458
H 1.756419 -1.265387 -0.030794
H 2.881129 -2.225963 -0.475127
5
Structure 1768 | Energy: -10.833676 Hartree
N -0.202730 0.137511 -0.014385
N 0.404465 0.756962 -0.687944
O 2.754028 -1.476148 0.060742
H 2.029720 -0.986570 -0.333965
H 2.764592 -2.344852 -0.345853
5
Structure 1769 | Energy: -10.834535 Hartree
N -0.202730 0.137511 -0.014385
N 0.404465 0.756962 -0.687944
O 2.452419 -2.360901 -0.636873
H 1.728111 -1.871323 -1.031580
H 2.462983 -3.229605 -1.043468
5
Structure 1770 | Energy: -10.834679 Hartree
N 2.108884 -2.691840 -0.344929
N 2.716080 -2.072388 -1.018488
O 0.140804 0.468450 -0.306329
H -0.583504 0.958028 -0.701037
H 0.151368 -0.400254 -0.712924
5
Structure 1771 | Energy: -10.835023 Hartree
N 2.108884 -2.691840 -0.344929
N 2.716080 -2.072388 -1.018488
O -0.506553 -0.334178 -0.669153
H -1.230861 0.155400 -1.063860
H -0.495989 -1.202882 -1.075748
5
Structure 1772 | Energy: -10.835479 Hartree
N 2.701658 1.092078 -0.689985
N 2.657730 1.114724 0.407123
O -0.506553 -0.334178 -0.669153
H -1.230861 0.155400 -1.063860
H -0.495989 -1.202882 -1.075748
5
Structure 1773 | Energy: -10.835510 Hartree
N 2.759098 0.745606 -0.550332
N 2.600290 1.461196 0.267470
O -0.506553 -0.334178 -0.669153
H -1.230861 0.155400 -1.063860
H -0.495989 -1.202882 -1.075748
5
Structure 1774 | Energy: -10.835484 Hartree
N 2.785518 0.757552 -0.545643
N 2.626710 1.473142 0.272158
O -0.506553 -0.334178 -0.669153
H -1.230861 0.155400 -1.063860
H -0.495989 -1.202882 -1.075748
5
Structure 1775 | Energy: -10.835348 Hartree
N 0.278028 0.750767 2.521107
N 0.037780 -0.192325 3.029974
O -0.506553 -0.334178 -0.669153
H -1.230861 0.155400 -1.063860
H -0.495989 -1.202882 -1.075748
5
Structure 1776 | Energy: -10.835593 Hartree
N 0.424486 0.273362 1.915532
N 0.184239 -0.669731 2.424399
O -0.506553 -0.334178 -0.669153
H -1.230861 0.155400 -1.063860
H -0.495989 -1.202882 -1.075748
5
Structure 1777 | Energy: -10.835309 Hartree
N 1.234271 0.079225 2.177568
N 0.994023 -0.863867 2.686435
O -0.506553 -0.334178 -0.669153
H -1.230861 0.155400 -1.063860
H -0.495989 -1.202882 -1.075748
5
Structure 1778 | Energy: -10.835112 Hartree
N 1.234271 0.079225 2.177568
N 0.994023 -0.863867 2.686435
O -0.521117 -0.312107 -0.674773
H -0.664802 -0.210758 -1.617739
H -0.830896 -1.187034 -0.432663
5
Structure 1779 | Energy: -10.835196 Hartree
N 1.518643 1.286096 -2.896153
N 1.335263 2.321983 -2.580879
O -0.521117 -0.312107 -0.674773
H -0.664802 -0.210758 -1.617739
H -0.830896 -1.187034 -0.432663
5
Structure 1780 | Energy: -10.835222 Hartree
N 1.488466 1.253074 -2.865195
N 1.305086 2.288962 -2.549921
O -0.521117 -0.312107 -0.674773
H -0.664802 -0.210758 -1.617739
H -0.830896 -1.187034 -0.432663
5
Structure 1781 | Energy: -10.834115 Hartree
N -0.454800 -0.873335 -0.871626
N -0.638180 0.162552 -0.556351
O 1.422149 1.814302 -2.668343
H 1.278464 1.915652 -3.611309
H 1.112369 0.939375 -2.426233
5
Structure 1782 | Energy: -10.834090 Hartree
N -0.442237 -0.859589 -0.884513
N -0.625617 0.176298 -0.569239
O 1.422149 1.814302 -2.668343
H 1.278464 1.915652 -3.611309
H 1.112369 0.939375 -2.426233
5
Structure 1783 | Energy: -10.834090 Hartree
N -0.442237 -0.859589 -0.884513
N -0.625617 0.176298 -0.569239
O -3.412668 0.851825 -2.318141
H -3.450680 0.974211 -3.268761
H -2.762544 0.167988 -2.145560
5
Structure 1784 | Energy: -10.834742 Hartree
N -0.442237 -0.859589 -0.884513
N -0.625617 0.176298 -0.569239
O -3.412667 0.851827 -2.318142
H -3.552222 -0.051758 -2.608248
H -2.661005 1.193921 -2.806050
5
Structure 1785 | Energy: -10.834860 Hartree
N -0.333819 -0.378147 -0.669280
N -0.517199 0.657740 -0.354006
O -3.412667 0.851827 -2.318142
H -3.552222 -0.051758 -2.608248
H -2.661005 1.193921 -2.806050
5
Structure 1786 | Energy: -10.834860 Hartree
N -0.995636 -1.303204 -0.522400
N -1.974605 -1.379356 -0.030558
O -3.412667 0.851827 -2.318142
H -3.552222 -0.051758 -2.608248
H -2.661005 1.193921 -2.806050
5
Structure 1787 | Energy: -10.834941 Hartree
N -0.995636 -1.303204 -0.522400
N -1.974605 -1.379356 -0.030558
O -3.179453 -2.410438 -3.222609
H -3.029680 -3.167965 -2.653553
H -2.413334 -2.328476 -3.793942
5
Structure 1788 | Energy: -10.834976 Hartree
N -1.051505 -1.340844 -0.622581
N -2.030474 -1.416995 -0.130738
O -3.179453 -2.410438 -3.222609
H -3.029680 -3.167965 -2.653553
H -2.413334 -2.328476 -3.793942
5
Structure 1789 | Energy: -10.835133 Hartree
N -1.051505 -1.340844 -0.622581
N -2.030474 -1.416995 -0.130738
O -2.368880 -2.651615 -3.465813
H -2.246448 -3.376239 -2.849345
H -1.514919 -2.468883 -3.862597
5
Structure 1790 | Energy: -10.834840 Hartree
N -1.671544 -1.520642 0.137531
N -1.410434 -1.237197 -0.890850
O -2.368880 -2.651615 -3.465813
H -2.246448 -3.376239 -2.849345
H -1.514919 -2.468883 -3.862597
5
Structure 1791 | Energy: -10.835368 Hartree
N -1.929076 -1.323795 0.007882
N -1.152903 -1.434044 -0.761201
O -2.368880 -2.651615 -3.465813
H -2.246448 -3.376239 -2.849345
H -1.514919 -2.468883 -3.862597
5
Structure 1792 | Energy: -10.835653 Hartree
N -2.517444 -1.654146 0.134874
N -1.764997 -2.299365 -0.337995
O -2.368880 -2.651615 -3.465813
H -2.246448 -3.376239 -2.849345
H -1.514919 -2.468883 -3.862597
5
Structure 1793 | Energy: -10.835463 Hartree
N -2.335174 -2.391108 -0.405232
N -1.947267 -1.562403 0.202110
O -2.368880 -2.651615 -3.465813
H -2.246448 -3.376239 -2.849345
H -1.514919 -2.468883 -3.862597
5
Structure 1794 | Energy: -10.835182 Hartree
N -2.335174 -2.391108 -0.405232
N -1.947267 -1.562403 0.202110
O -0.425100 -1.695224 -3.068230
H -1.344576 -1.424548 -3.030787
H -0.400558 -2.561625 -3.479113
5
Structure 1795 | Energy: -10.835598 Hartree
N -2.335174 -2.391108 -0.405232
N -1.947267 -1.562403 0.202110
O -0.475785 -1.671061 -3.061757
H -1.239377 -2.161757 -3.371994
H 0.298714 -2.207929 -3.240648
5
Structure 1796 | Energy: -10.835598 Hartree
N -2.335174 -2.391108 -0.405232
N -1.947267 -1.562403 0.202110
O -4.696934 0.280953 -0.070454
H -4.244367 0.559303 0.728173
H -4.693157 1.026722 -0.673688
5
Structure 1797 | Energy: -10.836047 Hartree
N -2.802848 -1.864812 -1.360014
N -2.414940 -1.036107 -0.752672
O -4.696934 0.280953 -0.070454
H -4.244367 0.559303 0.728173
H -4.693157 1.026722 -0.673688
5
Structure 1798 | Energy: -10.836049 Hartree
N -2.787554 -1.878075 -1.367405
N -2.399647 -1.049370 -0.760063
O -4.696934 0.280953 -0.070454
H -4.244367 0.559303 0.728173
H -4.693157 1.026722 -0.673688
5
Structure 1799 | Energy: -10.836096 Hartree
N -4.019143 -2.715169 -0.709690
N -3.369379 -2.086857 -0.085895
O -4.696934 0.280953 -0.070454
H -4.244367 0.559303 0.728173
H -4.693157 1.026722 -0.673688
5
Structure 1800 | Energy: -10.836097 Hartree
N -4.008945 -2.743756 -0.713221
N -3.359181 -2.115445 -0.089425
O -4.696934 0.280953 -0.070454
H -4.244367 0.559303 0.728173
H -4.693157 1.026722 -0.673688
5
Structure 1801 | Energy: -10.834161 Hartree
N -4.008945 -2.743756 -0.713221
N -3.359181 -2.115445 -0.089425
O -4.401212 -0.096334 0.055935
H -3.948645 0.182017 0.854563
H -4.397435 0.649436 -0.547299
5
Structure 1802 | Energy: -10.833528 Hartree
N -4.008945 -2.743756 -0.713221
N -3.359181 -2.115445 -0.089425
O -4.369852 -0.098604 0.045139
H -4.197508 0.200038 0.940243
H -4.646308 0.667458 -0.461615
5
Structure 1803 | Energy: -10.832925 Hartree
N -4.008945 -2.743756 -0.713221
N -3.359181 -2.115445 -0.089425
O -4.360606 -0.130565 0.038879
H -4.188262 0.168077 0.933984
H -4.637061 0.635497 -0.467875
5
Structure 1804 | Energy: -10.833462 Hartree
N -4.000812 -2.771869 -0.718727
N -3.351048 -2.143558 -0.094931
O -4.360606 -0.130565 0.038879
H -4.188262 0.168077 0.933984
H -4.637061 0.635497 -0.467875
5
Structure 1805 | Energy: -10.833517 Hartree
N -4.000812 -2.771869 -0.718727
N -3.351048 -2.143558 -0.094931
O -4.360606 -0.130565 0.038879
H -4.028138 0.205838 0.873385
H -4.797179 0.597738 -0.407278
5
Structure 1806 | Energy: -10.833517 Hartree
N -3.994707 -2.770129 -0.721860
N -4.101467 -2.357427 0.290250
O -4.360606 -0.130565 0.038879
H -4.028138 0.205838 0.873385
H -4.797179 0.597738 -0.407278
5
Structure 1807 | Energy: -10.832703 Hartree
N -3.994707 -2.770129 -0.721860
N -4.101467 -2.357427 0.290250
O -4.378065 -0.114782 0.105354
H -4.908292 0.055584 -0.675631
H -3.639916 0.497480 0.086643
5
Structure 1808 | Energy: -10.835361 Hartree
N -3.994707 -2.770129 -0.721860
N -4.101467 -2.357427 0.290250
O -4.244748 0.642619 -0.406944
H -4.774975 0.812985 -1.187929
H -3.506600 1.254881 -0.425656
5
Structure 1809 | Energy: -10.835361 Hartree
N -3.994707 -2.770129 -0.721860
N -4.101467 -2.357427 0.290250
O -4.041011 -0.144968 -2.338422
H -4.688705 0.479492 -2.005789
H -3.275433 0.361259 -2.617174
5
Structure 1810 | Energy: -10.835413 Hartree
N -3.994707 -2.770129 -0.721860
N -4.101467 -2.357427 0.290250
O -4.041491 -0.232106 -2.264010
H -4.689185 0.392354 -1.931376
H -3.275913 0.274121 -2.542761
5
Structure 1811 | Energy: -10.835246 Hartree
N -1.267154 -1.375470 -2.116391
N -1.206526 -1.503632 -1.027361
O -4.041491 -0.232106 -2.264010
H -4.689185 0.392354 -1.931376
H -3.275913 0.274121 -2.542761
5
Structure 1812 | Energy: -10.834690 Hartree
N -4.481536 -1.084979 0.584784
N -4.780390 -0.120623 1.016978
O -4.041491 -0.232106 -2.264010
H -4.689185 0.392354 -1.931376
H -3.275913 0.274121 -2.542761
5
Structure 1813 | Energy: -10.834658 Hartree
N -4.338726 -0.520379 1.258403
N -4.923200 -0.685224 0.343360
O -4.041491 -0.232106 -2.264010
H -4.689185 0.392354 -1.931376
H -3.275913 0.274121 -2.542761
5
Structure 1814 | Energy: -10.834658 Hartree
N -1.329179 -0.772197 -0.043539
N -1.620841 -0.961543 -1.085253
O -4.041491 -0.232106 -2.264010
H -4.689185 0.392354 -1.931376
H -3.275913 0.274121 -2.542761
5
Structure 1815 | Energy: -10.834580 Hartree
N -1.001877 -0.226821 -0.417224
N -1.396184 -0.528054 -1.396953
O -4.041491 -0.232106 -2.264010
H -4.689185 0.392354 -1.931376
H -3.275913 0.274121 -2.542761
5
Structure 1816 | Energy: -10.834425 Hartree
N -1.049604 -0.223310 -0.440010
N -1.443911 -0.524543 -1.419739
O -4.041491 -0.232106 -2.264010
H -4.689185 0.392354 -1.931376
H -3.275913 0.274121 -2.542761
5
Structure 1817 | Energy: -10.834425 Hartree
N -1.049604 -0.223310 -0.440010
N -1.443911 -0.524543 -1.419739
O -0.784106 -1.854231 1.754380
H -1.267612 -2.663039 1.933695
H -1.432088 -1.160485 1.616853
5
Structure 1818 | Energy: -10.834425 Hartree
N -0.995334 0.529687 3.102734
N -1.358875 0.655329 4.131393
O -0.784106 -1.854231 1.754380
H -1.267612 -2.663039 1.933695
H -1.432088 -1.160485 1.616853
5
Structure 1819 | Energy: -10.835193 Hartree
N -0.995334 0.529687 3.102734
N -1.358875 0.655329 4.131393
O 0.364866 -2.096573 3.575341
H -0.065594 -2.889505 3.901018
H -0.168358 -1.760453 2.852310
5
Structure 1820 | Energy: -10.835787 Hartree
N -0.995334 0.529687 3.102734
N -1.358875 0.655329 4.131393
O 0.775962 2.001260 1.664753
H 1.661392 1.650021 1.551850
H 0.161485 1.307297 1.417951
5
Structure 1821 | Energy: -10.835572 Hartree
N -0.995334 0.529687 3.102734
N -1.358875 0.655329 4.131393
O 0.922943 2.769421 2.937785
H 1.790611 2.727675 3.344615
H 0.800387 1.955117 2.445882
5
Structure 1822 | Energy: -10.835484 Hartree
N 0.595085 0.153559 4.327090
N -0.275337 0.382288 4.956485
O 0.922943 2.769421 2.937785
H 1.790611 2.727675 3.344615
H 0.800387 1.955117 2.445882
5
Structure 1823 | Energy: -10.835036 Hartree
N 1.399845 2.607157 2.618327
N 0.529424 2.835886 3.247722
O 0.118182 0.315822 4.646547
H 0.985851 0.274076 5.053378
H -0.004373 -0.498481 4.154645
5
Structure 1824 | Energy: -10.835031 Hartree
N 1.399845 2.607157 2.618327
N 0.529424 2.835886 3.247722
O 0.127169 0.343220 4.627467
H 0.994837 0.301474 5.034297
H 0.004613 -0.471083 4.135564
5
Structure 1825 | Energy: -10.834749 Hartree
N 2.303740 2.360239 3.188884
N 1.234231 2.608598 3.212460
O 0.127169 0.343220 4.627467
H 0.994837 0.301474 5.034297
H 0.004613 -0.471083 4.135564
5
Structure 1826 | Energy: -10.835318 Hartree
N -1.303748 2.140137 2.319334
N -1.707938 2.114030 3.340137
O 0.127169 0.343220 4.627467
H 0.994837 0.301474 5.034297
H 0.004613 -0.471083 4.135564
5
Structure 1827 | Energy: -10.835458 Hartree
N 0.618652 3.534243 4.193149
N -0.307077 3.059160 3.841851
O 0.127169 0.343220 4.627467
H 0.994837 0.301474 5.034297
H 0.004613 -0.471083 4.135564
5
Structure 1828 | Energy: -10.835131 Hartree
N 1.167091 3.433604 4.443364
N 0.099129 3.204975 4.558581
O 0.127169 0.343220 4.627467
H 0.994837 0.301474 5.034297
H 0.004613 -0.471083 4.135564
5
Structure 1829 | Energy: -10.834970 Hartree
N 1.167091 3.433604 4.443364
N 0.099129 3.204975 4.558581
O 2.815136 3.733156 2.452451
H 3.410968 3.512506 3.171062
H 3.273885 4.354607 1.883745
5
Structure 1830 | Energy: -10.836077 Hartree
N 0.156788 3.287105 4.229672
N 1.109431 3.351474 4.772273
O 2.815136 3.733156 2.452451
H 3.410968 3.512506 3.171062
H 3.273885 4.354607 1.883745
5
Structure 1831 | Energy: -10.834612 Hartree
N 0.210158 3.593240 4.719112
N 1.056061 3.045339 4.282832
O 2.815136 3.733156 2.452451
H 3.410968 3.512506 3.171062
H 3.273885 4.354607 1.883745
5
Structure 1832 | Energy: -10.834669 Hartree
N 0.189553 3.589229 4.737870
N 1.035456 3.041327 4.301590
O 2.815136 3.733156 2.452451
H 3.410968 3.512506 3.171062
H 3.273885 4.354607 1.883745
5
Structure 1833 | Energy: -10.834603 Hartree
N 0.189553 3.589229 4.737870
N 1.035456 3.041327 4.301590
O 2.791725 3.728598 2.473764
H 3.387556 3.507948 3.192375
H 3.250474 4.350049 1.905058
5
Structure 1834 | Energy: -10.834380 Hartree
N 0.189553 3.589229 4.737870
N 1.035456 3.041327 4.301590
O 2.801940 3.714594 2.463516
H 3.306492 3.619081 3.273705
H 3.169406 4.461186 1.986392
5
Structure 1835 | Energy: -10.834263 Hartree
N 0.189553 3.589229 4.737870
N 1.035456 3.041327 4.301590
O 2.838570 3.766069 2.542822
H 3.552246 3.208444 2.226874
H 2.342255 4.054824 1.774467
5
Structure 1836 | Energy: -10.833710 Hartree
N 0.069912 3.381264 4.572273
N 1.155098 3.249292 4.467187
O 2.838570 3.766069 2.542822
H 3.552246 3.208444 2.226874
H 2.342255 4.054824 1.774467
5
Structure 1837 | Energy: -10.834540 Hartree
N 2.308139 3.817011 2.534695
N 3.393325 3.685038 2.429609
O 0.600343 3.330322 4.580400
H 1.314019 2.772697 4.264452
H 0.104028 3.619077 3.812045
5
Structure 1838 | Energy: -10.834640 Hartree
N 2.321629 3.819637 2.522415
N 3.406815 3.687664 2.417329
O 0.600343 3.330322 4.580400
H 1.314019 2.772697 4.264452
H 0.104028 3.619077 3.812045
5
Structure 1839 | Energy: -10.834640 Hartree
N 2.321629 3.819637 2.522415
N 3.406815 3.687664 2.417329
O 0.613860 3.417622 4.610349
H 1.478214 3.833163 4.628246
H 0.131562 3.796905 3.873048
5
Structure 1840 | Energy: -10.834701 Hartree
N 2.321629 3.819637 2.522415
N 3.406815 3.687664 2.417329
O 0.642403 3.387701 4.635117
H 1.493553 3.830009 4.638133
H 0.142736 3.738267 3.895174
5
Structure 1841 | Energy: -10.834170 Hartree
N 2.321629 3.819637 2.522415
N 3.406815 3.687664 2.417329
O 0.908160 5.776269 1.112844
H 1.864612 5.710658 1.144420
H 0.593143 5.772803 2.018840
5
Structure 1842 | Energy: -10.833635 Hartree
N 2.321629 3.819637 2.522415
N 3.406815 3.687664 2.417329
O 0.059401 4.799416 1.576539
H 0.946141 5.157636 1.502551
H -0.089363 4.598325 2.502557
5
Structure 1843 | Energy: -10.834145 Hartree
N -1.437639 2.723424 1.685846
N -2.084382 2.011611 1.155625
O 0.059401 4.799416 1.576539
H 0.946141 5.157636 1.502551
H -0.089363 4.598325 2.502557
5
Structure 1844 | Energy: -10.835349 Hartree
N -1.563550 1.911122 1.187852
N -1.958471 2.823912 1.653619
O 0.059401 4.799416 1.576539
H 0.946141 5.157636 1.502551
H -0.089363 4.598325 2.502557
5
Structure 1845 | Energy: -10.835322 Hartree
N -1.538798 1.943573 1.190557
N -1.933719 2.856363 1.656325
O 0.059401 4.799416 1.576539
H 0.946141 5.157636 1.502551
H -0.089363 4.598325 2.502557
5
Structure 1846 | Energy: -10.835234 Hartree
N 2.281995 2.469317 2.548137
N 1.327736 2.701087 3.039829
O 0.059401 4.799416 1.576539
H 0.946141 5.157636 1.502551
H -0.089363 4.598325 2.502557
5
Structure 1847 | Energy: -10.835513 Hartree
N 2.281995 2.469317 2.548137
N 1.327736 2.701087 3.039829
O -0.035764 4.690095 1.523916
H 0.753367 5.192457 1.736065
H -0.344124 4.288143 2.338426
5
Structure 1848 | Energy: -10.835501 Hartree
N 3.023026 2.528777 2.191613
N 2.068767 2.760546 2.683305
O -0.035764 4.690095 1.523916
H 0.753367 5.192457 1.736065
H -0.344124 4.288143 2.338426
5
Structure 1849 | Energy: -10.835632 Hartree
N 1.500263 2.567821 4.311743
N 0.568964 3.117891 4.121496
O -0.035764 4.690095 1.523916
H 0.753367 5.192457 1.736065
H -0.344124 4.288143 2.338426
5
Structure 1850 | Energy: -10.835632 Hartree
N 1.500263 2.567821 4.311743
N 0.568964 3.117891 4.121496
O 1.939273 -0.419694 3.628392
H 1.739580 -0.162817 2.726039
H 2.216080 0.371708 4.094374
5
Structure 1851 | Energy: -10.835632 Hartree
N 1.500263 2.567821 4.311743
N 0.568964 3.117891 4.121496
O -1.960514 1.883703 2.831740
H -1.389673 1.685466 2.086793
H -1.546441 2.594029 3.325763
5
Structure 1852 | Energy: -10.835624 Hartree
N 1.500263 2.567821 4.311743
N 0.568964 3.117891 4.121496
O -1.889404 1.906208 2.865575
H -1.318564 1.707972 2.120628
H -1.475332 2.616534 3.359598
5
Structure 1853 | Energy: -10.835554 Hartree
N 1.500263 2.567821 4.311743
N 0.568964 3.117891 4.121496
O -1.819170 1.928437 2.898994
H -1.248330 1.730201 2.154047
H -1.405098 2.638763 3.393017
5
Structure 1854 | Energy: -10.835554 Hartree
N -0.445757 5.232498 2.111449
N -0.462324 4.530028 2.955458
O -1.819170 1.928437 2.898994
H -1.248330 1.730201 2.154047
H -1.405098 2.638763 3.393017
5
Structure 1855 | Energy: -10.835329 Hartree
N -0.486285 5.142033 2.122324
N -0.502852 4.439563 2.966332
O -1.819170 1.928437 2.898994
H -1.248330 1.730201 2.154047
H -1.405098 2.638763 3.393017
5
Structure 1856 | Energy: -10.835297 Hartree
N -0.397592 5.109027 2.139141
N -0.433061 4.402395 2.979084
O -1.819170 1.928437 2.898994
H -1.248330 1.730201 2.154047
H -1.405098 2.638763 3.393017
5
Structure 1857 | Energy: -10.834011 Hartree
N -0.348870 4.488871 2.083821
N -0.481782 5.022551 3.034404
O -1.819170 1.928437 2.898994
H -1.248330 1.730201 2.154047
H -1.405098 2.638763 3.393017
5
Structure 1858 | Energy: -10.834011 Hartree
N -0.348870 4.488871 2.083821
N -0.481782 5.022551 3.034404
O 1.208740 2.109162 3.220899
H 0.834014 1.854488 2.375426
H 0.619743 2.759618 3.608283
5
Structure 1859 | Energy: -10.834012 Hartree
N -0.348870 4.488871 2.083821
N -0.481782 5.022551 3.034404
O -0.665856 1.711161 3.423824
H -0.547966 1.595384 2.478943
H -1.057173 2.576685 3.557306
5
Structure 1860 | Energy: -10.835051 Hartree
N -0.348870 4.488871 2.083821
N -0.481782 5.022551 3.034404
O -0.626240 1.728593 3.399359
H -1.437149 1.820688 3.903389
H -0.796777 2.074704 2.521178
5
Structure 1861 | Energy: -10.835213 Hartree
N -0.348870 4.488871 2.083821
N -0.481782 5.022551 3.034404
O -0.634476 1.779449 3.412813
H -0.613043 0.919359 2.988681
H -1.490149 2.168838 3.222342
5
Structure 1862 | Energy: -10.836173 Hartree
N -0.875712 4.458849 2.521166
N 0.045059 5.052573 2.597059
O -0.634476 1.779449 3.412813
H -0.613043 0.919359 2.988681
H -1.490149 2.168838 3.222342
5
Structure 1863 | Energy: -10.836173 Hartree
N 1.588939 0.947757 1.864545
N 2.474396 1.591789 1.949846
O -0.634476 1.779449 3.412813
H -0.613043 0.919359 2.988681
H -1.490149 2.168838 3.222342
5
Structure 1864 | Energy: -10.836173 Hartree
N 1.588939 0.947757 1.864545
N 2.474396 1.591789 1.949846
O 1.902033 -1.647784 2.958877
H 1.042007 -1.316881 2.692492
H 1.989587 -2.532847 2.599605
5
Structure 1865 | Energy: -10.835770 Hartree
N 1.588939 0.947757 1.864545
N 2.474396 1.591789 1.949846
O 2.828904 -1.863257 2.666204
H 1.968878 -1.532354 2.399819
H 2.916458 -2.748320 2.306932
5
Structure 1866 | Energy: -10.835801 Hartree
N 1.588939 0.947757 1.864545
N 2.474396 1.591789 1.949846
O 2.794695 -1.838618 2.660817
H 2.016133 -2.099869 2.165145
H 3.412165 -2.571880 2.627109
5
Structure 1867 | Energy: -10.835776 Hartree
N 1.588939 0.947757 1.864545
N 2.474396 1.591789 1.949846
O 2.800340 -1.862305 2.666237
H 2.021778 -2.123556 2.170565
H 3.417809 -2.595567 2.632529
5
Structure 1868 | Energy: -10.835991 Hartree
N 1.501750 0.602110 2.505313
N 2.387207 1.246142 2.590615
O 2.800340 -1.862305 2.666237
H 2.021778 -2.123556 2.170565
H 3.417809 -2.595567 2.632529
5
Structure 1869 | Energy: -10.835991 Hartree
N 1.501750 0.602110 2.505313
N 2.387207 1.246142 2.590615
O 2.800340 -1.735436 1.708371
H 2.021778 -2.116718 2.118940
H 3.417809 -2.452190 1.550024
5
Structure 1870 | Energy: -10.835936 Hartree
N 1.519559 0.544889 2.487954
N 2.405016 1.188922 2.573255
O 2.800340 -1.735436 1.708371
H 2.021778 -2.116718 2.118940
H 3.417809 -2.452190 1.550024
5
Structure 1871 | Energy: -10.835826 Hartree
N 1.519559 0.544889 2.487954
N 2.405016 1.188922 2.573255
O 2.782824 -1.679154 1.725445
H 2.004262 -2.060437 2.136014
H 3.400293 -2.395908 1.567099
5
Structure 1872 | Energy: -10.835559 Hartree
N 1.519559 0.544889 2.487954
N 2.405016 1.188922 2.573255
O 3.046389 -2.464423 2.128684
H 2.267826 -2.845705 2.539253
H 3.663858 -3.181177 1.970338
5
Structure 1873 | Energy: -10.835290 Hartree
N 1.519559 0.544889 2.487954
N 2.405016 1.188922 2.573255
O 3.059928 -2.532398 2.201989
H 2.160375 -2.306261 1.957513
H 3.556403 -2.641711 1.388575
5
Structure 1874 | Energy: -10.835290 Hartree
N 0.262273 -4.546405 2.404766
N 0.745592 -5.530806 2.463461
O 3.059928 -2.532398 2.201989
H 2.160375 -2.306261 1.957513
H 3.556403 -2.641711 1.388575
5
Structure 1875 | Energy: -10.835019 Hartree
N 0.286174 -5.220995 2.716717
N 0.769493 -6.205397 2.775412
O 3.059928 -2.532398 2.201989
H 2.160375 -2.306261 1.957513
H 3.556403 -2.641711 1.388575
5
Structure 1876 | Energy: -10.834964 Hartree
N -0.031934 -4.853585 3.176172
N 0.451385 -5.837986 3.234866
O 3.059928 -2.532398 2.201989
H 2.160375 -2.306261 1.957513
H 3.556403 -2.641711 1.388575
5
Structure 1877 | Energy: -10.834774 Hartree
N -0.075831 -4.885419 2.947319
N 0.191595 -5.795242 2.393428
O 3.059928 -2.532398 2.201989
H 2.160375 -2.306261 1.957513
H 3.556403 -2.641711 1.388575
5
Structure 1878 | Energy: -10.834810 Hartree
N -0.002580 -4.816226 2.934348
N 0.264846 -5.726049 2.380458
O 3.059928 -2.532398 2.201989
H 2.160375 -2.306261 1.957513
H 3.556403 -2.641711 1.388575
5
Structure 1879 | Energy: -10.834797 Hartree
N -0.002580 -4.816226 2.934348
N 0.264846 -5.726049 2.380458
O 3.085685 -2.508068 2.197429
H 2.186132 -2.281931 1.952953
H 3.582159 -2.617381 1.384015
5
Structure 1880 | Energy: -10.834785 Hartree
N -0.002580 -4.816226 2.934348
N 0.264846 -5.726049 2.380458
O 3.110747 -2.484394 2.192991
H 2.211194 -2.258257 1.948515
H 3.607221 -2.593707 1.379577
5
Structure 1881 | Energy: -10.834670 Hartree
N -0.002580 -4.816226 2.934348
N 0.264846 -5.726049 2.380458
O 3.404431 -2.224577 2.201876
H 2.504878 -1.998439 1.957400
H 3.900905 -2.333890 1.388462
5
Structure 1882 | Energy: -10.834707 Hartree
N 0.296890 -4.912057 3.193253
N 0.564316 -5.821881 2.639363
O 3.404431 -2.224577 2.201876
H 2.504878 -1.998439 1.957400
H 3.900905 -2.333890 1.388462
5
Structure 1883 | Energy: -10.834851 Hartree
N 3.248165 -1.763128 2.419629
N 3.515590 -2.672952 1.865738
O 0.453157 -5.373506 2.975501
H -0.446396 -5.147368 2.731025
H 0.949631 -5.482819 2.162087
5
Structure 1884 | Energy: -10.834707 Hartree
N 3.130421 -1.729002 2.110583
N 3.629294 -2.705907 2.164180
O 0.453157 -5.373506 2.975501
H -0.446396 -5.147368 2.731025
H 0.949631 -5.482819 2.162087
5
Structure 1885 | Energy: -10.834742 Hartree
N 3.842572 -1.921901 2.129280
N 2.917143 -2.513008 2.145484
O 0.453157 -5.373506 2.975501
H -0.446396 -5.147368 2.731025
H 0.949631 -5.482819 2.162087
5
Structure 1886 | Energy: -10.834386 Hartree
N 3.755346 -1.896620 1.900336
N 3.008409 -2.539460 2.385031
O 0.453157 -5.373506 2.975501
H -0.446396 -5.147368 2.731025
H 0.949631 -5.482819 2.162087
5
Structure 1887 | Energy: -10.834742 Hartree
N 0.804072 -5.045549 2.673960
N 0.057134 -5.688389 3.158656
O 3.404431 -2.224577 2.201876
H 2.504878 -1.998439 1.957400
H 3.900905 -2.333890 1.388462
5
Structure 1888 | Energy: -10.834931 Hartree
N 1.115854 -4.830513 2.290240
N 0.368917 -5.473354 2.774935
O 3.404431 -2.224577 2.201876
H 2.504878 -1.998439 1.957400
H 3.900905 -2.333890 1.388462
5
Structure 1889 | Energy: -10.834943 Hartree
N 1.140942 -4.802628 2.286534
N 0.394004 -5.445468 2.771229
O 3.404431 -2.224577 2.201876
H 2.504878 -1.998439 1.957400
H 3.900905 -2.333890 1.388462
5
Structure 1890 | Energy: -10.834198 Hartree
N 3.755346 -1.896620 1.900336
N 3.008409 -2.539460 2.385031
O 0.790027 -5.130585 2.588074
H -0.109526 -4.904448 2.343598
H 1.286501 -5.239898 1.774660
5
Structure 1891 | Energy: -10.834198 Hartree
N 3.755346 -1.896620 1.900336
N 3.008409 -2.539460 2.385031
O 0.989397 -5.278277 2.699432
H 1.383544 -6.010502 3.177552
H 1.353538 -5.289558 1.812103
5
Structure 1892 | Energy: -10.834147 Hartree
N 3.693298 -1.978517 1.914431
N 2.946360 -2.621358 2.399127
O 0.989397 -5.278277 2.699432
H 1.383544 -6.010502 3.177552
H 1.353538 -5.289558 1.812103
5
Structure 1893 | Energy: -10.835057 Hartree
N 3.693298 -1.978517 1.914431
N 2.946360 -2.621358 2.399127
O 0.817587 0.533520 2.710122
H 0.771048 0.853091 3.613344
H 0.370002 -0.314499 2.685442
5
Structure 1894 | Energy: -10.834796 Hartree
N 3.033353 -2.684325 3.087758
N 3.152121 -2.401298 2.033301
O 0.817587 0.533520 2.710122
H 0.771048 0.853091 3.613344
H 0.370002 -0.314499 2.685442
5
Structure 1895 | Energy: -10.835013 Hartree
N 4.551339 0.404785 3.830703
N 4.116273 -0.452305 4.361932
O 0.817587 0.533520 2.710122
H 0.771048 0.853091 3.613344
H 0.370002 -0.314499 2.685442
5
Structure 1896 | Energy: -10.834848 Hartree
N 1.007471 0.932496 2.493665
N 0.572406 0.075407 3.024894
O 4.361454 0.005808 4.047160
H 4.314916 0.325380 4.950383
H 3.913869 -0.842211 4.022480
5
Structure 1897 | Energy: -10.835086 Hartree
N 3.217356 3.307179 2.611120
N 2.186418 2.976745 2.795698
O 4.361454 0.005808 4.047160
H 4.314916 0.325380 4.950383
H 3.913869 -0.842211 4.022480
5
Structure 1898 | Energy: -10.834782 Hartree
N 3.248293 3.104913 2.663535
N 2.155481 3.179010 2.743283
O 4.361454 0.005808 4.047160
H 4.314916 0.325380 4.950383
H 3.913869 -0.842211 4.022480
5
Structure 1899 | Energy: -10.834763 Hartree
N 3.248293 3.104913 2.663535
N 2.155481 3.179010 2.743283
O 4.361454 0.005808 4.047160
H 4.199762 0.377075 4.916711
H 4.029018 -0.893905 4.056150
5
Structure 1900 | Energy: -10.834921 Hartree
N 2.841002 2.813033 2.286306
N 2.562772 3.470891 3.120512
O 4.361454 0.005808 4.047160
H 4.199762 0.377075 4.916711
H 4.029018 -0.893905 4.056150
5
Structure 1901 | Energy: -10.835101 Hartree
N 2.615726 3.430489 2.244224
N 2.788048 2.853435 3.162594
O 4.361454 0.005808 4.047160
H 4.199762 0.377075 4.916711
H 4.029018 -0.893905 4.056150
5
Structure 1902 | Energy: -10.834672 Hartree
N 0.629192 1.305900 5.776116
N 1.584811 1.566578 5.301850
O 4.361454 0.005808 4.047160
H 4.199762 0.377075 4.916711
H 4.029018 -0.893905 4.056150
5
Structure 1903 | Energy: -10.834670 Hartree
N 0.629192 1.305900 5.776116
N 1.584811 1.566578 5.301850
O 4.386626 -0.005581 4.035906
H 4.224934 0.365686 4.905457
H 4.054190 -0.905294 4.044896
5
Structure 1904 | Energy: -10.834760 Hartree
N 0.629192 1.305900 5.776116
N 1.584811 1.566578 5.301850
O 4.727616 0.193883 3.617846
H 4.565924 0.565150 4.487397
H 4.395180 -0.705830 3.626837
5
Structure 1905 | Energy: -10.834752 Hartree
N 4.222159 0.033976 3.904137
N 5.177778 0.294654 3.429871
O 1.134650 1.465808 5.489826
H 0.972958 1.837074 6.359377
H 0.802214 0.566094 5.498816
5
Structure 1906 | Energy: -10.834760 Hartree
N 0.629192 1.305900 5.776116
N 1.584811 1.566578 5.301850
O 4.727616 0.193883 3.617846
H 4.565924 0.565150 4.487397
H 4.395180 -0.705830 3.626837
5
Structure 1907 | Energy: -10.834520 Hartree
N 0.629192 1.305900 5.776116
N 1.584811 1.566578 5.301850
O 2.326932 -2.666869 5.399935
H 2.299669 -2.037253 6.123082
H 1.420299 -2.904375 5.195766
5
Structure 1908 | Energy: -10.834530 Hartree
N 0.651526 1.227840 5.774012
N 1.607145 1.488518 5.299746
O 2.326932 -2.666869 5.399935
H 2.299669 -2.037253 6.123082
H 1.420299 -2.904375 5.195766
5
Structure 1909 | Energy: -10.834412 Hartree
N 0.651526 1.227840 5.774012
N 1.607145 1.488518 5.299746
O 1.997507 2.579497 1.611492
H 1.816111 1.713067 1.980945
H 1.170025 3.064589 1.605354
5
Structure 1910 | Energy: -10.834771 Hartree
N 0.481477 0.153514 5.192395
N 1.304662 0.060035 4.471482
O 1.997507 2.579497 1.611492
H 1.816111 1.713067 1.980945
H 1.170025 3.064589 1.605354
5
Structure 1911 | Energy: -10.835097 Hartree
N 0.481477 0.153514 5.192395
N 1.304662 0.060035 4.471482
O 3.150950 2.524685 2.231727
H 2.807447 1.669086 2.496412
H 2.402262 3.060362 1.962291
5
Structure 1912 | Energy: -10.834842 Hartree
N 2.678245 2.553524 2.591917
N 3.501431 2.460045 1.871004
O 0.954181 0.124675 4.832204
H 0.610678 -0.730924 5.096889
H 0.205494 0.660352 4.562769
5
Structure 1913 | Energy: -10.834809 Hartree
N 3.569120 2.737876 2.095787
N 2.610556 2.275692 2.367135
O 0.954181 0.124675 4.832204
H 0.610678 -0.730924 5.096889
H 0.205494 0.660352 4.562769
5
Structure 1914 | Energy: -10.834682 Hartree
N 3.569120 2.737876 2.095787
N 2.610556 2.275692 2.367135
O 0.954181 0.124674 4.832206
H 0.531790 -0.448069 4.189048
H 0.284380 0.377507 5.470579
5
Structure 1915 | Energy: -10.835023 Hartree
N 3.569120 2.737876 2.095787
N 2.610556 2.275692 2.367135
O 1.933517 1.978708 -1.690709
H 2.766721 2.190384 -2.116229
H 1.588394 1.192059 -2.117501
5
Structure 1916 | Energy: -10.835059 Hartree
N 3.569120 2.737876 2.095787
N 2.610556 2.275692 2.367135
O 2.794276 1.574365 -1.773860
H 3.710008 1.714951 -2.022397
H 2.511480 0.754367 -2.183382
5
Structure 1917 | Energy: -10.834668 Hartree
N -1.340591 -1.012035 -0.345011
N -1.101770 -1.650802 -1.205843
O 0.910786 2.189710 0.984218
H 0.539638 1.340436 1.231373
H 1.532224 2.031361 0.270903
5
Structure 1918 | Energy: -10.834862 Hartree
N 0.805380 2.452713 1.388551
N 1.044201 1.813947 0.527719
O -1.235185 -1.275039 -0.749343
H -1.606334 -2.124312 -0.502188
H -0.613747 -1.433387 -1.462659
5
Structure 1919 | Energy: -10.834947 Hartree
N 0.805380 2.452713 1.388551
N 1.044201 1.813947 0.527719
O -1.142845 -1.125953 -0.674749
H -1.513994 -1.975226 -0.427594
H -0.521407 -1.284301 -1.388065
5
Structure 1920 | Energy: -10.834822 Hartree
N 0.805380 2.452713 1.388551
N 1.044201 1.813947 0.527719
O -1.142845 -1.125954 -0.674747
H -1.434999 -1.445192 -1.530805
H -0.600399 -1.814317 -0.284892
5
Structure 1921 | Energy: -10.834806 Hartree
N 0.805380 2.452713 1.388551
N 1.044201 1.813947 0.527719
O -1.165255 -1.162135 -0.692850
H -1.457408 -1.481373 -1.548908
H -0.622809 -1.850498 -0.302995
5
Structure 1922 | Energy: -10.834847 Hartree
N 0.805380 2.452713 1.388551
N 1.044201 1.813947 0.527719
O -1.179893 -1.214072 -0.775637
H -1.468791 -1.747164 -0.032365
H -0.379096 -0.760362 -0.505542
5
Structure 1923 | Energy: -10.834832 Hartree
N 0.805380 2.452713 1.388551
N 1.044201 1.813947 0.527719
O -1.114151 -1.214675 -0.667321
H -0.981873 -0.754829 -1.498673
H -1.909467 -1.743116 -0.758426
5
Structure 1924 | Energy: -10.835032 Hartree
N 0.805380 2.452713 1.388551
N 1.044201 1.813947 0.527719
O -1.201770 -1.192893 -0.748030
H -0.286543 -0.927695 -0.858177
H -1.214110 -1.915989 -0.117905
5
Structure 1925 | Energy: -10.835021 Hartree
N 0.805380 2.452713 1.388551
N 1.044201 1.813947 0.527719
O -1.174485 -1.170576 -0.684047
H -0.503072 -1.104800 -1.365941
H -1.430648 -2.093101 -0.625689
5
Structure 1926 | Energy: -10.835795 Hartree
N 1.183282 1.381573 0.274958
N 1.422103 0.742807 -0.585873
O -1.174485 -1.170576 -0.684047
H -0.503072 -1.104800 -1.365941
H -1.430648 -2.093101 -0.625689
5
Structure 1927 | Energy: -10.835484 Hartree
N 1.183282 1.381573 0.274958
N 1.422103 0.742807 -0.585873
O -1.113408 -1.215728 -0.667795
H -0.987770 -0.746475 -1.494910
H -1.915365 -1.734762 -0.754663
5
Structure 1928 | Energy: -10.835523 Hartree
N 1.183282 1.381573 0.274958
N 1.422103 0.742807 -0.585873
O -1.070255 -1.175622 -0.657886
H -0.944617 -0.706369 -1.485001
H -1.872212 -1.694656 -0.744754
5
Structure 1929 | Energy: -10.833690 Hartree
N -0.280979 1.706782 -0.773359
N -0.042158 1.068016 -1.634191
O -1.070255 -1.175622 -0.657886
H -0.944617 -0.706369 -1.485001
H -1.872212 -1.694656 -0.744754
5
Structure 1930 | Energy: -10.835368 Hartree
N 1.304286 0.828249 -0.202765
N 1.543107 0.189483 -1.063597
O -1.070255 -1.175622 -0.657886
H -0.944617 -0.706369 -1.485001
H -1.872212 -1.694656 -0.744754
5
Structure 1931 | Energy: -10.834863 Hartree
N 1.127760 0.710606 -0.208054
N 1.366581 0.071840 -1.068885
O -1.070255 -1.175622 -0.657886
H -0.944617 -0.706369 -1.485001
H -1.872212 -1.694656 -0.744754
5
Structure 1932 | Energy: -10.835025 Hartree
N 1.162246 0.733589 -0.207021
N 1.401067 0.094823 -1.067852
O -1.070255 -1.175622 -0.657886
H -0.944617 -0.706369 -1.485001
H -1.872212 -1.694656 -0.744754
5
Structure 1933 | Energy: -10.833167 Hartree
N 0.765226 0.731115 -2.089817
N 0.931259 0.770755 -1.004944
O -1.070255 -1.175622 -0.657886
H -0.944617 -0.706369 -1.485001
H -1.872212 -1.694656 -0.744754
5
Structure 1934 | Energy: -10.831595 Hartree
N 0.660692 0.723418 -2.231078
N -0.328109 0.678024 -2.706789
O -1.070255 -1.175622 -0.657886
H -0.944617 -0.706369 -1.485001
H -1.872212 -1.694656 -0.744754
5
Structure 1935 | Energy: -10.835432 Hartree
N 0.728271 1.928213 -0.712841
N -0.260530 1.882820 -1.188552
O -1.070255 -1.175622 -0.657886
H -0.944617 -0.706369 -1.485001
H -1.872212 -1.694656 -0.744754
5
Structure 1936 | Energy: -10.834826 Hartree
N 0.728271 1.928213 -0.712841
N -0.260530 1.882820 -1.188552
O -1.155567 -0.575426 0.033811
H -1.029930 -0.106173 -0.793304
H -1.957524 -1.094460 -0.053057
5
Structure 1937 | Energy: -10.835618 Hartree
N 0.728271 1.928213 -0.712841
N -0.260530 1.882820 -1.188552
O -1.208727 -0.529451 0.020658
H -0.550845 -1.204490 0.198467
H -1.592857 -0.725852 -0.836051
5
Structure 1938 | Energy: -10.835424 Hartree
N 0.728271 1.928213 -0.712841
N -0.260530 1.882820 -1.188552
O -1.208724 -0.529452 0.020659
H -1.788303 -0.965741 -0.606909
H -0.355441 -0.964593 -0.030703
5
Structure 1939 | Energy: -10.835395 Hartree
N -0.175939 1.660896 -1.222246
N 0.643680 2.150137 -0.679146
O -1.208724 -0.529452 0.020659
H -1.788303 -0.965741 -0.606909
H -0.355441 -0.964593 -0.030703
5
Structure 1940 | Energy: -10.835368 Hartree
N -0.175939 1.660896 -1.222246
N 0.643680 2.150137 -0.679146
O -1.146124 -0.420516 -0.020278
H -1.725703 -0.856805 -0.647846
H -0.292841 -0.855657 -0.071640
5
Structure 1941 | Energy: -10.835304 Hartree
N -0.175939 1.660896 -1.222246
N 0.643680 2.150137 -0.679146
O -1.118665 -0.372733 -0.038234
H -1.698245 -0.809022 -0.665803
H -0.265382 -0.807874 -0.089597
5
Structure 1942 | Energy: -10.835304 Hartree
N -0.175939 1.660896 -1.222246
N 0.643680 2.150137 -0.679146
O 0.322147 -0.734138 -1.887069
H -0.504819 -1.108374 -2.197194
H 0.416366 -0.978880 -0.964409
5
Structure 1943 | Energy: -10.835244 Hartree
N -0.175939 1.660896 -1.222246
N 0.643680 2.150137 -0.679146
O 0.470697 -1.367970 -1.950607
H -0.356269 -1.742206 -2.260732
H 0.564916 -1.612712 -1.027947
5
Structure 1944 | Energy: -10.834554 Hartree
N 0.121114 2.090578 -0.446157
N 0.346627 1.720454 -1.455236
O 0.470697 -1.367970 -1.950607
H -0.356269 -1.742206 -2.260732
H 0.564916 -1.612712 -1.027947
5
Structure 1945 | Energy: -10.835648 Hartree
N 0.121114 2.090578 -0.446157
N 0.346627 1.720454 -1.455236
O 0.466780 -1.398019 -1.864769
H 0.642455 -1.017711 -2.727674
H -0.371645 -1.860273 -1.923437
5
Structure 1946 | Energy: -10.834342 Hartree
N 0.121114 2.090578 -0.446157
N 0.346627 1.720454 -1.455236
O 0.428397 -1.383664 -1.977118
H -0.237523 -1.910438 -1.530841
H 1.117561 -1.195383 -1.337055
5
Structure 1947 | Energy: -10.834694 Hartree
N -0.212781 2.284621 -1.141448
N 0.012733 1.914497 -2.150527
O 0.428397 -1.383664 -1.977118
H -0.237523 -1.910438 -1.530841
H 1.117561 -1.195383 -1.337055
5
Structure 1948 | Energy: -10.834709 Hartree
N -0.200103 2.200804 -1.147918
N 0.025410 1.830680 -2.156997
O 0.428397 -1.383664 -1.977118
H -0.237523 -1.910438 -1.530841
H 1.117561 -1.195383 -1.337055
5
Structure 1949 | Energy: -10.834902 Hartree
N 0.282117 1.875854 -2.033837
N -0.456809 2.155630 -1.271078
O 0.428397 -1.383664 -1.977118
H -0.237523 -1.910438 -1.530841
H 1.117561 -1.195383 -1.337055
5
Structure 1950 | Energy: -10.834958 Hartree
N 0.282117 1.875854 -2.033837
N -0.456809 2.155630 -1.271078
O 0.399887 -1.195178 -1.962568
H -0.266033 -1.721951 -1.516291
H 1.089052 -1.006896 -1.322505
5
Structure 1951 | Energy: -10.834989 Hartree
N 0.282117 1.875854 -2.033837
N -0.456809 2.155630 -1.271078
O 0.399884 -1.195179 -1.962568
H 1.133958 -1.100016 -1.352502
H -0.310890 -1.628810 -1.486289
5
Structure 1952 | Energy: -10.834074 Hartree
N -0.064479 2.378076 -1.240495
N -0.110214 1.653408 -2.064420
O 0.399884 -1.195179 -1.962568
H 1.133958 -1.100016 -1.352502
H -0.310890 -1.628810 -1.486289
5
Structure 1953 | Energy: -10.834939 Hartree
N -0.064479 2.378076 -1.240495
N -0.110214 1.653408 -2.064420
O 0.376628 -0.947528 -1.048686
H 1.110702 -0.852365 -0.438619
H -0.334146 -1.381159 -0.572406
5
Structure 1954 | Energy: -10.834721 Hartree
N -0.064479 2.378076 -1.240495
N -0.110214 1.653408 -2.064420
O 0.342064 -0.963837 -1.040454
H 1.239627 -0.638583 -0.947216
H 0.085519 -1.336089 -0.194469
5
Structure 1955 | Energy: -10.835670 Hartree
N -0.064479 2.378076 -1.240495
N -0.110214 1.653408 -2.064420
O 0.399324 -0.976907 -0.928837
H -0.466271 -1.210137 -1.270087
H 0.882596 -0.557089 -1.643176
5
Structure 1956 | Energy: -10.835593 Hartree
N -0.059035 2.361656 -1.226941
N -0.115657 1.669828 -2.077974
O 0.399324 -0.976907 -0.928837
H -0.466271 -1.210137 -1.270087
H 0.882596 -0.557089 -1.643176
5
Structure 1957 | Energy: -10.834684 Hartree
N -0.059035 2.361656 -1.226941
N -0.115657 1.669828 -2.077974
O 1.023043 -0.072999 0.377473
H 0.414351 0.241561 1.048777
H 0.497291 -0.348433 -0.376052
5
Structure 1958 | Energy: -10.834539 Hartree
N -0.970871 -2.115470 1.640397
N -0.700686 -1.648581 2.597007
O 1.023043 -0.072999 0.377473
H 0.414351 0.241561 1.048777
H 0.497291 -0.348433 -0.376052
5
Structure 1959 | Energy: -10.834126 Hartree
N 0.320035 -0.804996 3.299614
N 0.942319 0.060822 3.562693
O 1.023043 -0.072999 0.377473
H 0.414351 0.241561 1.048777
H 0.497291 -0.348433 -0.376052
5
Structure 1960 | Energy: -10.834166 Hartree
N 0.320035 -0.804996 3.299614
N 0.942319 0.060822 3.562693
O 0.817602 -0.390646 0.343618
H 0.317883 0.068681 1.021410
H 0.198296 -0.642763 -0.344114
5
Structure 1961 | Energy: -10.834936 Hartree
N 2.487894 -0.299282 2.813383
N 2.196220 0.734829 3.040603
O 0.817602 -0.390646 0.343618
H 0.317883 0.068681 1.021410
H 0.198296 -0.642763 -0.344114
5
Structure 1962 | Energy: -10.834871 Hartree
N 2.487894 -0.299282 2.813383
N 2.196220 0.734829 3.040603
O 1.558842 0.127181 -0.344101
H 1.059123 0.586507 0.333691
H 0.939536 -0.124937 -1.031833
5
Structure 1963 | Energy: -10.835339 Hartree
N 2.469374 -0.291093 3.089373
N 2.214740 0.726640 2.764613
O 1.558842 0.127181 -0.344101
H 1.059123 0.586507 0.333691
H 0.939536 -0.124937 -1.031833
5
Structure 1964 | Energy: -10.835312 Hartree
N 2.469374 -0.291093 3.089373
N 2.214740 0.726640 2.764613
O 1.471375 0.159149 -0.289682
H 1.988967 -0.637949 -0.419433
H 1.397974 0.592121 -1.142457
5
Structure 1965 | Energy: -10.835365 Hartree
N 2.449368 -0.292962 3.011988
N 2.194734 0.724771 2.687228
O 1.471375 0.159149 -0.289682
H 1.988967 -0.637949 -0.419433
H 1.397974 0.592121 -1.142457
5
Structure 1966 | Energy: -10.835617 Hartree
N 2.449368 -0.292962 3.011988
N 2.194734 0.724771 2.687228
O 0.377935 -0.840636 0.465044
H 1.002007 -1.539901 0.260926
H -0.133794 -0.675811 -0.329339
5
Structure 1967 | Energy: -10.835664 Hartree
N 2.449368 -0.292962 3.011988
N 2.194734 0.724771 2.687228
O 0.420132 -0.816978 0.518186
H 1.044205 -1.516243 0.314068
H -0.091597 -0.652153 -0.276198
5
Structure 1968 | Energy: -10.835664 Hartree
N 1.115778 -1.651628 3.589159
N 0.031770 -1.478863 3.623348
O 0.420132 -0.816978 0.518186
H 1.044205 -1.516243 0.314068
H -0.091597 -0.652153 -0.276198
5
Structure 1969 | Energy: -10.835309 Hartree
N 0.740831 -1.046245 3.541041
N 0.406717 -2.084246 3.671466
O 0.420132 -0.816978 0.518186
H 1.044205 -1.516243 0.314068
H -0.091597 -0.652153 -0.276198
5
Structure 1970 | Energy: -10.835296 Hartree
N 0.740831 -1.046245 3.541041
N 0.406717 -2.084246 3.671466
O 0.418673 -0.809866 0.487061
H 1.042746 -1.509131 0.282943
H -0.093056 -0.645041 -0.307322
5
Structure 1971 | Energy: -10.835487 Hartree
N 0.740831 -1.046245 3.541041
N 0.406717 -2.084246 3.671466
O 0.388136 -0.891495 0.426321
H 1.285084 -0.861336 0.764962
H 0.149292 0.002779 0.174716
5
Structure 1972 | Energy: -10.835146 Hartree
N 0.616992 -2.108461 3.538641
N 0.530556 -1.022030 3.673866
O 0.388136 -0.891495 0.426321
H 1.285084 -0.861336 0.764962
H 0.149292 0.002779 0.174716
5
Structure 1973 | Energy: -10.834607 Hartree
N 2.410723 0.595652 -1.870765
N 1.625053 0.084991 -2.443509
O 0.388136 -0.891495 0.426321
H 1.285084 -0.861336 0.764962
H 0.149292 0.002779 0.174716
5
Structure 1974 | Energy: -10.834574 Hartree
N 2.410723 0.595652 -1.870765
N 1.625053 0.084991 -2.443509
O 0.412806 -0.873219 0.386236
H 1.309754 -0.843060 0.724876
H 0.173962 0.021055 0.134630
5
Structure 1975 | Energy: -10.835070 Hartree
N 2.040275 -3.077188 2.221937
N 0.971322 -3.267834 2.386508
O 0.412806 -0.873219 0.386236
H 1.309754 -0.843060 0.724876
H 0.173962 0.021055 0.134630
5
Structure 1976 | Energy: -10.834618 Hartree
N 2.040275 -3.077188 2.221937
N 0.971322 -3.267834 2.386508
O -0.381152 -0.449534 -0.283435
H 0.515796 -0.419375 0.055205
H -0.619996 0.444740 -0.535041
5
Structure 1977 | Energy: -10.834650 Hartree
N 1.968880 -2.970115 2.122269
N 0.899928 -3.160761 2.286841
O -0.381152 -0.449534 -0.283435
H 0.515796 -0.419375 0.055205
H -0.619996 0.444740 -0.535041
5
Structure 1978 | Energy: -10.834662 Hartree
N 1.943998 -2.932798 2.087534
N 0.875046 -3.123445 2.252106
O -0.381152 -0.449534 -0.283435
H 0.515796 -0.419375 0.055205
H -0.619996 0.444740 -0.535041
5
Structure 1979 | Energy: -10.834383 Hartree
N 1.943998 -2.932798 2.087534
N 0.875046 -3.123445 2.252106
O -1.914941 -1.682605 0.434418
H -1.115346 -1.194481 0.640538
H -2.627091 -1.044011 0.362876
5
Structure 1980 | Energy: -10.834987 Hartree
N -1.375572 -1.524238 0.359663
N -2.444525 -1.714885 0.524234
O 1.404629 -3.091165 2.162290
H 2.204224 -2.603041 2.368409
H 0.692479 -2.452571 2.090747
5
Structure 1981 | Energy: -10.834972 Hartree
N -1.375572 -1.524238 0.359663
N -2.444525 -1.714885 0.524234
O 1.433450 -3.103395 2.177292
H 2.233045 -2.615271 2.383411
H 0.721301 -2.464800 2.105749
5
Structure 1982 | Energy: -10.834596 Hartree
N 0.255090 -2.160921 -1.187779
N -0.784199 -1.979889 -1.493058
O 1.433450 -3.103395 2.177292
H 2.233045 -2.615271 2.383411
H 0.721301 -2.464800 2.105749
5
Structure 1983 | Energy: -10.834519 Hartree
N 2.215709 0.054362 0.350052
N 1.909046 1.073508 0.620955
O 1.433450 -3.103395 2.177292
H 2.233045 -2.615271 2.383411
H 0.721301 -2.464800 2.105749
5
Structure 1984 | Energy: -10.834611 Hartree
N 2.421410 0.718711 0.683357
N 2.114747 1.737856 0.954259
O 1.433450 -3.103395 2.177292
H 2.233045 -2.615271 2.383411
H 0.721301 -2.464800 2.105749
5
Structure 1985 | Energy: -10.834468 Hartree
N 2.421410 0.718711 0.683357
N 2.114747 1.737856 0.954259
O 1.439023 -3.094708 2.151655
H 2.188817 -2.684208 2.586858
H 0.677071 -2.533740 2.309204
5
Structure 1986 | Energy: -10.834487 Hartree
N 2.622994 0.823350 0.711171
N 1.913162 1.633217 0.926445
O 1.439023 -3.094708 2.151655
H 2.188817 -2.684208 2.586858
H 0.677071 -2.533740 2.309204
5
Structure 1987 | Energy: -10.834587 Hartree
N 2.517171 1.010920 1.858977
N 1.807339 1.820787 2.074251
O 1.439023 -3.094708 2.151655
H 2.188817 -2.684208 2.586858
H 0.677071 -2.533740 2.309204
5
Structure 1988 | Energy: -10.834587 Hartree
N 2.517171 1.010920 1.858977
N 1.807339 1.820787 2.074251
O -2.209629 1.068138 3.258197
H -1.584712 1.621113 3.731271
H -1.760267 0.247084 3.048385
5
Structure 1989 | Energy: -10.834587 Hartree
N 2.517171 1.010920 1.858977
N 1.807339 1.820787 2.074251
O 1.439023 -3.094708 2.151655
H 2.188817 -2.684208 2.586858
H 0.677071 -2.533740 2.309204
5
Structure 1990 | Energy: -10.834535 Hartree
N 2.114177 1.330945 2.506985
N 2.210333 1.500762 1.426243
O 1.439023 -3.094708 2.151655
H 2.188817 -2.684208 2.586858
H 0.677071 -2.533740 2.309204
5
Structure 1991 | Energy: -10.834630 Hartree
N 2.114177 1.330945 2.506985
N 2.210333 1.500762 1.426243
O 1.494750 -3.032447 2.213299
H 0.813403 -3.659218 2.464349
H 1.167994 -2.546940 1.453305
5
Structure 1992 | Energy: -10.834548 Hartree
N 1.390265 -3.125260 2.725193
N 1.486421 -2.955442 1.644450
O 2.218662 1.423757 1.995091
H 1.537315 0.796986 2.246141
H 1.891906 1.909265 1.235097
5
Structure 1993 | Energy: -10.834540 Hartree
N 1.483421 -3.149370 1.648533
N 1.393265 -2.931332 2.721110
O 2.218662 1.423757 1.995091
H 1.537315 0.796986 2.246141
H 1.891906 1.909265 1.235097
5
Structure 1994 | Energy: -10.834540 Hartree
N 1.483421 -3.149370 1.648533
N 1.393265 -2.931332 2.721110
O 2.323237 1.170847 0.750969
H 1.670899 0.473919 0.656903
H 1.894845 1.902156 1.200129
5
Structure 1995 | Energy: -10.834539 Hartree
N 1.483421 -3.149370 1.648533
N 1.393265 -2.931332 2.721110
O -2.698388 -1.225905 1.774453
H -2.252323 -2.074855 1.754114
H -3.271187 -1.224362 2.543854
5
Structure 1996 | Energy: -10.834733 Hartree
N 1.425663 -2.112404 0.695163
N 1.335507 -1.894366 1.767739
O -2.698388 -1.225905 1.774453
H -2.252323 -2.074855 1.754114
H -3.271187 -1.224362 2.543854
5
Structure 1997 | Energy: -10.834753 Hartree
N 1.425663 -2.112404 0.695163
N 1.335507 -1.894366 1.767739
O -2.624532 -1.239101 1.763881
H -2.178468 -2.088051 1.743542
H -3.197331 -1.237558 2.533282
5
Structure 1998 | Energy: -10.834555 Hartree
N 1.425663 -2.112404 0.695163
N 1.335507 -1.894366 1.767739
O -3.565313 -1.186920 1.043986
H -3.119249 -2.035870 1.023647
H -4.138112 -1.185377 1.813386
5
Structure 1999 | Energy: -10.834551 Hartree
N -3.527327 -1.343355 0.549610
N -3.617483 -1.125317 1.622187
O 1.387676 -1.955970 1.189538
H 1.833741 -2.804919 1.169200
H 0.814877 -1.954427 1.958939
5
Structure 2000 | Energy: -10.834556 Hartree
N -3.488348 -1.349407 0.550756
N -3.578504 -1.131369 1.623332
O 1.387676 -1.955970 1.189538
H 1.833741 -2.804919 1.169200
H 0.814877 -1.954427 1.958939
5
Structure 2001 | Energy: -10.834592 Hartree
N -3.488348 -1.349407 0.550756
N -3.578504 -1.131369 1.623332
O 0.714283 -1.211563 0.776123
H 1.160348 -2.060512 0.755785
H 0.141484 -1.210019 1.545524
5
Structure 2002 | Energy: -10.834620 Hartree
N -3.335434 -1.350077 0.541055
N -3.425590 -1.132039 1.613632
O 0.714283 -1.211563 0.776123
H 1.160348 -2.060512 0.755785
H 0.141484 -1.210019 1.545524
5
Structure 2003 | Energy: -10.835098 Hartree
N -3.335434 -1.350077 0.541055
N -3.425590 -1.132039 1.613632
O 0.652564 -1.228351 0.806508
H 0.950779 -2.037638 0.386717
H 1.330666 -0.966428 1.432329
5
Structure 2004 | Energy: -10.835812 Hartree
N -2.448831 -0.960708 0.266361
N -2.538987 -0.742670 1.338938
O 0.652564 -1.228351 0.806508
H 0.950779 -2.037638 0.386717
H 1.330666 -0.966428 1.432329
5
Structure 2005 | Energy: -10.835637 Hartree
N -1.582892 -3.443528 0.237477
N -2.293056 -2.609748 0.318515
O 0.652564 -1.228351 0.806508
H 0.950779 -2.037638 0.386717
H 1.330666 -0.966428 1.432329
5
Structure 2006 | Energy: -10.835637 Hartree
N 0.032957 -1.522965 -2.317169
N -0.739389 -0.763094 -2.137821
O 0.652564 -1.228351 0.806508
H 0.950779 -2.037638 0.386717
H 1.330666 -0.966428 1.432329
5
Structure 2007 | Energy: -10.835611 Hartree
N 0.032957 -1.522965 -2.317169
N -0.739389 -0.763094 -2.137821
O 0.667303 -1.229962 0.848838
H 0.965517 -2.039250 0.429048
H 1.345405 -0.968040 1.474659
5
Structure 2008 | Energy: -10.835948 Hartree
N -0.062047 -1.512354 -1.944048
N -0.644385 -0.773705 -2.510942
O 0.667303 -1.229962 0.848838
H 0.965517 -2.039250 0.429048
H 1.345405 -0.968040 1.474659
5
Structure 2009 | Energy: -10.835975 Hartree
N -0.062047 -1.512354 -1.944048
N -0.644385 -0.773705 -2.510942
O 0.641264 -1.227115 0.774056
H 0.939479 -2.036403 0.354265
H 1.319367 -0.965193 1.399877
5
Structure 2010 | Energy: -10.835421 Hartree
N -0.549280 -0.647174 -2.096313
N -0.157151 -1.638884 -2.358677
O 0.641264 -1.227115 0.774056
H 0.939479 -2.036403 0.354265
H 1.319367 -0.965193 1.399877
5
Structure 2011 | Energy: -10.835421 Hartree
N -0.549280 -0.647174 -2.096313
N -0.157151 -1.638884 -2.358677
O 1.396993 -1.459754 0.388193
H 0.987307 -0.593203 0.424929
H 2.267477 -1.379370 0.783003
5
Structure 2012 | Energy: -10.835237 Hartree
N -0.831232 -1.683173 -2.746906
N -0.439102 -2.674883 -3.009269
O 1.396993 -1.459754 0.388193
H 0.987307 -0.593203 0.424929
H 2.267477 -1.379370 0.783003
5
Structure 2013 | Energy: -10.834473 Hartree
N 1.226712 -0.910915 0.543521
N 1.618841 -1.902625 0.281157
O -0.660950 -2.232012 -2.902234
H -1.070636 -1.365461 -2.865498
H 0.209533 -2.151628 -2.507424
5
Structure 2014 | Energy: -10.834413 Hartree
N 2.082497 -1.045355 0.584359
N 2.474626 -2.037065 0.321995
O -0.660950 -2.232012 -2.902234
H -1.070636 -1.365461 -2.865498
H 0.209533 -2.151628 -2.507424
5
Structure 2015 | Energy: -10.834419 Hartree
N 2.031301 -1.094751 0.655806
N 2.525821 -1.987670 0.250548
O -0.660950 -2.232012 -2.902234
H -1.070636 -1.365461 -2.865498
H 0.209533 -2.151628 -2.507424
5
Structure 2016 | Energy: -10.835192 Hartree
N 1.933796 -1.363659 0.064417
N 2.623327 -1.718761 0.841937
O -0.660950 -2.232012 -2.902234
H -1.070636 -1.365461 -2.865498
H 0.209533 -2.151628 -2.507424
5
Structure 2017 | Energy: -10.835192 Hartree
N -1.334773 1.249687 -0.960487
N -1.389679 1.810858 -0.018064
O -0.660950 -2.232012 -2.902234
H -1.070636 -1.365461 -2.865498
H 0.209533 -2.151628 -2.507424
5
Structure 2018 | Energy: -10.835022 Hartree
N -1.334773 1.249687 -0.960487
N -1.389679 1.810858 -0.018064
O -0.292131 -1.361768 -3.920448
H -0.701817 -0.495218 -3.883712
H 0.578352 -1.281384 -3.525638
5
Structure 2019 | Energy: -10.834327 Hartree
N -0.238895 -1.589370 -4.367513
N -0.293801 -1.028199 -3.425090
O -1.388009 1.477288 -0.513422
H -1.797696 2.343839 -0.476686
H -0.517526 1.557673 -0.118612
5
Structure 2020 | Energy: -10.834311 Hartree
N -0.281856 -1.478072 -4.233950
N -0.336762 -0.916901 -3.291527
O -1.388009 1.477288 -0.513422
H -1.797696 2.343839 -0.476686
H -0.517526 1.557673 -0.118612
5
Structure 2021 | Energy: -10.835122 Hartree
N -1.334773 1.249687 -0.960487
N -1.389679 1.810858 -0.018064
O -0.335092 -1.250471 -3.786885
H -0.744778 -0.383920 -3.750149
H 0.535391 -1.170087 -3.392075
5
Structure 2022 | Energy: -10.835122 Hartree
N -1.334773 1.249687 -0.960487
N -1.389679 1.810858 -0.018064
O -0.335092 -0.043940 -4.505320
H -0.744778 -0.424542 -3.725960
H 0.535391 0.264868 -4.246526
5
Structure 2023 | Energy: -10.835161 Hartree
N -1.319534 1.226845 -1.017772
N -1.374440 1.788016 -0.075349
O -0.335092 -0.043940 -4.505320
H -0.744778 -0.424542 -3.725960
H 0.535391 0.264868 -4.246526
5
Structure 2024 | Energy: -10.835135 Hartree
N -1.329445 1.241700 -0.980517
N -1.384350 1.802871 -0.038094
O -0.335092 -0.043940 -4.505320
H -0.744778 -0.424542 -3.725960
H 0.535391 0.264868 -4.246526
5
Structure 2025 | Energy: -10.835297 Hartree
N -2.779950 0.138124 -1.517503
N -3.462930 0.494480 -0.734793
O -0.335092 -0.043940 -4.505320
H -0.744778 -0.424542 -3.725960
H 0.535391 0.264868 -4.246526
5
Structure 2026 | Energy: -10.834708 Hartree
N -2.653118 0.103031 -0.934543
N -3.589762 0.529573 -1.317752
O -0.335092 -0.043940 -4.505320
H -0.744778 -0.424542 -3.725960
H 0.535391 0.264868 -4.246526
5
Structure 2027 | Energy: -10.834628 Hartree
N 0.159013 -0.261228 -4.255628
N -0.777631 0.165314 -4.638836
O -3.147223 0.320319 -1.184236
H -3.556909 -0.060283 -0.404876
H -2.276740 0.629127 -0.925442
5
Structure 2028 | Energy: -10.834708 Hartree
N 1.365591 -0.449173 -1.537442
N 1.040935 -0.117958 -0.541960
O -3.147223 0.320319 -1.184236
H -3.556909 -0.060283 -0.404876
H -2.276740 0.629127 -0.925442
5
Structure 2029 | Energy: -10.834496 Hartree
N 1.017095 -0.752531 -0.823056
N 1.389430 0.185400 -1.256346
O -3.147223 0.320319 -1.184236
H -3.556909 -0.060283 -0.404876
H -2.276740 0.629127 -0.925442
5
Structure 2030 | Energy: -10.834496 Hartree
N 1.017095 -0.752531 -0.823056
N 1.389430 0.185400 -1.256346
O -2.460403 2.135142 -1.238969
H -2.259454 3.051354 -1.038280
H -1.852676 1.593376 -0.731785
5
Structure 2031 | Energy: -10.834496 Hartree
N 1.017095 -0.752531 -0.823056
N 1.389430 0.185400 -1.256346
O 1.926036 0.353854 3.247908
H 2.200102 -0.467982 3.659703
H 2.252610 0.342414 2.346078
5
Structure 2032 | Energy: -10.834604 Hartree
N 1.366781 -0.470824 -1.529311
N 1.039744 -0.096307 -0.550091
O 1.926036 0.353854 3.247908
H 2.200102 -0.467982 3.659703
H 2.252610 0.342414 2.346078
5
Structure 2033 | Energy: -10.834616 Hartree
N 1.385925 -0.455870 -1.421483
N 1.058889 -0.081353 -0.442263
O 1.926036 0.353854 3.247908
H 2.200102 -0.467982 3.659703
H 2.252610 0.342414 2.346078
5
Structure 2034 | Energy: -10.834347 Hartree
N 1.385925 -0.455870 -1.421483
N 1.058889 -0.081353 -0.442263
O 1.896286 0.313485 3.221814
H 2.436197 -0.147620 3.866780
H 2.488713 0.662789 2.553163
5
Structure 2035 | Energy: -10.834334 Hartree
N 1.385925 -0.455870 -1.421483
N 1.058889 -0.081353 -0.442263
O 1.880148 0.300880 3.130920
H 2.420059 -0.160225 3.775885
H 2.472575 0.650184 2.462269
5
Structure 2036 | Energy: -10.834378 Hartree
N 1.385925 -0.455870 -1.421483
N 1.058889 -0.081353 -0.442263
O 1.287646 -1.939610 2.871644
H 1.306370 -2.845448 3.186618
H 2.086729 -1.800337 2.359642
5
Structure 2037 | Energy: -10.835276 Hartree
N 1.496923 -2.169760 2.371009
N 1.169886 -1.795243 3.350230
O 1.176648 -0.225720 -0.920849
H 1.195372 -1.131558 -0.605874
H 1.975732 -0.086447 -1.432851
5
Structure 2038 | Energy: -10.835276 Hartree
N -0.697407 -3.535079 -1.425080
N -1.755056 -3.615152 -1.709784
O 1.176648 -0.225720 -0.920849
H 1.195372 -1.131558 -0.605874
H 1.975732 -0.086447 -1.432851
5
Structure 2039 | Energy: -10.834780 Hartree
N -0.697407 -3.535079 -1.425080
N -1.755056 -3.615152 -1.709784
O 1.167919 -0.293028 -0.909735
H 1.983682 -0.182858 -0.417297
H 1.325962 0.033171 -1.797820
5
Structure 2040 | Energy: -10.834767 Hartree
N -0.697407 -3.535079 -1.425080
N -1.755056 -3.615152 -1.709784
O 1.190960 -0.261915 -0.903755
H 2.006723 -0.151745 -0.411316
H 1.349003 0.064283 -1.791840
5
Structure 2041 | Energy: -10.835026 Hartree
N -1.517027 -3.234712 -1.885372
N -0.935437 -3.915520 -1.249493
O 1.190960 -0.261915 -0.903755
H 2.006723 -0.151745 -0.411316
H 1.349003 0.064283 -1.791840
5
Structure 2042 | Energy: -10.835632 Hartree
N -1.517027 -3.234712 -1.885372
N -0.935437 -3.915520 -1.249493
O 0.488325 -0.866194 -0.874245
H 1.304088 -0.756024 -0.381806
H 0.646368 -0.539995 -1.762330
5
Structure 2043 | Energy: -10.835781 Hartree
N -1.531943 -2.891890 -1.062204
N -0.950353 -3.572699 -0.426326
O 0.488325 -0.866194 -0.874245
H 1.304088 -0.756024 -0.381806
H 0.646368 -0.539995 -1.762330
5
Structure 2044 | Energy: -10.835515 Hartree
N -0.597690 -3.558920 -1.679039
N -0.016100 -4.239728 -1.043160
O 0.488325 -0.866194 -0.874245
H 1.304088 -0.756024 -0.381806
H 0.646368 -0.539995 -1.762330
5
Structure 2045 | Energy: -10.835403 Hartree
N -0.827845 -3.082584 -1.125329
N -0.246254 -3.763393 -0.489451
O 0.488325 -0.866194 -0.874245
H 1.304088 -0.756024 -0.381806
H 0.646368 -0.539995 -1.762330
5
Structure 2046 | Energy: -10.835403 Hartree
N -0.827845 -3.082584 -1.125329
N -0.246254 -3.763393 -0.489451
O 1.710169 -2.243815 0.266212
H 1.858425 -1.341691 -0.024121
H 2.517587 -2.733103 0.096649
5
Structure 2047 | Energy: -10.835160 Hartree
N -0.827845 -3.082584 -1.125329
N -0.246254 -3.763393 -0.489451
O 2.057515 -2.501696 0.726724
H 2.205771 -1.599571 0.436392
H 2.864934 -2.990983 0.557162
5
Structure 2048 | Energy: -10.833932 Hartree
N 2.320512 0.653220 -0.875339
N 2.585117 -0.341920 -1.257137
O 2.057515 -2.501696 0.726724
H 2.205771 -1.599571 0.436392
H 2.864934 -2.990983 0.557162
5
Structure 2049 | Energy: -10.834342 Hartree
N 2.513903 0.100374 -1.609133
N 2.391726 0.210926 -0.523343
O 2.057515 -2.501696 0.726724
H 2.205771 -1.599571 0.436392
H 2.864934 -2.990983 0.557162
5
Structure 2050 | Energy: -10.834909 Hartree
N 2.513903 0.100374 -1.609133
N 2.391726 0.210926 -0.523343
O 1.513436 -2.594525 1.003080
H 1.661693 -1.692400 0.712747
H 2.320855 -3.083813 0.833518
5
Structure 2051 | Energy: -10.835245 Hartree
N 1.627998 -2.626701 0.434452
N 1.505821 -2.516150 1.520242
O 2.399341 0.132550 -1.040505
H 2.547597 1.034675 -1.330838
H 3.206760 -0.356737 -1.210068
5
Structure 2052 | Energy: -10.834909 Hartree
N 2.513903 0.100374 -1.609133
N 2.391726 0.210926 -0.523343
O 1.513436 -2.594525 1.003080
H 1.661693 -1.692400 0.712747
H 2.320855 -3.083813 0.833518
5
Structure 2053 | Energy: -10.834904 Hartree
N 2.499727 0.056735 -1.576431
N 2.377549 0.167287 -0.490642
O 1.513436 -2.594525 1.003080
H 1.661693 -1.692400 0.712747
H 2.320855 -3.083813 0.833518
5
Structure 2054 | Energy: -10.835385 Hartree
N 2.072807 -0.400965 -1.883134
N 1.950629 -0.290414 -0.797344
O 1.513436 -2.594525 1.003080
H 1.661693 -1.692400 0.712747
H 2.320855 -3.083813 0.833518
5
Structure 2055 | Energy: -10.835385 Hartree
N 3.362073 0.513607 1.616990
N 2.585366 0.159852 0.925852
O 1.513436 -2.594525 1.003080
H 1.661693 -1.692400 0.712747
H 2.320855 -3.083813 0.833518
5
Structure 2056 | Energy: -10.835193 Hartree
N 1.955263 -2.394548 1.322916
N 1.178556 -2.748303 0.631778
O 2.920247 0.313630 1.297154
H 3.068503 1.215755 1.006821
H 3.727665 -0.175658 1.127591
5
Structure 2057 | Energy: -10.835118 Hartree
N 1.608425 -2.576297 1.835954
N 0.831718 -2.930052 1.144816
O 2.920247 0.313630 1.297154
H 3.068503 1.215755 1.006821
H 3.727665 -0.175658 1.127591
5
Structure 2058 | Energy: -10.834911 Hartree
N 1.608425 -2.576297 1.835954
N 0.831718 -2.930052 1.144816
O 2.730335 0.554730 2.650083
H 2.878591 1.456855 2.359750
H 3.537753 0.065442 2.480521
5
Structure 2059 | Energy: -10.834956 Hartree
N 0.814987 -2.922082 1.160386
N 1.625156 -2.584267 1.820383
O 2.730335 0.554730 2.650083
H 2.878591 1.456855 2.359750
H 3.537753 0.065442 2.480521
5
Structure 2060 | Energy: -10.834898 Hartree
N 0.814987 -2.922082 1.160386
N 1.625156 -2.584267 1.820383
O 2.753258 0.539896 2.583327
H 2.903479 0.366879 3.514778
H 3.149022 1.390858 2.385050
5
Structure 2061 | Energy: -10.834776 Hartree
N 0.814987 -2.922082 1.160386
N 1.625156 -2.584267 1.820383
O 2.753257 0.539895 2.583329
H 3.617032 0.937132 2.456057
H 2.435494 0.820624 3.443733
5
Structure 2062 | Energy: -10.834381 Hartree
N 0.359856 1.812688 -0.672377
N 0.540787 0.977373 0.017261
O 2.753257 0.539895 2.583329
H 3.617032 0.937132 2.456057
H 2.435494 0.820624 3.443733
5
Structure 2063 | Energy: -10.834518 Hartree
N 0.359856 1.812688 -0.672377
N 0.540787 0.977373 0.017261
O -1.164059 0.468652 2.995637
H -1.109179 1.201925 3.611592
H -2.087275 0.214907 2.937622
5
Structure 2064 | Energy: -10.834424 Hartree
N 0.359856 1.812688 -0.672377
N 0.540787 0.977373 0.017261
O -1.172008 0.459691 3.060362
H -1.524259 1.313760 3.318406
H -1.546030 0.245301 2.203494
5
Structure 2065 | Energy: -10.835344 Hartree
N -1.303111 0.913141 2.682037
N -1.122180 0.077825 3.371674
O 0.490959 1.359238 -0.294052
H 0.138709 2.213308 -0.036008
H 0.116937 1.144848 -1.150920
5
Structure 2066 | Energy: -10.834841 Hartree
N -1.303111 0.913141 2.682037
N -1.122180 0.077825 3.371674
O 0.483598 1.427911 -0.284352
H 0.709902 1.312167 -1.209280
H -0.337416 0.956020 -0.131601
5
Structure 2067 | Energy: -10.834882 Hartree
N -1.303111 0.913141 2.682037
N -1.122180 0.077825 3.371674
O 0.419820 1.393411 -0.155704
H 0.646124 1.277668 -1.080632
H -0.401194 0.921521 -0.002953
5
Structure 2068 | Energy: -10.834882 Hartree
N -1.465819 1.172820 2.609731
N -2.257233 1.889359 2.867266
O 0.419820 1.393411 -0.155704
H 0.646124 1.277668 -1.080632
H -0.401194 0.921521 -0.002953
5
Structure 2069 | Energy: -10.834886 Hartree
N -1.620879 1.188802 3.094097
N -2.102173 1.873377 2.382900
O 0.419820 1.393411 -0.155704
H 0.646124 1.277668 -1.080632
H -0.401194 0.921521 -0.002953
5
Structure 2070 | Energy: -10.834334 Hartree
N 0.627191 1.018244 0.156689
N 0.145897 1.702818 -0.554509
O -1.828250 1.563970 2.781704
H -1.601946 1.448226 1.856776
H -2.649264 1.092079 2.934455
5
Structure 2071 | Energy: -10.834281 Hartree
N 0.627191 1.018244 0.156689
N 0.145897 1.702818 -0.554509
O -1.768732 1.559454 2.703936
H -1.542428 1.443710 1.779008
H -2.589747 1.087563 2.856687
5
Structure 2072 | Energy: -10.834957 Hartree
N 1.083248 2.368258 0.817772
N 0.828455 3.435109 0.763016
O -1.768732 1.559454 2.703936
H -1.542428 1.443710 1.779008
H -2.589747 1.087563 2.856687
5
Structure 2073 | Energy: -10.834310 Hartree
N -1.674611 0.993149 2.688108
N -1.929405 2.059999 2.633353
O 0.989128 2.934564 0.833600
H 1.215432 2.818820 -0.091328
H 0.168113 2.462673 0.986351
5
Structure 2074 | Energy: -10.834246 Hartree
N -1.674611 0.993149 2.688108
N -1.929405 2.059999 2.633353
O 0.992162 2.910056 0.738755
H 0.174555 2.410537 0.784615
H 1.160835 3.259947 1.615797
5
Structure 2075 | Energy: -10.835022 Hartree
N -1.674611 0.993149 2.688108
N -1.929405 2.059999 2.633353
O 0.979592 2.845635 0.771684
H 0.625886 3.052864 1.638892
H 0.909016 3.640115 0.238863
5
Structure 2076 | Energy: -10.835030 Hartree
N -1.674611 0.993149 2.688108
N -1.929405 2.059999 2.633353
O 0.959495 2.835614 0.785313
H 0.605789 3.042844 1.652522
H 0.888919 3.630094 0.252492
5
Structure 2077 | Energy: -10.834748 Hartree
N -1.674611 0.993149 2.688108
N -1.929405 2.059999 2.633353
O -0.359616 1.902674 -0.600363
H 0.024015 1.781041 0.270347
H -0.050132 2.748020 -0.931553
5
Structure 2078 | Energy: -10.834747 Hartree
N -1.692816 0.988028 2.727818
N -1.947610 2.054879 2.673063
O -0.359616 1.902674 -0.600363
H 0.024015 1.781041 0.270347
H -0.050132 2.748020 -0.931553
5
Structure 2079 | Energy: -10.834614 Hartree
N -1.692816 0.988028 2.727818
N -1.947610 2.054879 2.673063
O -0.863981 1.362735 -0.792487
H -0.480350 1.241102 0.078222
H -0.554497 2.208082 -1.123677
5
Structure 2080 | Energy: -10.834601 Hartree
N -1.672301 0.985591 2.656422
N -1.927094 2.052442 2.601666
O -0.863981 1.362735 -0.792487
H -0.480350 1.241102 0.078222
H -0.554497 2.208082 -1.123677
5
Structure 2081 | Energy: -10.834808 Hartree
N -1.672301 0.985591 2.656422
N -1.927094 2.052442 2.601666
O -1.137317 1.036567 -0.825715
H -0.958099 0.620326 0.019700
H -0.329345 1.471522 -1.105131
5
Structure 2082 | Energy: -10.835062 Hartree
N -1.672301 0.985591 2.656422
N -1.927094 2.052442 2.601666
O -1.137318 1.036567 -0.825715
H -0.764447 0.320195 -0.308143
H -0.522991 1.771643 -0.777299
5
Structure 2083 | Energy: -10.835282 Hartree
N -3.759500 0.945988 1.459801
N -3.614093 2.020432 1.634486
O -1.137318 1.036567 -0.825715
H -0.764447 0.320195 -0.308143
H -0.522991 1.771643 -0.777299
5
Structure 2084 | Energy: -10.834032 Hartree
N -3.328287 1.286028 1.180930
N -4.045307 1.680391 1.913356
O -1.137318 1.036567 -0.825715
H -0.764447 0.320195 -0.308143
H -0.522991 1.771643 -0.777299
5
Structure 2085 | Energy: -10.831381 Hartree
N -3.225353 1.189071 0.505027
N -3.942373 1.583434 1.237454
O -1.137318 1.036567 -0.825715
H -0.764447 0.320195 -0.308143
H -0.522991 1.771643 -0.777299
5
Structure 2086 | Energy: -10.831943 Hartree
N -1.336456 -0.002280 1.477090
N -1.787265 -0.618924 2.266147
O -1.137318 1.036567 -0.825715
H -0.764447 0.320195 -0.308143
H -0.522991 1.771643 -0.777299
5
Structure 2087 | Energy: -10.830658 Hartree
N -0.856676 1.345935 -1.188574
N -1.307485 0.729292 -0.399517
O -1.617098 -0.311649 1.839949
H -1.244226 -1.028021 2.357521
H -1.002770 0.423427 1.888365
5
Structure 2088 | Energy: -10.831943 Hartree
N -1.336456 -0.002280 1.477090
N -1.787265 -0.618924 2.266147
O -1.137318 1.036567 -0.825715
H -0.764447 0.320195 -0.308143
H -0.522991 1.771643 -0.777299
5
Structure 2089 | Energy: -10.835762 Hartree
N -1.336456 -0.002280 1.477090
N -1.787265 -0.618924 2.266147
O -1.085561 1.588810 -1.314670
H -0.712690 0.872438 -0.797099
H -0.471233 2.323886 -1.266254
5
Structure 2090 | Energy: -10.835172 Hartree
N -1.336456 -0.002280 1.477090
N -1.787265 -0.618924 2.266147
O -0.891173 1.493623 -0.874627
H -0.518302 0.777251 -0.357056
H -0.276846 2.228699 -0.826211
5
Structure 2091 | Energy: -10.835320 Hartree
N -1.344372 -0.021968 1.506694
N -1.795182 -0.638611 2.295751
O -0.891173 1.493623 -0.874627
H -0.518302 0.777251 -0.357056
H -0.276846 2.228699 -0.826211
5
Structure 2092 | Energy: -10.835657 Hartree
N -1.344372 -0.021968 1.506694
N -1.795182 -0.638611 2.295751
O -1.220934 1.824549 -1.441290
H -0.848062 1.108177 -0.923719
H -0.606606 2.559625 -1.392875
5
Structure 2093 | Energy: -10.835758 Hartree
N -1.334597 0.030186 1.426600
N -1.785406 -0.586458 2.215657
O -1.220934 1.824549 -1.441290
H -0.848062 1.108177 -0.923719
H -0.606606 2.559625 -1.392875
5
Structure 2094 | Energy: -10.834258 Hartree
N -1.925236 -0.025653 1.498052
N -1.194768 -0.530619 2.144206
O -1.220934 1.824549 -1.441290
H -0.848062 1.108177 -0.923719
H -0.606606 2.559625 -1.392875
5
Structure 2095 | Energy: -10.834331 Hartree
N -1.925236 -0.025653 1.498052
N -1.194768 -0.530619 2.144206
O -0.981441 2.858927 -1.220469
H -0.608570 2.142554 -0.702898
H -0.367114 3.594002 -1.172053
5
Structure 2096 | Energy: -10.835051 Hartree
N -2.657528 -0.039548 1.078218
N -3.569341 -0.575674 0.782829
O -0.981441 2.858927 -1.220469
H -0.608570 2.142554 -0.702898
H -0.367114 3.594002 -1.172053
5
Structure 2097 | Energy: -10.835118 Hartree
N -2.602694 0.039865 1.025086
N -3.514506 -0.496261 0.729696
O -0.981441 2.858927 -1.220469
H -0.608570 2.142554 -0.702898
H -0.367114 3.594002 -1.172053
5
Structure 2098 | Energy: -10.835411 Hartree
N -2.314779 0.619102 1.122209
N -3.226592 0.082976 0.826819
O -0.981441 2.858927 -1.220469
H -0.608570 2.142554 -0.702898
H -0.367114 3.594002 -1.172053
5
Structure 2099 | Energy: -10.834171 Hartree
N -2.774495 0.065853 1.443744
N -2.766876 0.636225 0.505284
O -0.981441 2.858927 -1.220469
H -0.608570 2.142554 -0.702898
H -0.367114 3.594002 -1.172053
5
Structure 2100 | Energy: -10.836014 Hartree
N -1.479189 -0.973614 0.586416
N -0.843153 -0.108832 0.354686
O -0.981441 2.858927 -1.220469
H -0.608570 2.142554 -0.702898
H -0.367114 3.594002 -1.172053
5
Structure 2101 | Energy: -10.835483 Hartree
N -1.479189 -0.973614 0.586416
N -0.843153 -0.108832 0.354686
O -2.447221 2.926465 -0.409272
H -1.754658 2.310536 -0.162106
H -2.081493 3.810056 -0.334521
5
Structure 2102 | Energy: -10.835033 Hartree
N -1.271942 -1.482961 -0.023446
N -0.635906 -0.618179 -0.255176
O -2.447221 2.926465 -0.409272
H -1.754658 2.310536 -0.162106
H -2.081493 3.810056 -0.334521
5
Structure 2103 | Energy: -10.834348 Hartree
N -2.706024 2.509050 -0.275395
N -2.069988 3.373832 -0.507125
O -1.013139 -1.065547 -0.157324
H -0.320576 -1.681475 0.089842
H -0.647412 -0.181955 -0.082572
5
Structure 2104 | Energy: -10.835033 Hartree
N -1.271942 -1.482961 -0.023446
N -0.635906 -0.618179 -0.255176
O -2.447221 2.926465 -0.409272
H -1.754658 2.310536 -0.162106
H -2.081493 3.810056 -0.334521
5
Structure 2105 | Energy: -10.835012 Hartree
N -1.259143 -1.518591 -0.021198
N -0.623107 -0.653808 -0.252927
O -2.447221 2.926465 -0.409272
H -1.754658 2.310536 -0.162106
H -2.081493 3.810056 -0.334521
5
Structure 2106 | Energy: -10.834920 Hartree
N -0.878373 -1.153576 -0.118515
N -0.242337 -0.288794 -0.350244
O -2.447221 2.926465 -0.409272
H -1.754658 2.310536 -0.162106
H -2.081493 3.810056 -0.334521
5
Structure 2107 | Energy: -10.834920 Hartree
N -0.878373 -1.153576 -0.118515
N -0.242337 -0.288794 -0.350244
O -3.622144 -0.062627 2.427941
H -2.880631 -0.537247 2.047155
H -4.116898 -0.688638 2.960301
5
Structure 2108 | Energy: -10.834920 Hartree
N -0.041893 -0.802054 1.072237
N 0.176052 -0.112970 0.245344
O -3.622144 -0.062627 2.427941
H -2.880631 -0.537247 2.047155
H -4.116898 -0.688638 2.960301
5
Structure 2109 | Energy: -10.834617 Hartree
N -0.041893 -0.802054 1.072237
N 0.176052 -0.112970 0.245344
O -2.606408 1.163226 3.327473
H -2.333346 0.643258 2.569072
H -3.481006 0.860445 3.579426
5
Structure 2110 | Energy: -10.834620 Hartree
N -0.041893 -0.802054 1.072237
N 0.176052 -0.112970 0.245344
O 4.164743 -0.591333 0.954497
H 3.322191 -0.511414 0.503032
H 4.833594 -0.220781 0.375352
5
Structure 2111 | Energy: -10.834675 Hartree
N 4.046052 -0.910669 1.310277
N 4.263996 -0.221586 0.483384
O 0.076799 -0.482717 0.716456
H -0.765754 -0.402799 0.264991
H 0.745649 -0.112166 0.137312
5
Structure 2112 | Energy: -10.834675 Hartree
N 3.857657 0.319155 1.879575
N 4.143157 0.567246 0.848542
O 0.076799 -0.482717 0.716456
H -0.765754 -0.402799 0.264991
H 0.745649 -0.112166 0.137312
5
Structure 2113 | Energy: -10.834628 Hartree
N -3.367430 -2.612846 0.514975
N -3.895934 -1.814060 1.052295
O 0.076799 -0.482717 0.716456
H -0.765754 -0.402799 0.264991
H 0.745649 -0.112166 0.137312
5
Structure 2114 | Energy: -10.834692 Hartree
N -3.427405 -1.251163 2.561605
N -3.949392 -0.539048 1.908528
O 0.076799 -0.482717 0.716456
H -0.765754 -0.402799 0.264991
H 0.745649 -0.112166 0.137312
5
Structure 2115 | Energy: -10.834692 Hartree
N -3.427405 -1.251163 2.561605
N -3.949392 -0.539048 1.908528
O 0.076799 0.653437 1.955320
H -0.765754 1.110116 1.914675
H 0.745649 1.262409 1.636150
5
Structure 2116 | Energy: -10.834618 Hartree
N -3.886424 1.565384 1.610590
N -4.117580 0.492956 1.560069
O 0.076799 0.653437 1.955320
H -0.765754 1.110116 1.914675
H 0.745649 1.262409 1.636150
5
Structure 2117 | Energy: -10.834692 Hartree
N 0.182658 1.249278 1.960448
N -0.048499 0.176849 1.909927
O -3.992283 0.969543 1.605462
H -4.834836 1.426222 1.564817
H -3.323432 1.578516 1.286292
5
Structure 2118 | Energy: -10.834683 Hartree
N 0.222557 1.246178 1.963878
N -0.008599 0.173750 1.913358
O -3.992283 0.969543 1.605462
H -4.834836 1.426222 1.564817
H -3.323432 1.578516 1.286292
5
Structure 2119 | Energy: -10.834407 Hartree
N -0.420063 0.668398 2.087013
N 0.634022 0.751530 1.790223
O -3.992283 0.969543 1.605462
H -4.834836 1.426222 1.564817
H -3.323432 1.578516 1.286292
5
Structure 2120 | Energy: -10.834236 Hartree
N -0.420063 0.668398 2.087013
N 0.634022 0.751530 1.790223
O -3.992284 0.969543 1.605461
H -4.292617 1.708298 2.138511
H -3.865632 1.296449 0.712618
5
Structure 2121 | Energy: -10.834245 Hartree
N -0.382419 0.665474 2.090250
N 0.671665 0.748606 1.793460
O -3.992284 0.969543 1.605461
H -4.292617 1.708298 2.138511
H -3.865632 1.296449 0.712618
5
Structure 2122 | Energy: -10.834255 Hartree
N -0.382419 0.665474 2.090250
N 0.671665 0.748606 1.793460
O -4.039300 0.973195 1.601419
H -4.339633 1.711951 2.134469
H -3.912648 1.300102 0.708575
5
Structure 2123 | Energy: -10.834145 Hartree
N -0.593299 -0.179833 2.233522
N 0.497972 -0.073651 2.296300
O -4.039300 0.973195 1.601419
H -4.339633 1.711951 2.134469
H -3.912648 1.300102 0.708575
5
Structure 2124 | Energy: -10.833630 Hartree
N -1.482863 -0.328116 1.793829
N -0.391591 -0.221935 1.856607
O -4.039300 0.973195 1.601419
H -4.339633 1.711951 2.134469
H -3.912648 1.300102 0.708575
5
Structure 2125 | Energy: -10.835843 Hartree
N -4.594654 0.979732 1.549898
N -3.503383 1.085913 1.612676
O -0.927509 -0.334653 1.845350
H -1.227842 0.404103 2.378400
H -0.800857 -0.007746 0.952507
5
Structure 2126 | Energy: -10.835843 Hartree
N -3.991027 0.397481 -0.465858
N -3.018882 0.618570 -0.005269
O -0.927509 -0.334653 1.845350
H -1.227842 0.404103 2.378400
H -0.800857 -0.007746 0.952507
5
Structure 2127 | Energy: -10.835532 Hartree
N -1.447303 1.879109 -1.357001
N -1.305203 1.700749 -0.282718
O -0.927509 -0.334653 1.845350
H -1.227842 0.404103 2.378400
H -0.800857 -0.007746 0.952507
5
Structure 2128 | Energy: -10.835220 Hartree
N -1.447303 1.879109 -1.357001
N -1.305203 1.700749 -0.282718
O -0.940659 -0.272801 1.766122
H -1.240992 0.465954 2.299172
H -0.814007 0.054105 0.873278
5
Structure 2129 | Energy: -10.833303 Hartree
N -1.021427 -0.123994 1.208849
N -0.879327 -0.302354 2.283132
O -1.366535 1.730301 -0.799728
H -1.666868 2.469057 -0.266677
H -1.239883 2.057208 -1.692571
5
Structure 2130 | Energy: -10.835056 Hartree
N -1.021427 -0.123994 1.208849
N -0.879327 -0.302354 2.283132
O -1.368294 1.830049 -0.868666
H -1.921126 1.046202 -0.860694
H -0.957705 1.896859 -0.004357
5
Structure 2131 | Energy: -10.835188 Hartree
N -1.021427 -0.123994 1.208849
N -0.879327 -0.302354 2.283132
O -1.368294 1.830049 -0.868666
H -1.735523 0.945048 -0.913580
H -1.143301 1.998010 0.048528
5
Structure 2132 | Energy: -10.835188 Hartree
N -1.094245 -0.253463 1.090554
N -1.413938 -1.252891 1.414634
O -1.368294 1.830049 -0.868666
H -1.735523 0.945048 -0.913580
H -1.143301 1.998010 0.048528
5
Structure 2133 | Energy: -10.834927 Hartree
N -1.096671 -0.202951 1.049391
N -1.416364 -1.202380 1.373471
O -1.368294 1.830049 -0.868666
H -1.735523 0.945048 -0.913580
H -1.143301 1.998010 0.048528
5
Structure 2134 | Energy: -10.834795 Hartree
N -1.097603 -0.183558 1.033586
N -1.417296 -1.182987 1.357667
O -1.368294 1.830049 -0.868666
H -1.735523 0.945048 -0.913580
H -1.143301 1.998010 0.048528
5
Structure 2135 | Energy: -10.833406 Hartree
N -1.216407 2.289643 -0.981899
N -1.536100 1.290214 -0.657819
O -1.249491 -0.643152 1.146819
H -1.616719 -1.528153 1.101905
H -1.024498 -0.475191 2.064014
5
Structure 2136 | Energy: -10.834422 Hartree
N -1.216407 2.289643 -0.981899
N -1.536100 1.290214 -0.657819
O -0.526502 -1.465101 1.118480
H -0.893731 -2.350103 1.073566
H -0.301509 -1.297140 2.035675
5
Structure 2137 | Energy: -10.834970 Hartree
N -0.374614 -1.005508 1.005247
N -0.694307 -2.004936 1.329327
O -1.368294 1.830049 -0.868666
H -1.735523 0.945048 -0.913580
H -1.143301 1.998010 0.048528
5
Structure 2138 | Energy: -10.834974 Hartree
N -3.263733 0.525254 1.823391
N -3.591346 -0.406738 2.303131
O -1.368294 1.830049 -0.868666
H -1.735523 0.945048 -0.913580
H -1.143301 1.998010 0.048528
5
Structure 2139 | Energy: -10.834476 Hartree
N -1.212446 2.255924 -1.059729
N -1.540060 1.323933 -0.579989
O -3.419581 0.099379 2.014454
H -3.786810 -0.785623 1.969540
H -3.194588 0.267339 2.931649
5
Structure 2140 | Energy: -10.834476 Hartree
N -1.212446 2.255924 -1.059729
N -1.540060 1.323933 -0.579989
O -4.057598 -1.005253 -0.567215
H -4.220495 -1.536483 0.214681
H -4.247622 -1.555831 -1.329339
5
Structure 2141 | Energy: -10.834665 Hartree
N -1.212446 2.255924 -1.059729
N -1.540060 1.323933 -0.579989
O -4.414001 -0.995284 -1.013249
H -4.576898 -1.526514 -0.231353
H -4.604024 -1.545862 -1.775374
5
Structure 2142 | Energy: -10.834700 Hartree
N -1.212446 2.255924 -1.059729
N -1.540060 1.323933 -0.579989
O -4.442634 -0.996024 -0.992110
H -4.543877 -1.316076 -1.890675
H -4.182579 -1.744542 -0.451581
5
Structure 2143 | Energy: -10.834692 Hartree
N -1.212446 2.255924 -1.059729
N -1.540060 1.323933 -0.579989
O -4.465329 -1.017147 -0.993537
H -4.566571 -1.337199 -1.892102
H -4.205274 -1.765665 -0.453008
5
Structure 2144 | Energy: -10.834683 Hartree
N -1.212446 2.255924 -1.059729
N -1.540060 1.323933 -0.579989
O -4.492175 -1.042134 -0.995225
H -4.593418 -1.362187 -1.893790
H -4.232120 -1.790652 -0.454697
5
Structure 2145 | Energy: -10.834990 Hartree
N -1.517676 2.289482 -0.998655
N -1.234830 1.290375 -0.641063
O -4.492175 -1.042134 -0.995225
H -4.593418 -1.362187 -1.893790
H -4.232120 -1.790652 -0.454697
5
Structure 2146 | Energy: -10.835047 Hartree
N -1.595439 2.217105 -1.003546
N -1.312592 1.217998 -0.645954
O -4.492175 -1.042134 -0.995225
H -4.593418 -1.362187 -1.893790
H -4.232120 -1.790652 -0.454697
5
Structure 2147 | Energy: -10.835014 Hartree
N -1.595439 2.217105 -1.003546
N -1.312592 1.217998 -0.645954
O -2.958844 -0.012500 -4.233233
H -2.620903 -0.905679 -4.323394
H -3.909931 -0.077995 -4.127293
5
Structure 2148 | Energy: -10.835002 Hartree
N -1.595439 2.217105 -1.003546
N -1.312592 1.217998 -0.645954
O -2.967498 -0.022529 -4.252392
H -2.629557 -0.915708 -4.342554
H -3.918585 -0.088024 -4.146452
5
Structure 2149 | Energy: -10.834798 Hartree
N -1.466598 2.649284 -0.656130
N -1.183751 1.650177 -0.298539
O -2.967498 -0.022529 -4.252392
H -2.629557 -0.915708 -4.342554
H -3.918585 -0.088024 -4.146452
5
Structure 2150 | Energy: -10.834819 Hartree
N -1.489122 2.619380 -0.706834
N -1.206276 1.620273 -0.349242
O -2.967498 -0.022529 -4.252392
H -2.629557 -0.915708 -4.342554
H -3.918585 -0.088024 -4.146452
5
Structure 2151 | Energy: -10.834817 Hartree
N -1.489122 2.619380 -0.706834
N -1.206276 1.620273 -0.349242
O -4.465660 -0.041364 -3.114894
H -4.134064 -0.860363 -3.488241
H -5.198757 -0.267898 -2.539282
5
Structure 2152 | Energy: -10.834485 Hartree
N -3.697759 -3.131672 0.405862
N -2.792843 -2.510977 0.450059
O -4.465660 -0.041364 -3.114894
H -4.134064 -0.860363 -3.488241
H -5.198757 -0.267898 -2.539282
5
Structure 2153 | Energy: -10.834472 Hartree
N -3.661187 -3.359077 0.022141
N -2.756271 -2.738382 0.066339
O -4.465660 -0.041364 -3.114894
H -4.134064 -0.860363 -3.488241
H -5.198757 -0.267898 -2.539282
5
Structure 2154 | Energy: -10.834366 Hartree
N -3.661187 -3.359077 0.022141
N -2.756271 -2.738382 0.066339
O -4.506907 -0.059994 -3.149541
H -3.806733 -0.712522 -3.213295
H -4.871413 -0.120051 -2.264325
5
Structure 2155 | Energy: -10.834367 Hartree
N -3.651278 -3.381918 0.046522
N -2.746362 -2.761223 0.090720
O -4.506907 -0.059994 -3.149541
H -3.806733 -0.712522 -3.213295
H -4.871413 -0.120051 -2.264325
5
Structure 2156 | Energy: -10.834902 Hartree
N -4.940583 -0.410213 -3.125676
N -4.035667 0.210482 -3.081478
O -3.217602 -3.031699 0.022657
H -2.517427 -3.684227 -0.041097
H -3.582107 -3.091756 0.907873
5
Structure 2157 | Energy: -10.834924 Hartree
N -4.940583 -0.410213 -3.125676
N -4.035667 0.210482 -3.081478
O -3.217602 -3.031699 0.022657
H -2.311968 -3.245220 0.255762
H -3.787559 -3.530748 0.611025
5
Structure 2158 | Energy: -10.834928 Hartree
N -4.939176 -0.406174 -3.168775
N -4.037075 0.206443 -3.038380
O -3.217602 -3.031699 0.022657
H -2.311968 -3.245220 0.255762
H -3.787559 -3.530748 0.611025
5
Structure 2159 | Energy: -10.834906 Hartree
N -4.491940 0.006577 -2.838775
N -3.589839 0.619193 -2.708380
O -3.217602 -3.031699 0.022657
H -2.311968 -3.245220 0.255762
H -3.787559 -3.530748 0.611025
5
Structure 2160 | Energy: -10.834582 Hartree
N -2.762260 -0.711553 3.788813
N -3.503798 -1.302939 4.342413
O -3.217602 -3.031699 0.022657
H -2.311968 -3.245220 0.255762
H -3.787559 -3.530748 0.611025
5
Structure 2161 | Energy: -10.834616 Hartree
N -2.762260 -0.711553 3.788813
N -3.503798 -1.302939 4.342413
O -3.607688 -3.468500 0.196522
H -2.702054 -3.682020 0.429627
H -4.177645 -3.967549 0.784891
5
Structure 2162 | Energy: -10.834616 Hartree
N -2.762260 -0.711553 3.788813
N -3.503798 -1.302939 4.342413
O -4.018881 -3.796432 0.503501
H -3.625083 -4.418148 1.118720
H -3.305696 -3.272157 0.133932
5
Structure 2163 | Energy: -10.834467 Hartree
N -0.090934 -1.895650 2.278162
N -0.443803 -2.460199 3.151578
O -4.018881 -3.796432 0.503501
H -3.625083 -4.418148 1.118720
H -3.305696 -3.272157 0.133932
5
Structure 2164 | Energy: -10.834459 Hartree
N -0.000703 -3.696263 -1.935831
N 0.095699 -4.678824 -1.454822
O -4.018881 -3.796432 0.503501
H -3.625083 -4.418148 1.118720
H -3.305696 -3.272157 0.133932
5
Structure 2165 | Energy: -10.834450 Hartree
N -0.000703 -3.696263 -1.935831
N 0.095699 -4.678824 -1.454822
O -4.324945 -3.696177 -0.209764
H -3.931146 -4.317893 0.405455
H -3.611760 -3.171903 -0.579333
5
Structure 2166 | Energy: -10.834884 Hartree
N -4.311206 -3.210349 -0.436523
N -4.214804 -4.192910 0.044486
O -0.014442 -4.182091 -1.709072
H 0.379357 -4.803807 -1.093853
H 0.698744 -3.657816 -2.078640
5
Structure 2167 | Energy: -10.835258 Hartree
N -3.893282 -3.132143 -1.712374
N -3.796880 -4.114704 -1.231365
O -0.014442 -4.182091 -1.709072
H 0.379357 -4.803807 -1.093853
H 0.698744 -3.657816 -2.078640
5
Structure 2168 | Energy: -10.835258 Hartree
N -3.893282 -3.132143 -1.712374
N -3.796880 -4.114704 -1.231365
O -0.142985 -2.871931 -2.350456
H 0.099786 -1.954313 -2.488812
H 0.669975 -3.364598 -2.222184
5
Structure 2169 | Energy: -10.834369 Hartree
N 3.379483 -1.659500 -1.089355
N 3.920041 -2.265623 -1.828612
O -0.142985 -2.871931 -2.350456
H 0.099786 -1.954313 -2.488812
H 0.669975 -3.364598 -2.222184
5
Structure 2170 | Energy: -10.834440 Hartree
N 3.379483 -1.659500 -1.089355
N 3.920041 -2.265623 -1.828612
O -0.097441 -2.909661 -2.341589
H -0.729860 -2.204892 -2.494719
H 0.776751 -2.515163 -2.357011
5
Structure 2171 | Energy: -10.834804 Hartree
N -0.354192 -2.545092 -1.981391
N 0.186366 -3.151215 -2.720648
O 3.636234 -2.024069 -1.449552
H 3.003815 -1.319300 -1.602682
H 4.510426 -1.629571 -1.464974
5
Structure 2172 | Energy: -10.835343 Hartree
N -0.354192 -2.545092 -1.981391
N 0.186366 -3.151215 -2.720648
O 0.236124 0.285063 -0.024695
H -0.626347 -0.032824 -0.298910
H 0.111936 1.162549 0.342283
5
Structure 2173 | Energy: -10.835343 Hartree
N -0.512375 -2.992427 -0.965290
N -0.114084 -4.000874 -0.790685
O 0.236124 0.285063 -0.024695
H -0.626347 -0.032824 -0.298910
H 0.111936 1.162549 0.342283
5
Structure 2174 | Energy: -10.835018 Hartree
N -0.883872 -3.343647 -1.484478
N -0.485581 -4.352094 -1.309873
O 0.236124 0.285063 -0.024695
H -0.626347 -0.032824 -0.298910
H 0.111936 1.162549 0.342283
5
Structure 2175 | Energy: -10.834678 Hartree
N -0.066856 -4.076922 -1.253779
N 0.331436 -5.085369 -1.079173
O 0.236124 0.285063 -0.024695
H -0.626347 -0.032824 -0.298910
H 0.111936 1.162549 0.342283
5
Structure 2176 | Energy: -10.834678 Hartree
N 3.787562 2.163670 2.093664
N 4.680785 1.956554 2.698102
O 0.236124 0.285063 -0.024695
H -0.626347 -0.032824 -0.298910
H 0.111936 1.162549 0.342283
5
Structure 2177 | Energy: -10.834710 Hartree
N 3.787562 2.163670 2.093664
N 4.680785 1.956554 2.698102
O 0.341511 0.330401 0.038107
H -0.520960 0.012514 -0.236108
H 0.217324 1.207888 0.405085
5
Structure 2178 | Energy: -10.834688 Hartree
N 3.787562 2.163670 2.093664
N 4.680785 1.956554 2.698102
O 0.242088 0.401355 0.020309
H 0.268053 -0.550570 -0.094868
H 1.006367 0.644781 0.546331
5
Structure 2179 | Energy: -10.835027 Hartree
N 3.787562 2.163670 2.093664
N 4.680785 1.956554 2.698102
O 0.089275 4.104715 0.672227
H -0.610926 3.456712 0.572662
H 0.836074 3.656488 1.074050
5
Structure 2180 | Energy: -10.835029 Hartree
N 3.787562 2.163670 2.093664
N 4.680785 1.956554 2.698102
O 0.999213 4.916125 0.006365
H 0.157552 4.472628 -0.116196
H 1.551527 4.336363 0.534478
5
Structure 2181 | Energy: -10.834690 Hartree
N 3.787562 2.163670 2.093664
N 4.680785 1.956554 2.698102
O 1.025609 4.864397 -0.017964
H 0.093370 5.085211 -0.065653
H 1.196749 4.544802 0.870094
5
Structure 2182 | Energy: -10.834637 Hartree
N 3.792569 2.084947 2.070475
N 4.675778 2.035278 2.721292
O 1.025609 4.864397 -0.017964
H 0.093370 5.085211 -0.065653
H 1.196749 4.544802 0.870094
5
Structure 2183 | Energy: -10.834637 Hartree
N 3.792569 2.084947 2.070475
N 4.675778 2.035278 2.721292
O 0.787531 4.839882 0.303255
H 0.452368 5.122176 -0.550020
H 1.707492 4.597393 0.180990
5
Structure 2184 | Energy: -10.834407 Hartree
N 3.792569 2.084947 2.070475
N 4.675778 2.035278 2.721292
O 0.263851 -0.663221 3.293411
H -0.458507 -0.773282 3.914851
H 0.981922 -0.236743 3.765183
5
Structure 2185 | Energy: -10.834351 Hartree
N 3.847851 1.816590 2.090968
N 4.620496 2.303635 2.700799
O 0.263851 -0.663221 3.293411
H -0.458507 -0.773282 3.914851
H 0.981922 -0.236743 3.765183
5
Structure 2186 | Energy: -10.834872 Hartree
N 3.843790 2.118336 3.133455
N 4.621811 2.205955 2.363329
O 0.263851 -0.663221 3.293411
H -0.458507 -0.773282 3.914851
H 0.981922 -0.236743 3.765183
5
Structure 2187 | Energy: -10.834962 Hartree
N 3.868715 1.928988 3.086921
N 4.596886 2.395303 2.409864
O 0.263851 -0.663221 3.293411
H -0.458507 -0.773282 3.914851
H 0.981922 -0.236743 3.765183
5
Structure 2188 | Energy: -10.835316 Hartree
N 3.868715 1.928988 3.086921
N 4.596886 2.395303 2.409864
O 0.667403 0.289281 3.827807
H -0.054954 0.179220 4.449247
H 1.385474 0.715759 4.299579
5
Structure 2189 | Energy: -10.834935 Hartree
N 3.792259 2.431851 2.559639
N 4.520430 2.898166 1.882582
O 0.667403 0.289281 3.827807
H -0.054954 0.179220 4.449247
H 1.385474 0.715759 4.299579
5
Structure 2190 | Energy: -10.834632 Hartree
N 4.473626 2.221131 2.282978
N 3.839062 3.108885 2.159244
O 0.667403 0.289281 3.827807
H -0.054954 0.179220 4.449247
H 1.385474 0.715759 4.299579
5
Structure 2191 | Energy: -10.834658 Hartree
N 4.346527 1.985787 1.414970
N 3.711963 2.873540 1.291236
O 0.667403 0.289281 3.827807
H -0.054954 0.179220 4.449247
H 1.385474 0.715759 4.299579
5
Structure 2192 | Energy: -10.834653 Hartree
N 4.366861 1.998625 1.399633
N 3.732298 2.886379 1.275899
O 0.667403 0.289281 3.827807
H -0.054954 0.179220 4.449247
H 1.385474 0.715759 4.299579
5
Structure 2193 | Energy: -10.834810 Hartree
N 2.663596 -0.632500 -0.339246
N 2.007648 0.170924 -0.700259
O 0.667403 0.289281 3.827807
H -0.054954 0.179220 4.449247
H 1.385474 0.715759 4.299579
5
Structure 2194 | Energy: -10.834889 Hartree
N 2.441436 -0.981880 -0.134686
N 1.785488 -0.178457 -0.495699
O 0.667403 0.289281 3.827807
H -0.054954 0.179220 4.449247
H 1.385474 0.715759 4.299579
5
Structure 2195 | Energy: -10.834349 Hartree
N 0.995138 -0.094727 4.069482
N 0.339189 0.708697 3.708469
O 2.113702 -0.597873 -0.376361
H 1.391344 -0.707934 0.245079
H 2.831772 -0.171394 0.095411
5
Structure 2196 | Energy: -10.834344 Hartree
N 1.031743 -0.117180 3.963075
N 0.375795 0.686243 3.602062
O 2.113702 -0.597873 -0.376361
H 1.391344 -0.707934 0.245079
H 2.831772 -0.171394 0.095411
5
Structure 2197 | Energy: -10.834513 Hartree
N 0.688151 2.732456 2.269967
N -0.021004 2.924573 1.453708
O 2.113702 -0.597873 -0.376361
H 1.391344 -0.707934 0.245079
H 2.831772 -0.171394 0.095411
5
Structure 2198 | Energy: -10.834513 Hartree
N 2.712827 -2.294989 3.733041
N 2.465709 -3.250148 3.250659
O 2.113702 -0.597873 -0.376361
H 1.391344 -0.707934 0.245079
H 2.831772 -0.171394 0.095411
5
Structure 2199 | Energy: -10.834505 Hartree
N 2.712827 -2.294989 3.733041
N 2.465709 -3.250148 3.250659
O 1.905040 -1.034680 -0.172005
H 1.182682 -1.144741 0.449436
H 2.623110 -0.608201 0.299767
5
Structure 2200 | Energy: -10.834412 Hartree
N 2.967565 -1.679106 3.474186
N 2.720446 -2.634265 2.991804
O 1.905040 -1.034680 -0.172005
H 1.182682 -1.144741 0.449436
H 2.623110 -0.608201 0.299767
5
Structure 2201 | Energy: -10.834344 Hartree
N 2.967565 -1.679106 3.474186
N 2.720446 -2.634265 2.991804
O 2.153032 -1.311702 -0.209088
H 1.430674 -1.421763 0.412352
H 2.871102 -0.885224 0.262684
5
Structure 2202 | Energy: -10.834220 Hartree
N 2.967565 -1.679106 3.474186
N 2.720446 -2.634265 2.991804
O 2.944762 -1.221356 -0.038606
H 2.222404 -1.331418 0.582835
H 3.662832 -0.794878 0.433166
5
Structure 2203 | Energy: -10.834244 Hartree
N 2.967565 -1.679106 3.474186
N 2.720446 -2.634265 2.991804
O 2.945612 -1.213289 -0.065781
H 2.223255 -1.323351 0.555660
H 3.663683 -0.786811 0.405991
5
Structure 2204 | Energy: -10.834518 Hartree
N 2.696857 -2.416628 3.487551
N 2.449738 -3.371787 3.005169
O 2.945612 -1.213289 -0.065781
H 2.223255 -1.323351 0.555660
H 3.663683 -0.786811 0.405991
5
Structure 2205 | Energy: -10.834515 Hartree
N 2.701382 -2.395968 3.448010
N 2.454264 -3.351127 2.965628
O 2.945612 -1.213289 -0.065781
H 2.223255 -1.323351 0.555660
H 3.663683 -0.786811 0.405991
5
Structure 2206 | Energy: -10.835351 Hartree
N 3.068932 -0.718005 0.236579
N 2.821813 -1.673164 -0.245803
O 2.578063 -2.891252 3.145650
H 1.855705 -3.001313 3.767091
H 3.296133 -2.464774 3.617422
5
Structure 2207 | Energy: -10.835351 Hartree
N 3.068932 -0.718005 0.236579
N 2.821813 -1.673164 -0.245803
O 2.656238 -2.589092 3.298250
H 1.927267 -2.724714 3.906781
H 3.041408 -3.449334 3.120191
5
Structure 2208 | Energy: -10.835374 Hartree
N 3.066396 -0.729923 0.263938
N 2.819278 -1.685082 -0.218444
O 2.656238 -2.589092 3.298250
H 1.927267 -2.724714 3.906781
H 3.041408 -3.449334 3.120191
5
Structure 2209 | Energy: -10.834949 Hartree
N -0.264330 -2.665408 1.134451
N -0.733864 -3.198023 1.972275
O 2.656238 -2.589092 3.298250
H 1.927267 -2.724714 3.906781
H 3.041408 -3.449334 3.120191
5
Structure 2210 | Energy: -10.834898 Hartree
N -0.368320 -2.790407 1.284731
N -0.750923 -3.394987 2.117909
O 2.656238 -2.589092 3.298250
H 1.927267 -2.724714 3.906781
H 3.041408 -3.449334 3.120191
5
Structure 2211 | Energy: -10.835454 Hartree
N -0.599005 -2.912216 1.184215
N -0.520238 -3.273178 2.218425
O 2.656238 -2.589092 3.298250
H 1.927267 -2.724714 3.906781
H 3.041408 -3.449334 3.120191
5
Structure 2212 | Energy: -10.834540 Hartree
N 0.228774 -1.382313 0.819457
N -0.865924 -1.295100 0.830415
O -2.002668 0.489661 -1.408978
H -1.158876 0.582994 -1.855526
H -1.825235 0.475884 -0.466425
5
Structure 2213 | Energy: -10.834591 Hartree
N 0.228774 -1.382313 0.819457
N -0.865924 -1.295100 0.830415
O -2.037160 0.528517 -1.455749
H -1.193367 0.621850 -1.902297
H -1.859727 0.514740 -0.513196
5
Structure 2214 | Energy: -10.834591 Hartree
N 1.265413 -1.215686 -1.341463
N 0.581623 -1.062426 -2.187058
O -2.037160 0.528517 -1.455749
H -1.193367 0.621850 -1.902297
H -1.859727 0.514740 -0.513196
5
Structure 2215 | Energy: -10.833424 Hartree
N -0.155329 -1.950644 -0.404026
N -0.839120 -1.797384 -1.249620
O -2.037160 0.528517 -1.455749
H -1.193367 0.621850 -1.902297
H -1.859727 0.514740 -0.513196
5
Structure 2216 | Energy: -10.833424 Hartree
N -0.155329 -1.950644 -0.404026
N -0.839120 -1.797384 -1.249620
O 0.177367 0.032167 1.282798
H 0.811304 0.172536 0.576737
H -0.688903 0.252319 0.934678
5
Structure 2217 | Energy: -10.833117 Hartree
N -0.876177 -2.213828 0.898569
N -1.559967 -2.060568 0.052974
O 0.177367 0.032167 1.282798
H 0.811304 0.172536 0.576737
H -0.688903 0.252319 0.934678
5
Structure 2218 | Energy: -10.833117 Hartree
N 0.713672 -2.298371 0.519219
N 0.954950 -2.194304 -0.547103
O 0.177367 0.032167 1.282798
H 0.811304 0.172536 0.576737
H -0.688903 0.252319 0.934678
5
Structure 2219 | Energy: -10.832783 Hartree
N 0.713672 -2.298371 0.519219
N 0.954950 -2.194304 -0.547103
O 0.149814 0.035484 1.283472
H 1.025760 0.045940 0.892689
H -0.466045 0.326278 0.608022
5
Structure 2220 | Energy: -10.832783 Hartree
N -0.884875 -1.997980 0.214204
N -0.677672 -1.887509 -0.858620
O 0.149814 0.035484 1.283472
H 1.025760 0.045940 0.892689
H -0.466045 0.326278 0.608022
5
Structure 2221 | Energy: -10.835497 Hartree
N 0.060766 -0.002896 1.760225
N 0.267969 0.107575 0.687401
O -0.795826 -1.959601 -0.262548
H 0.080120 -1.949145 -0.653332
H -1.411686 -1.668806 -0.937999
5
Structure 2222 | Energy: -10.834815 Hartree
N 0.028893 -0.070139 1.708118
N 0.236097 0.040332 0.635294
O -0.795826 -1.959601 -0.262548
H 0.080120 -1.949145 -0.653332
H -1.411686 -1.668806 -0.937999
5
Structure 2223 | Energy: -10.835779 Hartree
N 0.028893 -0.070139 1.708118
N 0.236097 0.040332 0.635294
O -0.694487 -2.433629 -0.891641
H 0.181459 -2.423173 -1.282424
H -1.310346 -2.142834 -1.567091
5
Structure 2224 | Energy: -10.835995 Hartree
N -0.019594 -0.213488 1.581411
N 0.187609 -0.103017 0.508587
O -0.694487 -2.433629 -0.891641
H 0.181459 -2.423173 -1.282424
H -1.310346 -2.142834 -1.567091
5
Structure 2225 | Energy: -10.835943 Hartree
N 0.848708 -1.177662 1.847449
N 0.961296 -0.849229 0.805554
O -0.694487 -2.433629 -0.891641
H 0.181459 -2.423173 -1.282424
H -1.310346 -2.142834 -1.567091
5
Structure 2226 | Energy: -10.835967 Hartree
N 0.848708 -1.177662 1.847449
N 0.961296 -0.849229 0.805554
O -0.621957 -2.369410 -0.787404
H 0.253989 -2.358954 -1.178187
H -1.237816 -2.078615 -1.462854
5
Structure 2227 | Energy: -10.834668 Hartree
N 1.069452 0.052443 0.624390
N 1.145525 -1.032499 0.776712
O -0.621957 -2.369410 -0.787404
H 0.253989 -2.358954 -1.178187
H -1.237816 -2.078615 -1.462854
5
Structure 2228 | Energy: -10.834667 Hartree
N -1.740397 0.580456 0.088249
N -2.240994 -0.396121 0.130538
O -0.621957 -2.369410 -0.787404
H 0.253989 -2.358954 -1.178187
H -1.237816 -2.078615 -1.462854
5
Structure 2229 | Energy: -10.834324 Hartree
N -1.740397 0.580456 0.088249
N -2.240994 -0.396121 0.130538
O -0.676707 -2.272649 -0.749548
H 0.199239 -2.262193 -1.140331
H -1.292566 -1.981854 -1.424998
5
Structure 2230 | Energy: -10.835261 Hartree
N -1.740397 0.580456 0.088249
N -2.240994 -0.396121 0.130538
O -0.635635 -2.241579 -0.865331
H -1.568385 -2.190510 -0.647449
H -0.176825 -2.546689 -0.080169
5
Structure 2231 | Energy: -10.835555 Hartree
N -1.740397 0.580456 0.088249
N -2.240994 -0.396121 0.130538
O -0.606592 -2.292908 -0.885412
H -1.539342 -2.241839 -0.667530
H -0.147782 -2.598017 -0.100250
5
Structure 2232 | Energy: -10.834436 Hartree
N -1.740397 0.580456 0.088249
N -2.240994 -0.396121 0.130538
O -0.683075 -2.157738 -0.832529
H -1.615825 -2.106669 -0.614647
H -0.224265 -2.462847 -0.047367
5
Structure 2233 | Energy: -10.833585 Hartree
N -1.740397 0.580456 0.088249
N -2.240994 -0.396121 0.130538
O -0.713327 -2.104273 -0.811612
H -1.646076 -2.053204 -0.593730
H -0.254517 -2.409383 -0.026450
5
Structure 2234 | Energy: -10.834063 Hartree
N -1.979536 0.166542 0.855067
N -2.480133 -0.810036 0.897356
O -0.713327 -2.104273 -0.811612
H -1.646076 -2.053204 -0.593730
H -0.254517 -2.409383 -0.026450
5
Structure 2235 | Energy: -10.834357 Hartree
N -1.979536 0.166542 0.855067
N -2.480133 -0.810036 0.897356
O -0.688529 -2.134177 -0.838769
H -1.621278 -2.083108 -0.620887
H -0.229718 -2.439287 -0.053607
5
Structure 2236 | Energy: -10.834948 Hartree
N 2.349852 -1.658005 -0.859206
N 1.726760 -1.045596 -1.524637
O -0.688529 -2.134177 -0.838769
H -1.621278 -2.083108 -0.620887
H -0.229718 -2.439287 -0.053607
5
Structure 2237 | Energy: -10.835520 Hartree
N 2.349852 -1.658005 -0.859206
N 1.726760 -1.045596 -1.524637
O -0.683357 -2.095069 -0.768234
H -0.982980 -2.763865 -0.149332
H -0.950099 -2.379243 -1.644689
5
Structure 2238 | Energy: -10.835586 Hartree
N 2.349852 -1.658005 -0.859206
N 1.726760 -1.045596 -1.524637
O -0.735797 -2.110241 -0.760439
H -1.035420 -2.779037 -0.141537
H -1.002539 -2.394415 -1.636894
5
Structure 2239 | Energy: -10.835613 Hartree
N 2.349852 -1.658005 -0.859206
N 1.726760 -1.045596 -1.524637
O -0.774934 -2.121564 -0.754622
H -1.074557 -2.790360 -0.135719
H -1.041675 -2.405737 -1.631076
5
Structure 2240 | Energy: -10.835288 Hartree
N 2.349852 -1.658005 -0.859206
N 1.726760 -1.045596 -1.524637
O -0.774936 -2.121564 -0.754620
H -0.392930 -2.990061 -0.895639
H -1.723279 -2.206043 -0.871183
5
Structure 2241 | Energy: -10.834961 Hartree
N -2.422305 0.420126 0.176551
N -1.490193 0.590020 -0.378781
O -0.774936 -2.121564 -0.754620
H -0.392930 -2.990061 -0.895639
H -1.723279 -2.206043 -0.871183
5
Structure 2242 | Energy: -10.835170 Hartree
N -1.692928 0.646038 -0.561889
N -2.219570 0.364107 0.359660
O -0.774936 -2.121564 -0.754620
H -0.392930 -2.990061 -0.895639
H -1.723279 -2.206043 -0.871183
5
Structure 2243 | Energy: -10.835170 Hartree
N -1.692928 0.646038 -0.561889
N -2.219570 0.364107 0.359660
O 0.584298 -0.918288 0.390267
H 1.371910 -1.427717 0.590893
H 0.535464 -0.206467 1.031364
5
Structure 2244 | Energy: -10.834933 Hartree
N -1.692928 0.646038 -0.561889
N -2.219570 0.364107 0.359660
O 0.927400 -1.801030 0.112880
H 1.715012 -2.310460 0.313506
H 0.878566 -1.089210 0.753977
5
Structure 2245 | Energy: -10.834322 Hartree
N 1.232058 -1.648740 -0.300797
N 0.705416 -1.930672 0.620752
O -1.997586 0.493748 -0.148212
H -1.209974 -0.015681 0.052414
H -2.046420 1.205569 0.492885
5
Structure 2246 | Energy: -10.834182 Hartree
N 1.232058 -1.648740 -0.300797
N 0.705416 -1.930672 0.620752
O -1.099918 1.218905 1.041535
H -0.474485 0.546181 0.765169
H -0.762285 2.063233 0.736260
5
Structure 2247 | Energy: -10.834062 Hartree
N 1.232058 -1.648740 -0.300797
N 0.705416 -1.930672 0.620752
O -1.017315 1.095162 1.006727
H -0.391882 0.422438 0.730361
H -0.679682 1.939490 0.701451
5
Structure 2248 | Energy: -10.835440 Hartree
N -2.312173 -2.280380 1.839746
N -1.215553 -2.273020 1.780924
O -1.017315 1.095162 1.006727
H -0.391882 0.422438 0.730361
H -0.679682 1.939490 0.701451
5
Structure 2249 | Energy: -10.835489 Hartree
N -2.312173 -2.280380 1.839746
N -1.215553 -2.273020 1.780924
O -1.025988 1.092916 0.975209
H -0.323054 0.440261 0.980481
H -0.610852 1.957313 0.951582
5
Structure 2250 | Energy: -10.834575 Hartree
N 1.001090 1.037572 -2.213869
N -0.074915 0.901329 -2.386321
O -1.025988 1.092916 0.975209
H -0.323054 0.440261 0.980481
H -0.610852 1.957313 0.951582
5
Structure 2251 | Energy: -10.835431 Hartree
N -0.425426 1.172886 1.060408
N -1.501431 1.036643 0.887956
O 0.400528 0.957603 -2.299068
H 1.103461 0.304947 -2.293796
H 0.815664 1.821999 -2.322695
5
Structure 2252 | Energy: -10.834575 Hartree
N 1.321725 1.503811 1.031725
N 2.367005 1.769358 0.824447
O 0.400528 0.957603 -2.299068
H 1.103461 0.304947 -2.293796
H 0.815664 1.821999 -2.322695
5
Structure 2253 | Energy: -10.834936 Hartree
N 1.321725 1.503811 1.031725
N 2.367005 1.769358 0.824447
O 1.043494 1.169707 -2.423620
H 1.746428 0.517052 -2.418348
H 1.458631 2.034104 -2.447248
5
Structure 2254 | Energy: -10.834923 Hartree
N 1.321725 1.503811 1.031725
N 2.367005 1.769358 0.824447
O 1.034045 1.163883 -2.466533
H 1.736978 0.511228 -2.461261
H 1.449181 2.028280 -2.490160
5
Structure 2255 | Energy: -10.834936 Hartree
N 1.321725 1.503811 1.031725
N 2.367005 1.769358 0.824447
O 1.043559 1.169747 -2.423328
H 1.746492 0.517092 -2.418056
H 1.458695 2.034144 -2.446955
5
Structure 2256 | Energy: -10.834936 Hartree
N 1.321725 1.503811 1.031725
N 2.367005 1.769358 0.824447
O 1.505250 1.287037 -2.514881
H 1.236892 0.387631 -2.317002
H 0.761878 1.857121 -2.308777
5
Structure 2257 | Energy: -10.834124 Hartree
N -1.513146 1.468818 -0.574531
N -1.840804 1.875695 -1.540543
O 1.505250 1.287037 -2.514881
H 1.236892 0.387631 -2.317002
H 0.761878 1.857121 -2.308777
5
Structure 2258 | Energy: -10.835710 Hartree
N -1.513146 1.468818 -0.574531
N -1.840804 1.875695 -1.540543
O -0.750104 -0.738826 1.335452
H -0.371648 0.074314 1.675565
H -1.269326 -0.508896 0.562394
5
Structure 2259 | Energy: -10.835710 Hartree
N -1.513146 1.468818 -0.574531
N -1.840804 1.875695 -1.540543
O -0.142762 -0.537887 1.214084
H -0.772691 -0.058371 1.755707
H -0.159693 -0.141774 0.340650
5
Structure 2260 | Energy: -10.835041 Hartree
N -1.832106 1.320648 -0.665327
N -1.521845 2.023865 -1.449746
O -0.142762 -0.537887 1.214084
H -0.772691 -0.058371 1.755707
H -0.159693 -0.141774 0.340650
5
Structure 2261 | Energy: -10.834965 Hartree
N -1.971317 1.047390 -0.778657
N -1.720145 1.651575 -1.660678
O -0.142762 -0.537887 1.214084
H -0.772691 -0.058371 1.755707
H -0.159693 -0.141774 0.340650
5
Structure 2262 | Energy: -10.834776 Hartree
N -1.971317 1.047390 -0.778657
N -1.720145 1.651575 -1.660678
O -0.198862 -0.545742 1.216181
H -0.679518 0.282123 1.277099
H 0.637553 -0.357582 0.785968
5
Structure 2263 | Energy: -10.834719 Hartree
N -1.971317 1.047390 -0.778657
N -1.720145 1.651575 -1.660678
O -0.241270 -0.498968 1.154731
H -0.721926 0.328897 1.215649
H 0.595145 -0.310808 0.724517
5
Structure 2264 | Energy: -10.833885 Hartree
N 2.015308 -1.934552 -0.173382
N 2.602022 -1.705917 -1.073149
O -0.241270 -0.498968 1.154731
H -0.721926 0.328897 1.215649
H 0.595145 -0.310808 0.724517
5
Structure 2265 | Energy: -10.836172 Hartree
N -0.514721 -0.556435 1.583951
N 0.071993 -0.327801 0.684184
O 2.288759 -1.877084 -0.602602
H 1.808103 -1.049219 -0.541684
H 3.125174 -1.688924 -1.032816
5
Structure 2266 | Energy: -10.835547 Hartree
N -0.514721 -0.556435 1.583951
N 0.071993 -0.327801 0.684184
O 2.288757 -1.877084 -0.602603
H 2.904269 -1.292743 -0.155621
H 2.029045 -1.445408 -1.418865
5
Structure 2267 | Energy: -10.835352 Hartree
N -0.514721 -0.556435 1.583951
N 0.071993 -0.327801 0.684184
O 2.260852 -1.839858 -0.586064
H 3.183650 -2.088977 -0.505533
H 2.192573 -1.240028 -1.331464
5
Structure 2268 | Energy: -10.834874 Hartree
N 2.015308 -1.934552 -0.173382
N 2.602022 -1.705917 -1.073149
O -0.269177 -0.461741 1.171269
H 0.653621 -0.710861 1.251800
H -0.337456 0.138088 0.425869
5
Structure 2269 | Energy: -10.834467 Hartree
N 2.015308 -1.934552 -0.173382
N 2.602022 -1.705917 -1.073149
O -0.257864 -0.494197 1.137326
H 0.533844 -0.321144 1.650506
H -0.397243 0.263516 0.565906
5
Structure 2270 | Energy: -10.834483 Hartree
N 2.015308 -1.934552 -0.173382
N 2.602022 -1.705917 -1.073149
O -0.281480 -0.481334 1.153730
H 0.510228 -0.308280 1.666910
H -0.420860 0.276380 0.582310
5
Structure 2271 | Energy: -10.834483 Hartree
N 2.015308 -1.934552 -0.173382
N 2.602022 -1.705917 -1.073149
O 2.162536 -0.861731 2.650744
H 1.412011 -0.448638 2.219272
H 2.891125 -0.239112 2.610973
5
Structure 2272 | Energy: -10.834373 Hartree
N 2.008741 -1.889251 -0.028644
N 2.595454 -1.660616 -0.928412
O 2.162536 -0.861731 2.650744
H 1.412011 -0.448638 2.219272
H 2.891125 -0.239112 2.610973
5
Structure 2273 | Energy: -10.835401 Hartree
N 2.008741 -1.889251 -0.028644
N 2.595454 -1.660616 -0.928412
O 1.523395 1.334703 -1.086426
H 2.449332 1.336338 -0.835946
H 1.487553 1.249214 -2.041144
5
Structure 2274 | Energy: -10.835414 Hartree
N 2.008741 -1.889251 -0.028644
N 2.595454 -1.660616 -0.928412
O 1.532278 1.296862 -1.078538
H 2.458215 1.298497 -0.828058
H 1.496437 1.211373 -2.033255
5
Structure 2275 | Energy: -10.835527 Hartree
N 1.028250 1.443372 2.222785
N 0.294921 0.820578 1.693216
O 1.532278 1.296862 -1.078538
H 2.458215 1.298497 -0.828058
H 1.496437 1.211373 -2.033255
5
Structure 2276 | Energy: -10.835479 Hartree
N 1.028250 1.443372 2.222785
N 0.294921 0.820578 1.693216
O 1.532278 1.296863 -1.078537
H 2.404966 0.966812 -0.855862
H 1.549684 1.543047 -2.005451
5
Structure 2277 | Energy: -10.835452 Hartree
N 1.028250 1.443372 2.222785
N 0.294921 0.820578 1.693216
O 1.546945 1.299415 -1.127547
H 2.419633 0.969364 -0.904872
H 1.564350 1.545600 -2.054460
5
Structure 2278 | Energy: -10.833549 Hartree
N 1.028250 1.443372 2.222785
N 0.294921 0.820578 1.693216
O -0.747486 0.425013 -0.843289
H 0.013739 0.759658 -1.321464
H -1.422253 0.217719 -1.492748
5
Structure 2279 | Energy: -10.833614 Hartree
N 0.941730 -1.996522 1.377222
N 0.250135 -1.160767 1.206053
O -0.747486 0.425013 -0.843289
H 0.013739 0.759658 -1.321464
H -1.422253 0.217719 -1.492748
5
Structure 2280 | Energy: -10.834671 Hartree
N 0.941730 -1.996522 1.377222
N 0.250135 -1.160767 1.206053
O -1.568271 -0.992117 -1.116762
H -0.807045 -0.657472 -1.594936
H -2.243037 -1.199410 -1.766221
5
Structure 2281 | Energy: -10.835418 Hartree
N -1.217636 -1.402868 -1.094272
N -1.909231 -0.567114 -1.265441
O 0.591095 -1.585770 1.354732
H 1.352320 -1.251125 0.876557
H -0.083672 -1.793064 0.705273
5
Structure 2282 | Energy: -10.834066 Hartree
N 1.342824 0.935664 2.752081
N 2.044319 1.679660 2.351502
O 0.591095 -1.585770 1.354732
H 1.352320 -1.251125 0.876557
H -0.083672 -1.793064 0.705273
5
Structure 2283 | Energy: -10.835544 Hartree
N 2.872871 0.232465 0.551418
N 3.769719 0.358007 1.172700
O 0.591095 -1.585770 1.354732
H 1.352320 -1.251125 0.876557
H -0.083672 -1.793064 0.705273
5
Structure 2284 | Energy: -10.833691 Hartree
N 1.808671 0.756024 1.061541
N 2.705519 0.881566 1.682823
O 0.591095 -1.585770 1.354732
H 1.352320 -1.251125 0.876557
H -0.083672 -1.793064 0.705273
5
Structure 2285 | Energy: -10.834867 Hartree
N 1.689673 1.909531 1.079068
N 2.586521 2.035073 1.700350
O 0.591095 -1.585770 1.354732
H 1.352320 -1.251125 0.876557
H -0.083672 -1.793064 0.705273
5
Structure 2286 | Energy: -10.834691 Hartree
N 1.632828 1.783068 1.287651
N 2.643367 2.161536 1.491767
O 0.591095 -1.585770 1.354732
H 1.352320 -1.251125 0.876557
H -0.083672 -1.793064 0.705273
5
Structure 2287 | Energy: -10.834703 Hartree
N 1.562969 1.622212 1.283209
N 2.573507 2.000679 1.487324
O 0.591095 -1.585770 1.354732
H 1.352320 -1.251125 0.876557
H -0.083672 -1.793064 0.705273
5
Structure 2288 | Energy: -10.834616 Hartree
N 1.907773 2.030555 0.908020
N 2.228703 1.592336 1.862513
O 0.591095 -1.585770 1.354732
H 1.352320 -1.251125 0.876557
H -0.083672 -1.793064 0.705273
5
Structure 2289 | Energy: -10.834688 Hartree
N 1.911962 2.417754 1.496172
N 2.232892 1.979535 2.450664
O 0.591095 -1.585770 1.354732
H 1.352320 -1.251125 0.876557
H -0.083672 -1.793064 0.705273
5
Structure 2290 | Energy: -10.835293 Hartree
N 1.911962 2.417754 1.496172
N 2.232892 1.979535 2.450664
O 0.102321 -0.031356 0.837818
H 0.863547 0.303289 0.359644
H -0.572445 -0.238650 0.188359
5
Structure 2291 | Energy: -10.835293 Hartree
N 1.911962 2.417754 1.496172
N 2.232892 1.979535 2.450664
O -0.761224 0.817763 1.518010
H -0.625219 1.767185 1.532305
H -1.467395 0.641349 0.893287
5
Structure 2292 | Energy: -10.834858 Hartree
N 2.489197 2.734652 0.700933
N 2.810127 2.296433 1.655426
O -0.761224 0.817763 1.518010
H -0.625219 1.767185 1.532305
H -1.467395 0.641349 0.893287
5
Structure 2293 | Energy: -10.834891 Hartree
N 2.489197 2.734652 0.700933
N 2.810127 2.296433 1.655426
O -0.670692 0.861271 1.509972
H -0.534688 1.810692 1.524267
H -1.376863 0.684857 0.885249
5
Structure 2294 | Energy: -10.834902 Hartree
N 2.489197 2.734652 0.700933
N 2.810127 2.296433 1.655426
O 0.592888 -0.464830 0.307251
H 0.232529 0.379434 0.585571
H 0.125374 -0.724611 -0.489004
5
Structure 2295 | Energy: -10.834169 Hartree
N 1.084714 2.775341 0.884627
N 1.405645 2.337122 1.839119
O 0.592888 -0.464830 0.307251
H 0.232529 0.379434 0.585571
H 0.125374 -0.724611 -0.489004
5
Structure 2296 | Energy: -10.834064 Hartree
N 1.084714 2.775341 0.884627
N 1.405645 2.337122 1.839119
O 0.493905 0.341489 -0.357160
H 0.133546 1.185753 -0.078840
H 0.026390 0.081708 -1.153415
5
Structure 2297 | Energy: -10.834489 Hartree
N 1.084714 2.775341 0.884627
N 1.405645 2.337122 1.839119
O 0.192279 -0.642695 0.749472
H -0.168080 0.201569 1.027792
H -0.275235 -0.902476 -0.046783
5
Structure 2298 | Energy: -10.834525 Hartree
N 0.950612 2.767756 0.161892
N 1.221044 2.572754 1.208281
O 0.192279 -0.642695 0.749472
H -0.168080 0.201569 1.027792
H -0.275235 -0.902476 -0.046783
5
Structure 2299 | Energy: -10.835427 Hartree
N 0.010741 -0.512490 0.197297
N 0.281173 -0.707492 1.243686
O 1.132150 2.637551 0.714067
H 0.771791 3.481815 0.992387
H 0.664636 2.377770 -0.082189
5
Structure 2300 | Energy: -10.835450 Hartree
N 0.020650 -0.477906 0.196924
N 0.291082 -0.672908 1.243313
O 1.132150 2.637551 0.714067
H 0.771791 3.481815 0.992387
H 0.664636 2.377770 -0.082189
5
Structure 2301 | Energy: -10.835222 Hartree
N -0.046358 -0.950358 0.972384
N 0.224074 -1.145360 2.018773
O 1.132150 2.637551 0.714067
H 0.771791 3.481815 0.992387
H 0.664636 2.377770 -0.082189
5
Structure 2302 | Energy: -10.835287 Hartree
N -0.046358 -0.950358 0.972384
N 0.224074 -1.145360 2.018773
O 1.110281 2.555991 0.731845
H 0.749922 3.400255 1.010165
H 0.642767 2.296210 -0.064410
5
Structure 2303 | Energy: -10.835430 Hartree
N -0.046358 -0.950358 0.972384
N 0.224074 -1.145360 2.018773
O 1.066455 2.392547 0.767474
H 0.706096 3.236811 1.045794
H 0.598941 2.132767 -0.028782
5
Structure 2304 | Energy: -10.835474 Hartree
N -0.033885 -0.903840 0.962244
N 0.236547 -1.098842 2.008633
O 1.066455 2.392547 0.767474
H 0.706096 3.236811 1.045794
H 0.598941 2.132767 -0.028782
5
Structure 2305 | Energy: -10.835591 Hartree
N -0.033885 -0.903840 0.962244
N 0.236547 -1.098842 2.008633
O 1.035002 2.275245 0.793044
H 0.674643 3.119509 1.071364
H 0.567488 2.015465 -0.003211
5
Structure 2306 | Energy: -10.834648 Hartree
N 0.853464 2.405450 0.240869
N 1.123896 2.210448 1.287258
O 0.147653 -1.034045 1.514419
H -0.212706 -0.189781 1.792739
H -0.319861 -1.293826 0.718163
5
Structure 2307 | Energy: -10.834585 Hartree
N 0.853464 2.405450 0.240869
N 1.123896 2.210448 1.287258
O -0.378498 -1.591719 1.475603
H -0.738858 -0.747455 1.753923
H -0.846013 -1.851500 0.679348
5
Structure 2308 | Energy: -10.834507 Hartree
N 0.853464 2.405450 0.240869
N 1.123896 2.210448 1.287258
O -0.533887 -1.954473 2.411690
H -0.894246 -1.110209 2.690010
H -1.001402 -2.214254 1.615435
5
Structure 2309 | Energy: -10.834458 Hartree
N 0.709974 3.386753 0.910676
N 0.980405 3.191751 1.957065
O -0.533887 -1.954473 2.411690
H -0.894246 -1.110209 2.690010
H -1.001402 -2.214254 1.615435
5
Structure 2310 | Energy: -10.834430 Hartree
N 0.709974 3.386753 0.910676
N 0.980405 3.191751 1.957065
O -2.799115 -0.595776 2.841081
H -2.870423 0.338790 2.637109
H -2.939506 -1.076571 2.023032
5
Structure 2311 | Energy: -10.834432 Hartree
N 0.611539 3.282840 0.947023
N 0.881971 3.087838 1.993412
O -2.799115 -0.595776 2.841081
H -2.870423 0.338790 2.637109
H -2.939506 -1.076571 2.023032
5
Structure 2312 | Energy: -10.834404 Hartree
N 0.611539 3.282840 0.947023
N 0.881971 3.087838 1.993412
O -2.815017 -0.595514 2.842267
H -2.744223 0.336714 2.627696
H -2.813302 -1.078646 2.013619
5
Structure 2313 | Energy: -10.834403 Hartree
N 0.611539 3.282840 0.947023
N 0.881971 3.087838 1.993412
O -2.778901 -0.557388 2.828931
H -2.708107 0.374841 2.614360
H -2.777186 -1.040520 2.000283
5
Structure 2314 | Energy: -10.834421 Hartree
N 0.611539 3.282840 0.947023
N 0.881971 3.087838 1.993412
O -2.778903 -0.557385 2.828932
H -2.075548 -0.704796 2.193586
H -3.409723 0.039079 2.421042
5
Structure 2315 | Energy: -10.834412 Hartree
N 1.294376 2.362603 0.670779
N 1.275805 2.570935 1.748898
O -2.778903 -0.557385 2.828932
H -2.075548 -0.704796 2.193586
H -3.409723 0.039079 2.421042
5
Structure 2316 | Energy: -10.834653 Hartree
N -2.765559 -0.636425 2.231500
N -2.784130 -0.428094 3.309619
O 1.281032 2.441643 1.268211
H 1.984387 2.294233 0.632865
H 0.650211 3.038107 0.860321
5
Structure 2317 | Energy: -10.834412 Hartree
N -2.457324 1.272580 -2.203314
N -2.360294 2.196867 -2.788435
O 1.281032 2.441643 1.268211
H 1.984387 2.294233 0.632865
H 0.650211 3.038107 0.860321
5
Structure 2318 | Energy: -10.834390 Hartree
N -2.368476 2.135764 -2.868785
N -2.449142 1.333683 -2.122964
O 1.281032 2.441643 1.268211
H 1.984387 2.294233 0.632865
H 0.650211 3.038107 0.860321
5
Structure 2319 | Energy: -10.834411 Hartree
N -2.601192 1.425908 -2.084604
N -2.216425 2.043539 -2.907145
O 1.281032 2.441643 1.268211
H 1.984387 2.294233 0.632865
H 0.650211 3.038107 0.860321
5
Structure 2320 | Energy: -10.834650 Hartree
N -2.601192 1.425908 -2.084604
N -2.216425 2.043539 -2.907145
O -0.129448 2.985879 0.035383
H 0.573907 2.838469 -0.599963
H -0.760269 3.582343 -0.372507
5
Structure 2321 | Energy: -10.834625 Hartree
N -2.601192 1.425908 -2.084604
N -2.216425 2.043539 -2.907145
O -0.043515 2.786000 0.047419
H 0.645738 2.614965 -0.597391
H -0.641613 3.428253 -0.339710
5
Structure 2322 | Energy: -10.834625 Hartree
N -0.833979 0.309477 -2.438360
N -0.670498 1.066906 -3.216604
O -0.043515 2.786000 0.047419
H 0.645738 2.614965 -0.597391
H -0.641613 3.428253 -0.339710
5
Structure 2323 | Energy: -10.835361 Hartree
N -0.120155 2.433652 0.378801
N 0.043326 3.191081 -0.399444
O -0.757339 0.661825 -2.769741
H -0.068085 0.490790 -3.414551
H -1.355436 1.304078 -3.156870
5
Structure 2324 | Energy: -10.835469 Hartree
N -0.120155 2.433652 0.378801
N 0.043326 3.191081 -0.399444
O -0.729058 0.745981 -2.658131
H -0.039805 0.574946 -3.302940
H -1.327156 1.388234 -3.045259
5
Structure 2325 | Energy: -10.835469 Hartree
N -0.120155 2.433652 0.378801
N 0.043326 3.191081 -0.399444
O -0.832777 0.265436 -2.164379
H -0.274991 -0.514703 -2.183345
H -1.617919 0.041089 -1.661091
5
Structure 2326 | Energy: -10.835555 Hartree
N 1.331894 2.812658 -2.672033
N 1.018202 3.215326 -1.699642
O -0.832777 0.265436 -2.164379
H -0.274991 -0.514703 -2.183345
H -1.617919 0.041089 -1.661091
5
Structure 2327 | Energy: -10.835403 Hartree
N 1.331894 2.812658 -2.672033
N 1.018202 3.215326 -1.699642
O -0.824286 0.210468 -2.077249
H -1.734728 0.313017 -2.361293
H -0.292959 0.085831 -2.866069
5
Structure 2328 | Energy: -10.835127 Hartree
N 1.355258 2.869802 -3.166127
N 1.041565 3.272469 -2.193736
O -0.824286 0.210468 -2.077249
H -1.734728 0.313017 -2.361293
H -0.292959 0.085831 -2.866069
5
Structure 2329 | Energy: -10.835670 Hartree
N 1.260301 3.479625 -2.318230
N 1.136522 2.662646 -3.041633
O -0.824286 0.210468 -2.077249
H -1.734728 0.313017 -2.361293
H -0.292959 0.085831 -2.866069
5
Structure 2330 | Energy: -10.835635 Hartree
N 1.260301 3.479625 -2.318230
N 1.136522 2.662646 -3.041633
O -0.842139 0.185469 -2.072509
H -1.752582 0.288019 -2.356553
H -0.310813 0.060832 -2.861329
5
Structure 2331 | Energy: -10.835561 Hartree
N -1.064343 3.351409 0.176701
N -1.791756 2.929735 -0.529804
O -0.842139 0.185469 -2.072509
H -1.752582 0.288019 -2.356553
H -0.310813 0.060832 -2.861329
5
Structure 2332 | Energy: -10.834734 Hartree
N -0.937521 2.894937 -0.200387
N -1.918577 3.386207 -0.152716
O -0.842139 0.185469 -2.072509
H -1.752582 0.288019 -2.356553
H -0.310813 0.060832 -2.861329
5
Structure 2333 | Energy: -10.834760 Hartree
N -0.920802 2.807406 -0.258300
N -1.901858 3.298676 -0.210628
O -0.842139 0.185469 -2.072509
H -1.752582 0.288019 -2.356553
H -0.310813 0.060832 -2.861329
5
Structure 2334 | Energy: -10.834753 Hartree
N -0.925177 2.830312 -0.243145
N -1.906233 3.321581 -0.195474
O -0.842139 0.185469 -2.072509
H -1.752582 0.288019 -2.356553
H -0.310813 0.060832 -2.861329
5
Structure 2335 | Energy: -10.834766 Hartree
N -0.916623 2.785527 -0.272775
N -1.897678 3.276797 -0.225104
O -0.842139 0.185469 -2.072509
H -1.752582 0.288019 -2.356553
H -0.310813 0.060832 -2.861329
5
Structure 2336 | Energy: -10.835070 Hartree
N -0.372824 -0.061401 -2.156375
N -1.353880 0.429868 -2.108704
O -1.385938 3.032398 -0.188909
H -2.296380 3.134947 -0.472953
H -0.854611 2.907761 -0.977729
5
Structure 2337 | Energy: -10.834787 Hartree
N 0.457287 -1.085757 -1.658427
N -0.523769 -0.594488 -1.610756
O -1.385938 3.032398 -0.188909
H -2.296380 3.134947 -0.472953
H -0.854611 2.907761 -0.977729
5
Structure 2338 | Energy: -10.834588 Hartree
N 0.457287 -1.085757 -1.658427
N -0.523769 -0.594488 -1.610756
O -1.440963 3.039307 -0.195596
H -1.785126 3.024599 -1.090827
H -0.492504 2.908447 -0.253722
5
Structure 2339 | Energy: -10.834994 Hartree
N 1.063377 1.382414 3.437512
N 1.161845 2.137571 2.646228
O -1.440963 3.039307 -0.195596
H -1.785126 3.024599 -1.090827
H -0.492504 2.908447 -0.253722
5
Structure 2340 | Energy: -10.835008 Hartree
N 1.063377 1.382414 3.437512
N 1.161845 2.137571 2.646228
O -1.395924 2.973808 -0.274229
H -2.142548 3.544394 -0.466805
H -0.849940 3.428263 0.370324
5
Structure 2341 | Energy: -10.834964 Hartree
N 1.063377 1.382414 3.437512
N 1.161845 2.137571 2.646228
O -0.761939 3.263074 -0.834304
H -1.508564 3.833660 -1.026880
H -0.215955 3.717529 -0.189751
5
Structure 2342 | Energy: -10.834663 Hartree
N 1.063377 1.382414 3.437512
N 1.161845 2.137571 2.646228
O -0.752282 3.375313 -0.833644
H -1.585208 2.942942 -1.032118
H -0.292602 2.826776 -0.194990
5
Structure 2343 | Energy: -10.835045 Hartree
N 1.552605 1.639894 3.347655
N 0.672618 1.880091 2.736086
O -0.752282 3.375313 -0.833644
H -1.585208 2.942942 -1.032118
H -0.292602 2.826776 -0.194990
5
Structure 2344 | Energy: -10.834606 Hartree
N 1.563295 1.458479 3.128451
N 0.661928 2.061506 2.955289
O -0.752282 3.375313 -0.833644
H -1.585208 2.942942 -1.032118
H -0.292602 2.826776 -0.194990
5
Structure 2345 | Energy: -10.834555 Hartree
N -0.322482 3.018915 -0.722434
N -1.223849 3.621942 -0.895595
O 1.133496 1.814878 3.017241
H 0.300570 1.382507 2.818766
H 1.593176 1.266341 3.655895
5
Structure 2346 | Energy: -10.834539 Hartree
N -0.322482 3.018915 -0.722434
N -1.223849 3.621942 -0.895595
O 1.133493 1.814878 3.017239
H 1.665279 1.151879 3.461918
H 0.228514 1.496960 3.012766
5
Structure 2347 | Energy: -10.834729 Hartree
N 0.946483 3.417717 0.715422
N 0.045116 4.020744 0.542261
O 1.133493 1.814878 3.017239
H 1.665279 1.151879 3.461918
H 0.228514 1.496960 3.012766
5
Structure 2348 | Energy: -10.835339 Hartree
N 0.946483 3.417717 0.715422
N 0.045116 4.020744 0.542261
O 1.145562 1.795765 3.082977
H 0.355269 1.287890 3.276888
H 1.346962 1.664315 2.154409
5
Structure 2349 | Energy: -10.834579 Hartree
N 0.946483 3.417717 0.715422
N 0.045116 4.020744 0.542261
O -0.890625 1.238987 -0.810223
H -0.217538 0.572986 -0.963518
H -0.873074 1.450520 0.125204
5
Structure 2350 | Energy: -10.834579 Hartree
N 0.946483 3.417717 0.715422
N 0.045116 4.020744 0.542261
O -1.303648 1.351918 1.770118
H -2.219221 1.553033 1.566693
H -0.944865 2.106707 2.240911
5
Structure 2351 | Energy: -10.834835 Hartree
N 0.946483 3.417717 0.715422
N 0.045116 4.020744 0.542261
O -1.390654 1.184804 2.387014
H -2.306227 1.385919 2.183589
H -1.031871 1.939593 2.857807
5
Structure 2352 | Energy: -10.834812 Hartree
N 1.573581 3.166525 1.685933
N 0.916062 3.638184 0.943441
O -1.390654 1.184804 2.387014
H -2.306227 1.385919 2.183589
H -1.031871 1.939593 2.857807
5
Structure 2353 | Energy: -10.834812 Hartree
N 1.573581 3.166525 1.685933
N 0.916062 3.638184 0.943441
O -0.087747 0.202649 0.315042
H 0.008722 -0.562354 0.885626
H -0.525130 0.885643 0.827188
5
Structure 2354 | Energy: -10.834598 Hartree
N 1.573581 3.166525 1.685933
N 0.916062 3.638184 0.943441
O -0.087748 0.202646 0.315042
H 0.222943 0.733366 1.051186
H -0.739344 -0.410033 0.661633
5
Structure 2355 | Energy: -10.834355 Hartree
N 1.283879 -0.187380 3.732681
N 1.060398 0.887769 3.746835
O -0.087748 0.202646 0.315042
H 0.222943 0.733366 1.051186
H -0.739344 -0.410033 0.661633
5
Structure 2356 | Energy: -10.835353 Hartree
N 1.858670 2.390979 -1.787797
N 0.846392 2.694377 -2.086680
O -0.087748 0.202646 0.315042
H 0.222943 0.733366 1.051186
H -0.739344 -0.410033 0.661633
5
Structure 2357 | Energy: -10.835355 Hartree
N 0.848210 2.697419 -2.089677
N 1.856853 2.387937 -1.784800
O -0.087748 0.202646 0.315042
H 0.222943 0.733366 1.051186
H -0.739344 -0.410033 0.661633
5
Structure 2358 | Energy: -10.834188 Hartree
N -0.611144 0.352801 0.223186
N 0.397499 0.043319 0.528063
O 1.371606 2.547264 -1.997821
H 1.682297 3.077984 -1.261676
H 0.720010 1.934585 -1.651229
5
Structure 2359 | Energy: -10.834188 Hartree
N -1.228127 0.923522 0.072126
N -1.649389 1.936726 0.026912
O 1.371606 2.547264 -1.997821
H 1.682297 3.077984 -1.261676
H 0.720010 1.934585 -1.651229
5
Structure 2360 | Energy: -10.834055 Hartree
N -1.228127 0.923522 0.072126
N -1.649389 1.936726 0.026912
O 1.263500 2.504175 -1.920875
H 1.574191 3.034895 -1.184730
H 0.611904 1.891496 -1.574283
5
Structure 2361 | Energy: -10.834304 Hartree
N -1.228127 0.923522 0.072126
N -1.649389 1.936726 0.026912
O -0.363271 0.900298 -3.252125
H 0.186286 1.683735 -3.186441
H -0.628585 0.663928 -2.361161
5
Structure 2362 | Energy: -10.834076 Hartree
N -1.003020 -0.024123 0.280298
N -1.424282 0.989082 0.235085
O -0.363271 0.900298 -3.252125
H 0.186286 1.683735 -3.186441
H -0.628585 0.663928 -2.361161
5
Structure 2363 | Energy: -10.834076 Hartree
N -1.003020 -0.024123 0.280298
N -1.424282 0.989082 0.235085
O -2.220364 0.129705 -3.217737
H -3.160629 0.294946 -3.124467
H -1.837687 0.162216 -2.338772
5
Structure 2364 | Energy: -10.835263 Hartree
N -2.040932 -0.365832 -3.140731
N -2.462194 0.647372 -3.185944
O -1.182452 0.471415 0.203292
H -2.122717 0.636656 0.296562
H -0.799775 0.503926 1.082257
5
Structure 2365 | Energy: -10.835228 Hartree
N -0.119308 3.906198 0.073670
N 0.193722 3.646929 -0.946566
O -1.182452 0.471415 0.203292
H -2.122717 0.636656 0.296562
H -0.799775 0.503926 1.082257
5
Structure 2366 | Energy: -10.835419 Hartree
N -0.119308 3.906198 0.073670
N 0.193722 3.646929 -0.946566
O -1.158860 0.514541 0.252675
H -1.298086 -0.410782 0.041736
H -1.998858 0.866858 0.553265
5
Structure 2367 | Energy: -10.834439 Hartree
N -0.119308 3.906198 0.073670
N 0.193722 3.646929 -0.946566
O -1.229551 0.439034 0.213933
H -1.695162 0.618386 1.033165
H -0.479779 1.036143 0.176757
5
Structure 2368 | Energy: -10.835264 Hartree
N -0.329976 3.440908 -0.203995
N 0.404389 4.112219 -0.668901
O -1.229551 0.439034 0.213933
H -1.695162 0.618386 1.033165
H -0.479779 1.036143 0.176757
5
Structure 2369 | Energy: -10.835228 Hartree
N -0.329976 3.440908 -0.203995
N 0.404389 4.112219 -0.668901
O -1.203860 0.506688 0.199676
H -1.669472 0.686041 1.018908
H -0.454089 1.103797 0.162501
5
Structure 2370 | Energy: -10.835249 Hartree
N -0.318256 3.471773 -0.210499
N 0.416110 4.143084 -0.675405
O -1.203860 0.506688 0.199676
H -1.669472 0.686041 1.018908
H -0.454089 1.103797 0.162501
5
Structure 2371 | Energy: -10.834828 Hartree
N -0.318256 3.471773 -0.210499
N 0.416110 4.143084 -0.675405
O -1.151165 0.270231 1.272321
H -1.616776 0.449583 2.091553
H -0.401393 0.867340 1.235146
5
Structure 2372 | Energy: -10.834848 Hartree
N -0.347136 3.386568 -0.167600
N 0.387230 4.057879 -0.632506
O -1.151165 0.270231 1.272321
H -1.616776 0.449583 2.091553
H -0.401393 0.867340 1.235146
5
Structure 2373 | Energy: -10.834869 Hartree
N -0.347136 3.386568 -0.167600
N 0.387230 4.057879 -0.632506
O -1.105991 0.403509 1.205218
H -1.571602 0.582861 2.024450
H -0.356219 1.000618 1.168043
5
Structure 2374 | Energy: -10.834869 Hartree
N -0.347136 3.386568 -0.167600
N 0.387230 4.057879 -0.632506
O -1.071394 0.939628 2.034006
H -1.590842 0.284703 1.563528
H -0.343984 1.190227 1.461161
5
Structure 2375 | Energy: -10.834228 Hartree
N -2.587129 3.235906 0.107518
N -2.872383 3.622844 -0.879902
O -1.071394 0.939628 2.034006
H -1.590842 0.284703 1.563528
H -0.343984 1.190227 1.461161
5
Structure 2376 | Energy: -10.834191 Hartree
N -2.587129 3.235906 0.107518
N -2.872383 3.622844 -0.879902
O -1.103054 0.987258 1.989230
H -1.622502 0.332333 1.518752
H -0.375644 1.237857 1.416385
5
Structure 2377 | Energy: -10.834191 Hartree
N -2.587129 3.235906 0.107518
N -2.872383 3.622844 -0.879902
O -2.943298 1.070009 2.553284
H -2.831724 0.386709 1.889391
H -3.843166 1.393783 2.479216
5
Structure 2378 | Energy: -10.834111 Hartree
N -2.587129 3.235906 0.107518
N -2.872383 3.622844 -0.879902
O -2.935274 1.144113 2.463026
H -2.823700 0.460813 1.799133
H -3.835142 1.467887 2.388958
5
Structure 2379 | Energy: -10.835239 Hartree
N -2.799308 2.905777 -0.536291
N -2.660204 3.952973 -0.236093
O -2.935274 1.144113 2.463026
H -2.823700 0.460813 1.799133
H -3.835142 1.467887 2.388958
5
Structure 2380 | Energy: -10.834740 Hartree
N -2.799308 2.905777 -0.536291
N -2.660204 3.952973 -0.236093
O -2.929668 1.097541 2.392006
H -2.989668 2.002028 2.705700
H -3.758150 0.665872 2.609625
5
Structure 2381 | Energy: -10.835024 Hartree
N -0.650733 3.664270 2.136270
N 0.100828 3.457054 2.909773
O -2.929668 1.097541 2.392006
H -2.989668 2.002028 2.705700
H -3.758150 0.665872 2.609625
5
Structure 2382 | Energy: -10.835128 Hartree
N -0.460837 3.096423 1.682584
N 0.290724 2.889207 2.456087
O -2.929668 1.097541 2.392006
H -2.989668 2.002028 2.705700
H -3.758150 0.665872 2.609625
5
Structure 2383 | Energy: -10.835393 Hartree
N -0.460837 3.096423 1.682584
N 0.290724 2.889207 2.456087
O -1.860359 0.213102 1.115661
H -2.379912 0.957421 1.425752
H -2.468579 -0.511491 0.957197
5
Structure 2384 | Energy: -10.835369 Hartree
N -0.460837 3.096423 1.682584
N 0.290724 2.889207 2.456087
O -1.880338 0.182905 1.105389
H -2.399891 0.927224 1.415480
H -2.488559 -0.541688 0.946925
5
Structure 2385 | Energy: -10.835548 Hartree
N -0.004271 1.419310 -1.277226
N 0.990545 0.994552 -1.087461
O -1.880338 0.182905 1.105389
H -2.399891 0.927224 1.415480
H -2.488559 -0.541688 0.946925
5
Structure 2386 | Energy: -10.835522 Hartree
N 0.014975 1.427390 -1.295362
N 1.009790 1.002631 -1.105598
O -1.880338 0.182905 1.105389
H -2.399891 0.927224 1.415480
H -2.488559 -0.541688 0.946925
5
Structure 2387 | Energy: -10.835586 Hartree
N -0.032226 1.407574 -1.250880
N 0.962590 0.982816 -1.061116
O -1.880338 0.182905 1.105389
H -2.399891 0.927224 1.415480
H -2.488559 -0.541688 0.946925
5
Structure 2388 | Energy: -10.835684 Hartree
N -0.101353 1.378553 -1.185735
N 0.893462 0.953795 -0.995971
O -1.880338 0.182905 1.105389
H -2.399891 0.927224 1.415480
H -2.488559 -0.541688 0.946925
5
Structure 2389 | Energy: -10.835684 Hartree
N -0.101353 1.378553 -1.185735
N 0.893462 0.953795 -0.995971
O 0.729548 -0.051660 1.971486
H 1.555410 0.236014 2.365563
H 0.621289 -0.980510 2.185020
5
Structure 2390 | Energy: -10.835097 Hartree
N 0.742740 1.521725 -1.325193
N 0.049369 0.810623 -0.856514
O 0.729548 -0.051660 1.971486
H 1.555410 0.236014 2.365563
H 0.621289 -0.980510 2.185020
5
Structure 2391 | Energy: -10.834857 Hartree
N 0.742740 1.521725 -1.325193
N 0.049369 0.810623 -0.856514
O 0.296677 0.089265 2.322073
H 1.122539 0.376940 2.716150
H 0.188418 -0.839584 2.535607
5
Structure 2392 | Energy: -10.834802 Hartree
N 0.742740 1.521725 -1.325193
N 0.049369 0.810623 -0.856514
O -0.443787 0.631939 2.507793
H 0.382076 0.919613 2.901869
H -0.552045 -0.296911 2.721327
5
Structure 2393 | Energy: -10.834776 Hartree
N 0.742740 1.521725 -1.325193
N 0.049369 0.810623 -0.856514
O -0.459818 0.595992 2.571765
H -0.132871 -0.079244 1.974049
H 0.217357 1.272502 2.633770
5
Structure 2394 | Energy: -10.835685 Hartree
N 0.742740 1.521725 -1.325193
N 0.049369 0.810623 -0.856514
O -2.968399 -0.518612 -0.530182
H -2.120264 -0.965760 -0.501402
H -2.964476 0.142875 0.164438
5
Structure 2395 | Energy: -10.834674 Hartree
N 0.137663 1.650027 -1.116199
N 0.654446 0.682321 -1.065508
O -2.968399 -0.518612 -0.530182
H -2.120264 -0.965760 -0.501402
H -2.964476 0.142875 0.164438
5
Structure 2396 | Energy: -10.834662 Hartree
N 0.137663 1.650027 -1.116199
N 0.654446 0.682321 -1.065508
O -2.968297 -0.063867 0.258261
H -2.120162 -0.511015 0.287041
H -2.964374 0.597620 0.952881
5
Structure 2397 | Energy: -10.834670 Hartree
N 0.137663 1.650027 -1.116199
N 0.654446 0.682321 -1.065508
O -2.929063 -0.049459 0.241823
H -2.080928 -0.496606 0.270603
H -2.925140 0.612029 0.936443
5
Structure 2398 | Energy: -10.835180 Hartree
N -3.139779 0.446388 0.256954
N -2.622997 -0.521319 0.307645
O 0.348379 1.154181 -1.131330
H 1.196514 0.707033 -1.102550
H 0.352302 1.815668 -0.436710
5
Structure 2399 | Energy: -10.834965 Hartree
N -2.997783 0.154847 -0.218689
N -2.764992 -0.229779 0.783289
O 0.348379 1.154181 -1.131330
H 1.196514 0.707033 -1.102550
H 0.352302 1.815668 -0.436710
5
Structure 2400 | Energy: -10.834996 Hartree
N -2.997783 0.154847 -0.218689
N -2.764992 -0.229779 0.783289
O -0.240699 -0.816343 2.786271
H 0.009518 -1.680723 3.118448
H -0.813200 -0.414588 3.442712
5
Structure 2401 | Energy: -10.835153 Hartree
N -2.997783 0.154847 -0.218689
N -2.764992 -0.229779 0.783289
O -0.838084 2.493984 -1.525029
H -0.343860 3.222528 -1.144152
H -1.663858 2.853004 -1.855605
5
Structure 2402 | Energy: -10.835153 Hartree
N -2.997783 0.154847 -0.218689
N -2.764992 -0.229779 0.783289
O 0.053213 1.021350 2.311288
H 0.463876 1.887957 2.332502
H -0.517185 0.958428 3.079900
5
Structure 2403 | Energy: -10.835097 Hartree
N -0.072120 1.258632 1.854492
N 0.160671 0.874006 2.856470
O -2.872450 -0.082434 0.238106
H -2.461787 0.784173 0.259320
H -3.442848 -0.145356 1.006719
5
Structure 2404 | Energy: -10.834750 Hartree
N 0.651484 0.835833 2.163948
N 0.884275 0.451207 3.165926
O -2.872450 -0.082434 0.238106
H -2.461787 0.784173 0.259320
H -3.442848 -0.145356 1.006719
5
Structure 2405 | Energy: -10.834814 Hartree
N -2.997783 0.154847 -0.218689
N -2.764992 -0.229779 0.783289
O 0.776817 0.598551 2.620744
H 1.187480 1.465159 2.641958
H 0.206419 0.535629 3.389357
5
Structure 2406 | Energy: -10.834825 Hartree
N -2.972749 0.159519 -0.202344
N -2.739958 -0.225107 0.799634
O 0.776817 0.598551 2.620744
H 1.187480 1.465159 2.641958
H 0.206419 0.535629 3.389357
5
Structure 2407 | Energy: -10.834760 Hartree
N 0.651484 0.835833 2.163948
N 0.884275 0.451207 3.165926
O -2.847415 -0.077763 0.254451
H -2.436753 0.788845 0.275665
H -3.417813 -0.140685 1.023064
5
Structure 2408 | Energy: -10.834646 Hartree
N 0.651484 0.835833 2.163948
N 0.884275 0.451207 3.165926
O -2.834745 -0.062853 0.246831
H -2.599227 0.822598 0.530753
H -3.456448 -0.411092 0.888930
5
Structure 2409 | Energy: -10.834990 Hartree
N 0.688913 1.270699 1.805556
N 1.620750 1.208245 1.227743
O -2.834745 -0.062853 0.246831
H -2.599227 0.822598 0.530753
H -3.456448 -0.411092 0.888930
5
Structure 2410 | Energy: -10.834345 Hartree
N 1.122133 0.668115 0.766790
N 1.500272 1.375823 1.516623
O -2.834745 -0.062853 0.246831
H -2.599227 0.822598 0.530753
H -3.456448 -0.411092 0.888930
5
Structure 2411 | Energy: -10.832902 Hartree
N 1.122133 0.668115 0.766790
N 1.500272 1.375823 1.516623
O -1.451315 0.304362 0.271710
H -1.215798 1.189812 0.555632
H -2.073019 -0.043877 0.913810
5
Structure 2412 | Energy: -10.835371 Hartree
N -1.661993 -0.019433 -0.051392
N -1.283854 0.688275 0.698440
O 1.332811 0.991910 1.089892
H 1.568329 1.877360 1.373815
H 0.711108 0.643671 1.731992
5
Structure 2413 | Energy: -10.835628 Hartree
N -2.228316 -0.307137 0.251483
N -1.850177 0.400571 1.001316
O 1.332811 0.991910 1.089892
H 1.568329 1.877360 1.373815
H 0.711108 0.643671 1.731992
5
Structure 2414 | Energy: -10.835119 Hartree
N 2.902840 2.512961 -2.072456
N 1.906766 2.584943 -1.615572
O 1.332811 0.991910 1.089892
H 1.568329 1.877360 1.373815
H 0.711108 0.643671 1.731992
5
Structure 2415 | Energy: -10.835139 Hartree
N 2.888070 2.492338 -2.032131
N 1.891996 2.564319 -1.575246
O 1.332811 0.991910 1.089892
H 1.568329 1.877360 1.373815
H 0.711108 0.643671 1.731992
5
Structure 2416 | Energy: -10.834698 Hartree
N 2.888070 2.492338 -2.032131
N 1.891996 2.564319 -1.575246
O 0.582475 1.514620 1.364567
H 0.817992 2.400070 1.648489
H -0.039229 1.166380 2.006666
5
Structure 2417 | Energy: -10.834951 Hartree
N 2.939060 2.529810 -1.794284
N 1.841005 2.526847 -1.813093
O 0.582475 1.514620 1.364567
H 0.817992 2.400070 1.648489
H -0.039229 1.166380 2.006666
5
Structure 2418 | Energy: -10.834970 Hartree
N 2.939060 2.529810 -1.794284
N 1.841005 2.526847 -1.813093
O 0.719480 -0.834762 -2.284923
H 0.961668 -0.697706 -3.202890
H 0.126532 -1.588230 -2.257044
5
Structure 2419 | Energy: -10.835041 Hartree
N 2.872318 2.395646 -1.815254
N 1.774263 2.392682 -1.834062
O 0.719480 -0.834762 -2.284923
H 0.961668 -0.697706 -3.202890
H 0.126532 -1.588230 -2.257044
5
Structure 2420 | Energy: -10.835042 Hartree
N -0.090154 -0.763289 1.540021
N -0.556644 -0.092803 0.805907
O 0.719480 -0.834762 -2.284923
H 0.961668 -0.697706 -3.202890
H 0.126532 -1.588230 -2.257044
5
Structure 2421 | Energy: -10.835078 Hartree
N -0.069592 -0.772155 1.469535
N -0.536082 -0.101669 0.735420
O 0.719480 -0.834762 -2.284923
H 0.961668 -0.697706 -3.202890
H 0.126532 -1.588230 -2.257044
5
Structure 2422 | Energy: -10.835174 Hartree
N -3.169714 -1.148777 -2.483698
N -2.496461 -1.599716 -3.224962
O 0.719480 -0.834762 -2.284923
H 0.961668 -0.697706 -3.202890
H 0.126532 -1.588230 -2.257044
5
Structure 2423 | Energy: -10.835174 Hartree
N -3.169714 -1.148777 -2.483698
N -2.496461 -1.599716 -3.224962
O 0.719480 -1.116634 -2.113450
H 0.961668 -1.994836 -2.413797
H 0.126532 -0.745451 -2.769738
5
Structure 2424 | Energy: -10.834755 Hartree
N 0.363227 -0.919534 -1.796345
N 1.036481 -1.370473 -2.537609
O -2.813461 -1.345877 -2.800803
H -2.571273 -2.224079 -3.101150
H -3.406409 -0.974694 -3.457091
5
Structure 2425 | Energy: -10.834610 Hartree
N 0.363227 -0.919534 -1.796345
N 1.036481 -1.370473 -2.537609
O -2.031784 0.665910 -0.737216
H -1.679348 0.291049 0.072334
H -2.983648 0.549935 -0.713088
5
Structure 2426 | Energy: -10.835244 Hartree
N -1.129742 -2.141972 0.279929
N -1.197180 -3.199386 0.568746
O -2.031784 0.665910 -0.737216
H -1.679348 0.291049 0.072334
H -2.983648 0.549935 -0.713088
5
Structure 2427 | Energy: -10.834593 Hartree
N 0.161047 2.711784 -0.149788
N 0.863735 3.531952 -0.348895
O -2.031784 0.665910 -0.737216
H -1.679348 0.291049 0.072334
H -2.983648 0.549935 -0.713088
5
Structure 2428 | Energy: -10.834593 Hartree
N 0.161047 2.711784 -0.149788
N 0.863735 3.531952 -0.348895
O -2.031784 1.162972 1.310298
H -1.679348 0.458653 0.762734
H -2.983648 1.048843 1.342031
5
Structure 2429 | Energy: -10.835210 Hartree
N -2.416668 0.707093 1.380989
N -1.713980 1.527260 1.181882
O 0.545931 3.167663 -0.220479
H 0.898367 2.463344 -0.768043
H -0.405933 3.053534 -0.188746
5
Structure 2430 | Energy: -10.835500 Hartree
N -2.416668 0.707093 1.380989
N -1.713980 1.527260 1.181882
O 1.212607 3.380360 0.224557
H 1.565043 2.676041 -0.323007
H 0.260743 3.266232 0.256290
5
Structure 2431 | Energy: -10.835472 Hartree
N -2.440137 0.691053 1.388843
N -1.737449 1.511220 1.189736
O 1.212607 3.380360 0.224557
H 1.565043 2.676041 -0.323007
H 0.260743 3.266232 0.256290
5
Structure 2432 | Energy: -10.835542 Hartree
N -2.381957 0.730816 1.369373
N -1.679269 1.550983 1.170266
O 1.212607 3.380360 0.224557
H 1.565043 2.676041 -0.323007
H 0.260743 3.266232 0.256290
5
Structure 2433 | Energy: -10.835634 Hartree
N -2.307846 0.781467 1.344572
N -1.605158 1.601635 1.145465
O 1.212607 3.380360 0.224557
H 1.565043 2.676041 -0.323007
H 0.260743 3.266232 0.256290
5
Structure 2434 | Energy: -10.835047 Hartree
N -2.307846 0.781467 1.344572
N -1.605158 1.601635 1.145465
O 1.445545 4.552134 0.551484
H 1.797981 3.847815 0.003920
H 0.493681 4.438006 0.583217
5
Structure 2435 | Energy: -10.835020 Hartree
N -2.307846 0.781467 1.344572
N -1.605158 1.601635 1.145465
O 1.483377 4.589363 0.543371
H 1.835813 3.885044 -0.004193
H 0.531513 4.475235 0.575104
5
Structure 2436 | Energy: -10.835011 Hartree
N 0.168995 2.149678 -4.132138
N 0.377111 2.580779 -3.143742
O 1.483377 4.589363 0.543371
H 1.835813 3.885044 -0.004193
H 0.531513 4.475235 0.575104
5
Structure 2437 | Energy: -10.834885 Hartree
N -0.317256 1.555488 -4.028371
N -0.109140 1.986589 -3.039975
O 1.483377 4.589363 0.543371
H 1.835813 3.885044 -0.004193
H 0.531513 4.475235 0.575104
5
Structure 2438 | Energy: -10.834866 Hartree
N -0.317256 1.555488 -4.028371
N -0.109140 1.986589 -3.039975
O 1.500964 4.618682 0.586185
H 1.853399 3.914363 0.038621
H 0.549099 4.504554 0.617918
5
Structure 2439 | Energy: -10.834680 Hartree
N -1.550036 1.664232 -4.240219
N -1.341920 2.095333 -3.251822
O 1.500964 4.618682 0.586185
H 1.853399 3.914363 0.038621
H 0.549099 4.504554 0.617918
5
Structure 2440 | Energy: -10.834680 Hartree
N -2.162839 1.941531 -3.968040
N -1.347090 2.097672 -3.249526
O 1.500964 4.618682 0.586185
H 1.853399 3.914363 0.038621
H 0.549099 4.504554 0.617918
5
Structure 2441 | Energy: -10.834680 Hartree
N -1.550036 1.664232 -4.240219
N -1.341920 2.095333 -3.251822
O 1.500964 4.618682 0.586185
H 1.853399 3.914363 0.038621
H 0.549099 4.504554 0.617918
5
Structure 2442 | Energy: -10.834619 Hartree
N -1.550036 1.664232 -4.240219
N -1.341920 2.095333 -3.251822
O -2.580335 0.955656 1.982266
H -3.169254 1.397423 1.367351
H -1.685937 1.081935 1.659493
5
Structure 2443 | Energy: -10.834766 Hartree
N -2.286693 0.743479 -3.932140
N -2.078577 1.174580 -2.943743
O -2.580335 0.955656 1.982266
H -3.169254 1.397423 1.367351
H -1.685937 1.081935 1.659493
5
Structure 2444 | Energy: -10.834755 Hartree
N -2.283502 0.743241 -3.977143
N -2.075386 1.174342 -2.988746
O -2.580335 0.955656 1.982266
H -3.169254 1.397423 1.367351
H -1.685937 1.081935 1.659493
5
Structure 2445 | Energy: -10.834662 Hartree
N -1.671717 0.516883 -4.317306
N -1.463601 0.947984 -3.328909
O -2.580335 0.955656 1.982266
H -3.169254 1.397423 1.367351
H -1.685937 1.081935 1.659493
5
Structure 2446 | Energy: -10.834655 Hartree
N -1.671717 0.516883 -4.317306
N -1.463601 0.947984 -3.328909
O -2.588962 0.957865 2.032111
H -3.177880 1.399632 1.417197
H -1.694563 1.084145 1.709338
5
Structure 2447 | Energy: -10.834434 Hartree
N -1.989905 -3.334263 -2.673362
N -2.498731 -2.892999 -1.805911
O -2.588962 0.957865 2.032111
H -3.177880 1.399632 1.417197
H -1.694563 1.084145 1.709338
5
Structure 2448 | Energy: -10.834613 Hartree
N -2.319011 -3.653709 -2.304900
N -2.169625 -2.573554 -2.174373
O -2.588962 0.957865 2.032111
H -3.177880 1.399632 1.417197
H -1.694563 1.084145 1.709338
5
Structure 2449 | Energy: -10.834492 Hartree
N -2.319011 -3.653709 -2.304900
N -2.169625 -2.573554 -2.174373
O -0.504183 2.535758 -2.235319
H 0.083606 2.244585 -2.935194
H -1.384196 2.599492 -2.611608
5
Structure 2450 | Energy: -10.834492 Hartree
N 0.097490 0.793548 -0.211394
N 0.246876 1.873703 -0.080866
O -1.514844 -4.152939 -1.558661
H -2.273952 -3.707424 -1.939940
H -1.631467 -4.148416 -0.606580
5
Structure 2451 | Energy: -10.834491 Hartree
N 0.097490 0.793548 -0.211394
N 0.246876 1.873703 -0.080866
O -1.615973 -4.097518 -1.547299
H -1.388207 -4.281727 -0.633903
H -0.912098 -4.453743 -2.092957
5
Structure 2452 | Energy: -10.834419 Hartree
N 0.097490 0.793548 -0.211394
N 0.246876 1.873703 -0.080866
O -0.187072 -2.866094 -1.345433
H 0.040693 -3.050303 -0.432037
H 0.516802 -3.222319 -1.891092
5
Structure 2453 | Energy: -10.834453 Hartree
N 0.097490 0.793548 -0.211394
N 0.246876 1.873703 -0.080866
O 0.329390 -3.047465 -1.846168
H 0.557155 -3.231674 -0.932772
H 1.033264 -3.403690 -2.391826
5
Structure 2454 | Energy: -10.834453 Hartree
N 1.357559 0.338300 -4.073070
N 1.628755 1.374447 -4.315848
O 0.329390 -3.047465 -1.846168
H 0.557155 -3.231674 -0.932772
H 1.033264 -3.403690 -2.391826
5
Structure 2455 | Energy: -10.834451 Hartree
N 1.368650 0.377552 -4.096705
N 1.639846 1.413699 -4.339483
O 0.329390 -3.047465 -1.846168
H 0.557155 -3.231674 -0.932772
H 1.033264 -3.403690 -2.391826
5
Structure 2456 | Energy: -10.834456 Hartree
N 1.336902 0.265197 -4.029051
N 1.608098 1.301344 -4.271830
O 0.329390 -3.047465 -1.846168
H 0.557155 -3.231674 -0.932772
H 1.033264 -3.403690 -2.391826
5
Structure 2457 | Energy: -10.834841 Hartree
N 1.169163 1.169587 -4.395938
N 1.775837 0.396955 -3.904944
O 0.329390 -3.047465 -1.846168
H 0.557155 -3.231674 -0.932772
H 1.033264 -3.403690 -2.391826
5
Structure 2458 | Energy: -10.834785 Hartree
N 2.312760 0.131211 1.526975
N 1.603165 -0.706977 1.525276
O 0.329390 -3.047465 -1.846168
H 0.557155 -3.231674 -0.932772
H 1.033264 -3.403690 -2.391826
5
Structure 2459 | Energy: -10.834721 Hartree
N 2.312760 0.131211 1.526975
N 1.603165 -0.706977 1.525276
O 0.432487 -3.109952 -1.805161
H -0.261008 -2.735786 -1.258199
H 0.215069 -2.907783 -2.717266
5
Structure 2460 | Energy: -10.834356 Hartree
N 1.856447 0.226658 1.688803
N 2.059479 -0.802424 1.363449
O 0.432487 -3.109952 -1.805161
H -0.261008 -2.735786 -1.258199
H 0.215069 -2.907783 -2.717266
5
Structure 2461 | Energy: -10.834641 Hartree
N 1.856447 0.226658 1.688803
N 2.059479 -0.802424 1.363449
O 0.431889 -3.046323 -1.848682
H -0.488361 -2.882423 -2.064041
H 0.451913 -3.771072 -1.220657
5
Structure 2462 | Energy: -10.834641 Hartree
N 0.741216 1.280631 0.688514
N 0.289035 0.870770 -0.224522
O 0.431889 -3.046323 -1.848682
H -0.488361 -2.882423 -2.064041
H 0.451913 -3.771072 -1.220657
5
Structure 2463 | Energy: -10.834493 Hartree
N 1.235162 2.338193 0.963870
N 0.782981 1.928332 0.050834
O 0.431889 -3.046323 -1.848682
H -0.488361 -2.882423 -2.064041
H 0.451913 -3.771072 -1.220657
5
Structure 2464 | Energy: -10.834432 Hartree
N 1.235162 2.338193 0.963870
N 0.782981 1.928332 0.050834
O -0.588933 -2.160858 -1.627806
H -1.509183 -1.996958 -1.843165
H -0.568910 -2.885608 -0.999781
5
Structure 2465 | Energy: -10.834414 Hartree
N 2.264143 3.141329 1.395467
N 1.811962 2.731468 0.482431
O -0.588933 -2.160858 -1.627806
H -1.509183 -1.996958 -1.843165
H -0.568910 -2.885608 -0.999781
5
Structure 2466 | Energy: -10.834563 Hartree
N -0.413214 -1.987309 -1.148198
N -0.865394 -2.397170 -2.061234
O 2.088423 2.967780 0.915859
H 1.168174 3.131680 0.700500
H 2.108447 2.243030 1.543884
5
Structure 2467 | Energy: -10.834480 Hartree
N -0.958645 -2.099019 -1.167848
N -0.319963 -2.285460 -2.041584
O 2.088423 2.967780 0.915859
H 1.168174 3.131680 0.700500
H 2.108447 2.243030 1.543884
5
Structure 2468 | Energy: -10.834549 Hartree
N -0.958645 -2.099019 -1.167848
N -0.319963 -2.285460 -2.041584
O 1.061729 2.341444 2.415725
H 0.141479 2.505344 2.200366
H 1.081753 1.616695 3.043750
5
Structure 2469 | Energy: -10.834561 Hartree
N -0.958645 -2.099019 -1.167848
N -0.319963 -2.285460 -2.041584
O 1.014496 2.212613 2.300021
H 0.094246 2.376513 2.084662
H 1.034520 1.487864 2.928046
5
Structure 2470 | Energy: -10.834508 Hartree
N -0.164649 -2.265525 -1.870900
N -1.113959 -2.118955 -1.338531
O 1.014496 2.212613 2.300021
H 0.094246 2.376513 2.084662
H 1.034520 1.487864 2.928046
5
Structure 2471 | Energy: -10.834510 Hartree
N 1.438781 2.107946 2.056927
N 0.489470 2.254516 2.589296
O -0.588933 -2.160858 -1.627806
H -1.509183 -1.996958 -1.843165
H -0.568910 -2.885608 -0.999781
5
Structure 2472 | Energy: -10.834530 Hartree
N 1.812768 1.518985 2.448903
N 0.959431 2.209467 2.482646
O -0.588933 -2.160858 -1.627806
H -1.509183 -1.996958 -1.843165
H -0.568910 -2.885608 -0.999781
5
Structure 2473 | Energy: -10.834527 Hartree
N 1.812768 1.518985 2.448903
N 0.959431 2.209467 2.482646
O -0.603479 -2.189990 -1.657038
H -1.523728 -2.026089 -1.872397
H -0.583455 -2.914739 -1.029013
5
Structure 2474 | Energy: -10.834524 Hartree
N 1.812768 1.518985 2.448903
N 0.959431 2.209467 2.482646
O -0.622515 -2.228115 -1.695295
H -1.542765 -2.064215 -1.910654
H -0.602491 -2.952865 -1.067270
5
Structure 2475 | Energy: -10.834532 Hartree
N 1.766311 1.425942 2.355538
N 0.912974 2.116424 2.389282
O -0.622515 -2.228115 -1.695295
H -1.542765 -2.064215 -1.910654
H -0.602491 -2.952865 -1.067270
5
Structure 2476 | Energy: -10.834538 Hartree
N 1.766311 1.425942 2.355538
N 0.912974 2.116424 2.389282
O -0.872460 -2.050023 -1.738023
H -1.811116 -1.899395 -1.865841
H -0.782946 -2.807377 -1.156232
5
Structure 2477 | Energy: -10.834485 Hartree
N 1.768733 1.765154 2.714999
N 0.910552 1.777212 2.029821
O -0.872460 -2.050023 -1.738023
H -1.811116 -1.899395 -1.865841
H -0.782946 -2.807377 -1.156232
5
Structure 2478 | Energy: -10.834480 Hartree
N 1.768733 1.765154 2.714999
N 0.910552 1.777212 2.029821
O -0.691942 -2.810511 -2.720214
H -1.630598 -2.659882 -2.848031
H -0.602429 -3.567864 -2.138423
5
Structure 2479 | Energy: -10.834482 Hartree
N 1.768733 1.765154 2.714999
N 0.910552 1.777212 2.029821
O -0.500569 -2.014395 -3.311015
H -1.439226 -1.863767 -3.438832
H -0.411056 -2.771749 -2.729224
5
Structure 2480 | Energy: -10.834456 Hartree
N -0.118991 -2.054372 -2.943025
N -0.977172 -2.042315 -3.628202
O 1.387155 1.805131 2.347008
H 0.448498 1.955760 2.219191
H 1.476668 1.047778 2.928800
5
Structure 2481 | Energy: -10.834465 Hartree
N 0.062163 -4.055788 -0.698549
N 0.290663 -5.090285 -0.409253
O 1.387155 1.805131 2.347008
H 0.448498 1.955760 2.219191
H 1.476668 1.047778 2.928800
5
Structure 2482 | Energy: -10.834465 Hartree
N 0.053464 -4.103231 -0.720433
N 0.281964 -5.137728 -0.431137
O 1.387155 1.805131 2.347008
H 0.448498 1.955760 2.219191
H 1.476668 1.047778 2.928800
5
Structure 2483 | Energy: -10.834511 Hartree
N 0.053464 -4.103231 -0.720433
N 0.281964 -5.137728 -0.431137
O 1.352539 1.721775 2.410458
H 1.993438 2.292214 1.981564
H 0.481151 2.034363 2.159360
5
Structure 2484 | Energy: -10.834512 Hartree
N -0.676175 -3.929040 -0.656222
N -0.689281 -4.969151 -0.303964
O 1.352539 1.721775 2.410458
H 1.993438 2.292214 1.981564
H 0.481151 2.034363 2.159360
5
Structure 2485 | Energy: -10.834546 Hartree
N 0.513599 -2.977772 -1.452412
N 0.500493 -4.017883 -1.100153
O 1.352539 1.721775 2.410458
H 1.993438 2.292214 1.981564
H 0.481151 2.034363 2.159360
5
Structure 2486 | Energy: -10.834141 Hartree
N -0.987435 0.523753 -0.957208
N -1.272598 -0.482850 -1.291156
O 1.411189 1.244262 0.712634
H 2.181041 0.780616 1.047989
H 1.201662 0.865026 -0.143144
5
Structure 2487 | Energy: -10.834216 Hartree
N -1.019457 0.509107 -0.979709
N -1.304620 -0.497496 -1.313657
O 1.411189 1.244262 0.712634
H 2.181041 0.780616 1.047989
H 1.201662 0.865026 -0.143144
5
Structure 2488 | Energy: -10.833721 Hartree
N -1.019457 0.509107 -0.979709
N -1.304620 -0.497496 -1.313657
O 1.268692 1.179086 0.612503
H 2.038544 0.715440 0.947858
H 1.059164 0.799850 -0.243275
5
Structure 2489 | Energy: -10.833941 Hartree
N -1.019457 0.509107 -0.979709
N -1.304620 -0.497496 -1.313657
O 1.316763 1.201072 0.646282
H 2.086615 0.737427 0.981637
H 1.107235 0.821837 -0.209497
5
Structure 2490 | Energy: -10.833689 Hartree
N -0.965421 0.533822 -0.941739
N -1.250584 -0.472781 -1.275686
O 1.316763 1.201072 0.646282
H 2.086615 0.737427 0.981637
H 1.107235 0.821837 -0.209497
5
Structure 2491 | Energy: -10.836101 Hartree
N 1.490696 1.657212 0.784136
N 1.205533 0.650609 0.450188
O -1.139354 0.077683 -1.079593
H -0.369502 -0.385963 -0.744238
H -1.348882 -0.301553 -1.935371
5
Structure 2492 | Energy: -10.836143 Hartree
N 1.528210 1.674370 0.810496
N 1.243047 0.667767 0.476549
O -1.139354 0.077683 -1.079593
H -0.369502 -0.385963 -0.744238
H -1.348882 -0.301553 -1.935371
5
Structure 2493 | Energy: -10.835864 Hartree
N 1.408170 1.619466 0.726146
N 1.123007 0.612863 0.392199
O -1.139354 0.077683 -1.079593
H -0.369502 -0.385963 -0.744238
H -1.348882 -0.301553 -1.935371
5
Structure 2494 | Energy: -10.835524 Hartree
N 1.408170 1.619466 0.726146
N 1.123007 0.612863 0.392199
O -1.123501 0.076802 -1.149614
H -0.717515 -0.764114 -1.369016
H -1.252498 0.090567 -0.199220
5
Structure 2495 | Energy: -10.835159 Hartree
N 1.273586 1.557909 0.631576
N 0.988423 0.551306 0.297628
O -1.123501 0.076802 -1.149614
H -0.717515 -0.764114 -1.369016
H -1.252498 0.090567 -0.199220
5
Structure 2496 | Energy: -10.833445 Hartree
N 1.273586 1.557909 0.631576
N 0.988423 0.551306 0.297628
O -0.955081 0.153835 -1.031268
H -0.549095 -0.687081 -1.250669
H -1.084078 0.167600 -0.080874
5
Structure 2497 | Energy: -10.833870 Hartree
N 1.727771 1.001475 0.320538
N 1.070062 0.124961 0.248212
O -0.955081 0.153835 -1.031268
H -0.549095 -0.687081 -1.250669
H -1.084078 0.167600 -0.080874
5
Structure 2498 | Energy: -10.833969 Hartree
N 1.727709 1.002271 0.309885
N 1.070124 0.124166 0.258866
O -0.955081 0.153835 -1.031268
H -0.549095 -0.687081 -1.250669
H -1.084078 0.167600 -0.080874
5
Structure 2499 | Energy: -10.835384 Hartree
N 1.727709 1.002271 0.309885
N 1.070124 0.124166 0.258866
O -1.877510 -0.218380 -1.569099
H -1.471524 -1.059296 -1.788501
H -2.006507 -0.204615 -0.618705
5
Structure 2500 | Energy: -10.835476 Hartree
N 1.727709 1.002271 0.309885
N 1.070124 0.124166 0.258866
O -1.332419 -0.389681 -0.803508
H -0.926433 -1.230597 -1.022909
H -1.461416 -0.375916 0.146886
5
Structure 2501 | Energy: -10.833120 Hartree
N 1.540516 1.561280 -0.184164
N 0.666148 1.330551 -0.807328
O -1.332419 -0.389681 -0.803508
H -0.926433 -1.230597 -1.022909
H -1.461416 -0.375916 0.146886
5
Structure 2502 | Energy: -10.835476 Hartree
N 1.727709 1.002271 0.309885
N 1.070124 0.124166 0.258866
O -1.332419 -0.389681 -0.803508
H -0.926433 -1.230597 -1.022909
H -1.461416 -0.375916 0.146886
5
Structure 2503 | Energy: -10.835845 Hartree
N 1.727709 1.002271 0.309885
N 1.070124 0.124166 0.258866
O -0.751223 -0.456447 -2.243347
H -0.345236 -1.297363 -2.462748
H -0.880220 -0.442681 -1.292953
5
Structure 2504 | Energy: -10.834826 Hartree
N 1.508516 0.851651 0.738596
N 1.289317 0.274785 -0.169845
O -0.751223 -0.456447 -2.243347
H -0.345236 -1.297363 -2.462748
H -0.880220 -0.442681 -1.292953
5
Structure 2505 | Energy: -10.834339 Hartree
N 1.379868 0.787410 0.588723
N 1.160669 0.210544 -0.319718
O -0.751223 -0.456447 -2.243347
H -0.345236 -1.297363 -2.462748
H -0.880220 -0.442681 -1.292953
5
Structure 2506 | Energy: -10.833826 Hartree
N 1.379868 0.787410 0.588723
N 1.160669 0.210544 -0.319718
O -0.564107 -1.143624 -2.055894
H -0.158121 -1.984541 -2.275296
H -0.693104 -1.129859 -1.105501
5
Structure 2507 | Energy: -10.833986 Hartree
N 1.402146 0.808095 0.615050
N 1.182946 0.231229 -0.293391
O -0.564107 -1.143624 -2.055894
H -0.158121 -1.984541 -2.275296
H -0.693104 -1.129859 -1.105501
5
Structure 2508 | Energy: -10.834851 Hartree
N 1.402146 0.808095 0.615050
N 1.182946 0.231229 -0.293391
O -0.564108 -1.143625 -2.055895
H 0.322404 -1.442460 -1.844006
H -1.173613 -1.671922 -1.536775
5
Structure 2509 | Energy: -10.834970 Hartree
N 1.435369 0.838944 0.654312
N 1.216170 0.262078 -0.254129
O -0.564108 -1.143625 -2.055895
H 0.322404 -1.442460 -1.844006
H -1.173613 -1.671922 -1.536775
5
Structure 2510 | Energy: -10.835026 Hartree
N 1.435369 0.838944 0.654312
N 1.216170 0.262078 -0.254129
O -1.966494 -1.063877 -1.243594
H -1.079982 -1.362711 -1.031706
H -2.575998 -1.592173 -0.724474
5
Structure 2511 | Energy: -10.835137 Hartree
N -1.841395 -0.821725 -0.748471
N -2.060594 -1.398591 -1.656913
O 1.310270 0.596792 0.159189
H 2.196782 0.297958 0.371078
H 0.700765 0.068496 0.678309
5
Structure 2512 | Energy: -10.835026 Hartree
N 1.435369 0.838944 0.654312
N 1.216170 0.262078 -0.254129
O -1.966494 -1.063877 -1.243594
H -1.079982 -1.362711 -1.031706
H -2.575998 -1.592173 -0.724474
5
Structure 2513 | Energy: -10.834605 Hartree
N 1.971012 0.085444 -1.431910
N 1.751813 -0.491423 -2.340351
O -1.966494 -1.063877 -1.243594
H -1.079982 -1.362711 -1.031706
H -2.575998 -1.592173 -0.724474
5
Structure 2514 | Energy: -10.834634 Hartree
N 1.359719 -0.338489 -2.063517
N 2.363106 -0.067490 -1.708744
O -1.966494 -1.063877 -1.243594
H -1.079982 -1.362711 -1.031706
H -2.575998 -1.592173 -0.724474
5
Structure 2515 | Energy: -10.834690 Hartree
N 1.359719 -0.338489 -2.063517
N 2.363106 -0.067490 -1.708744
O -1.966494 -1.063877 -1.243594
H -1.111097 -1.490702 -1.164736
H -2.544884 -1.464187 -0.591448
5
Structure 2516 | Energy: -10.835569 Hartree
N -2.452688 -1.245657 -1.380078
N -1.449301 -0.974658 -1.025306
O 1.845913 -0.156708 -1.927032
H 2.701310 -0.583534 -1.848175
H 1.267523 -0.557018 -1.274886
5
Structure 2517 | Energy: -10.835803 Hartree
N -2.452688 -1.245657 -1.380078
N -1.449301 -0.974658 -1.025306
O 1.645044 -0.204506 -1.891023
H 2.500441 -0.631331 -1.812165
H 1.066653 -0.604816 -1.238877
5
Structure 2518 | Energy: -10.834697 Hartree
N 1.158850 -0.386286 -2.027507
N 2.162237 -0.115287 -1.672735
O -1.966494 -1.063877 -1.243594
H -1.111097 -1.490702 -1.164736
H -2.544884 -1.464187 -0.591448
5
Structure 2519 | Energy: -10.834335 Hartree
N 1.225633 -0.222430 -2.184143
N 2.095454 -0.279143 -1.516099
O -1.966494 -1.063877 -1.243594
H -1.111097 -1.490702 -1.164736
H -2.544884 -1.464187 -0.591448
5
Structure 2520 | Energy: -10.835385 Hartree
N -0.107476 0.772217 1.010986
N -0.325975 1.826915 1.225366
O -1.966494 -1.063877 -1.243594
H -1.111097 -1.490702 -1.164736
H -2.544884 -1.464187 -0.591448
5
Structure 2521 | Energy: -10.835400 Hartree
N -0.033457 0.744903 0.970799
N -0.207562 1.812689 1.159503
O -1.966494 -1.063877 -1.243594
H -1.111097 -1.490702 -1.164736
H -2.544884 -1.464187 -0.591448
5
Structure 2522 | Energy: -10.835567 Hartree
N -0.119751 0.632281 0.863887
N -0.293857 1.700067 1.052590
O -1.966494 -1.063877 -1.243594
H -1.111097 -1.490702 -1.164736
H -2.544884 -1.464187 -0.591448
5
Structure 2523 | Energy: -10.835953 Hartree
N -0.119751 0.632281 0.863887
N -0.293857 1.700067 1.052590
O -1.853346 -0.375037 -0.833386
H -0.997949 -0.801862 -0.754528
H -2.431737 -0.775347 -0.181240
5
Structure 2524 | Energy: -10.835527 Hartree
N -0.119751 0.632281 0.863887
N -0.293857 1.700067 1.052590
O -1.812253 -0.364274 -0.804571
H -1.641036 -1.177759 -1.283142
H -2.440889 -0.570278 -0.109979
5
Structure 2525 | Energy: -10.835272 Hartree
N -0.119751 0.632281 0.863887
N -0.293857 1.700067 1.052590
O -1.741943 -0.295842 -0.729102
H -1.570726 -1.109326 -1.207673
H -2.370579 -0.501845 -0.034510
5
Structure 2526 | Energy: -10.835362 Hartree
N -0.119751 0.632281 0.863887
N -0.293857 1.700067 1.052590
O -1.758575 -0.312029 -0.746954
H -1.587358 -1.125514 -1.225525
H -2.387210 -0.518033 -0.052362
5
Structure 2527 | Energy: -10.834831 Hartree
N -0.119751 0.632281 0.863887
N -0.293857 1.700067 1.052590
O 2.270354 0.510490 1.924946
H 3.153876 0.734756 1.626289
H 2.116724 0.988909 2.742008
5
Structure 2528 | Energy: -10.835000 Hartree
N -0.168026 0.644098 0.844797
N -0.342132 1.711884 1.033500
O 2.270354 0.510490 1.924946
H 3.153876 0.734756 1.626289
H 2.116724 0.988909 2.742008
5
Structure 2529 | Energy: -10.835606 Hartree
N 0.386828 -1.130917 1.027870
N -0.222293 -1.129206 1.941685
O 2.270354 0.510490 1.924946
H 3.153876 0.734756 1.626289
H 2.116724 0.988909 2.742008
5
Structure 2530 | Energy: -10.835085 Hartree
N 0.502409 -1.043807 1.052199
N -0.106711 -1.042095 1.966014
O 2.270354 0.510490 1.924946
H 3.153876 0.734756 1.626289
H 2.116724 0.988909 2.742008
5
Structure 2531 | Energy: -10.835085 Hartree
N 0.906742 -1.142883 0.617246
N 1.734147 -1.493169 -0.014253
O 2.270354 0.510490 1.924946
H 3.153876 0.734756 1.626289
H 2.116724 0.988909 2.742008
5
Structure 2532 | Energy: -10.833798 Hartree
N 0.959313 -1.043773 0.704928
N 1.786717 -1.394059 0.073429
O 2.270354 0.510490 1.924946
H 3.153876 0.734756 1.626289
H 2.116724 0.988909 2.742008
5
Structure 2533 | Energy: -10.833741 Hartree
N 0.045297 -0.321062 2.139528
N 0.009870 -0.709900 1.113059
O 2.270354 0.510490 1.924946
H 3.153876 0.734756 1.626289
H 2.116724 0.988909 2.742008
5
Structure 2534 | Energy: -10.836012 Hartree
N 0.045297 -0.321062 2.139528
N 0.009870 -0.709900 1.113059
O 2.715741 0.194751 2.192885
H 3.599263 0.419017 1.894228
H 2.562110 0.673170 3.009947
5
Structure 2535 | Energy: -10.835609 Hartree
N 0.185610 -0.282523 2.170151
N 0.150183 -0.671361 1.143682
O 2.715741 0.194751 2.192885
H 3.599263 0.419017 1.894228
H 2.562110 0.673170 3.009947
5
Structure 2536 | Energy: -10.835685 Hartree
N 0.076500 -0.876017 1.290982
N 0.259294 -0.077868 2.022852
O 2.715741 0.194751 2.192885
H 3.599263 0.419017 1.894228
H 2.562110 0.673170 3.009947
5
Structure 2537 | Energy: -10.835733 Hartree
N 0.225096 -0.093998 2.046280
N 0.110697 -0.859887 1.267553
O 2.715741 0.194751 2.192885
H 3.599263 0.419017 1.894228
H 2.562110 0.673170 3.009947
5
Structure 2538 | Energy: -10.835306 Hartree
N 0.298473 -0.073844 2.062295
N 0.184074 -0.839733 1.283567
O 2.715741 0.194751 2.192885
H 3.599263 0.419017 1.894228
H 2.562110 0.673170 3.009947
5
Structure 2539 | Energy: -10.835119 Hartree
N 0.321275 -0.067582 2.067271
N 0.206876 -0.833470 1.288544
O 2.715741 0.194751 2.192885
H 3.599263 0.419017 1.894228
H 2.562110 0.673170 3.009947
5
Structure 2540 | Energy: -10.834506 Hartree
N 0.321275 -0.067582 2.067271
N 0.206876 -0.833470 1.288544
O 2.659255 0.179237 2.180557
H 3.542777 0.403503 1.881900
H 2.505625 0.657656 2.997620
5
Structure 2541 | Energy: -10.834504 Hartree
N 0.321275 -0.067582 2.067271
N 0.206876 -0.833470 1.288544
O 2.669889 0.164775 2.193737
H 3.458388 0.518272 1.777309
H 2.421232 0.772429 2.893025
5
Structure 2542 | Energy: -10.834481 Hartree
N 0.243411 -0.888720 1.347633
N 0.284740 -0.012332 2.008182
O 2.669889 0.164775 2.193737
H 3.458388 0.518272 1.777309
H 2.421232 0.772429 2.893025
5
Structure 2543 | Energy: -10.833938 Hartree
N 0.243411 -0.888720 1.347633
N 0.284740 -0.012332 2.008182
O -2.066767 0.372209 2.246144
H -2.680548 0.435062 2.980600
H -2.481518 -0.173689 1.575282
5
Structure 2544 | Energy: -10.833938 Hartree
N 0.243411 -0.888720 1.347633
N 0.284740 -0.012332 2.008182
O -2.135304 -1.081139 1.150731
H -2.784370 -1.766520 1.321230
H -2.485723 -0.262855 1.508077
5
Structure 2545 | Energy: -10.834097 Hartree
N 0.242238 -0.813422 1.166263
N 0.288721 0.207772 1.567623
O -2.135304 -1.081139 1.150731
H -2.784370 -1.766520 1.321230
H -2.485723 -0.262855 1.508077
5
Structure 2546 | Energy: -10.834161 Hartree
N 0.242238 -0.813422 1.166263
N 0.288721 0.207772 1.567623
O 2.654184 -0.063521 2.175093
H 3.307053 0.472810 2.629202
H 3.020136 -0.291523 1.318255
5
Structure 2547 | Energy: -10.834553 Hartree
N 0.242238 -0.813422 1.166263
N 0.288721 0.207772 1.567623
O 2.695361 -0.059201 2.188320
H 3.348229 0.477130 2.642429
H 3.061312 -0.287203 1.331481
5
Structure 2548 | Energy: -10.834723 Hartree
N 0.242238 -0.813422 1.166263
N 0.288721 0.207772 1.567623
O 2.718717 -1.090203 1.366479
H 3.612384 -0.960053 1.043180
H 2.479468 -2.000481 1.181458
5
Structure 2549 | Energy: -10.834654 Hartree
N 0.242238 -0.813422 1.166263
N 0.288721 0.207772 1.567623
O 2.712011 -1.083198 1.576316
H 3.629683 -0.950404 1.330660
H 2.492080 -1.994101 1.371463
5
Structure 2550 | Energy: -10.834342 Hartree
N 0.242238 -0.813422 1.166263
N 0.288721 0.207772 1.567623
O 2.663505 0.090091 2.223346
H 3.503241 0.538782 2.106629
H 2.849378 -0.848890 2.285345
5
Structure 2551 | Energy: -10.834342 Hartree
N 0.242238 -0.813422 1.166263
N 0.288721 0.207772 1.567623
O 2.663505 0.568053 1.007250
H 3.503241 0.817201 1.398238
H 2.849378 -0.077435 0.322506
5
Structure 2552 | Energy: -10.834508 Hartree
N 0.242238 -0.813422 1.166263
N 0.288721 0.207772 1.567623
O -2.242709 -0.308519 0.777626
H -2.942529 0.014138 0.206446
H -2.291213 -1.266488 0.772921
5
Structure 2553 | Energy: -10.834500 Hartree
N -2.301404 1.005489 2.972653
N -1.290099 1.332110 2.695759
O -2.242709 -0.308519 0.777626
H -2.942529 0.014138 0.206446
H -2.291213 -1.266488 0.772921
5
Structure 2554 | Energy: -10.831345 Hartree
N -2.301404 1.005489 2.972653
N -1.290099 1.332110 2.695759
O -2.305885 -0.287165 0.726339
H -2.660576 -1.141654 0.473071
H -1.570439 -0.449632 1.320311
5
Structure 2555 | Energy: -10.834746 Hartree
N -2.301404 1.005489 2.972653
N -1.290099 1.332110 2.695759
O -2.085890 -0.410780 0.298308
H -2.440582 -1.265269 0.045039
H -1.350445 -0.573247 0.892279
5
Structure 2556 | Energy: -10.834746 Hartree
N -2.301404 1.005489 2.972653
N -1.290099 1.332110 2.695759
O -1.906169 -0.352736 0.249100
H -1.308884 -0.899765 -0.264817
H -2.053207 -0.800218 1.084694
5
Structure 2557 | Energy: -10.833794 Hartree
N -1.797370 -0.107861 3.332798
N -0.814859 0.282362 3.035331
O -1.906169 -0.352736 0.249100
H -1.308884 -0.899765 -0.264817
H -2.053207 -0.800218 1.084694
5
Structure 2558 | Energy: -10.833794 Hartree
N 0.764678 -0.450570 -1.312314
N 1.064437 0.030980 -0.371919
O -1.906169 -0.352736 0.249100
H -1.308884 -0.899765 -0.264817
H -2.053207 -0.800218 1.084694
5
Structure 2559 | Energy: -10.835111 Hartree
N 0.764678 -0.450570 -1.312314
N 1.064437 0.030980 -0.371919
O -2.056253 -0.036555 -1.400646
H -1.297065 -0.533164 -1.712279
H -2.642554 -0.657914 -0.964479
5
Structure 2560 | Energy: -10.835106 Hartree
N 0.764678 -0.450570 -1.312314
N 1.064437 0.030980 -0.371919
O -2.056253 -0.036555 -1.400646
H -1.296155 -0.532834 -1.710581
H -2.643464 -0.658244 -0.966177
5
Structure 2561 | Energy: -10.835252 Hartree
N 0.784485 -0.047213 -1.518959
N 1.076799 0.556633 -0.649469
O -2.056253 -0.036555 -1.400646
H -1.296155 -0.532834 -1.710581
H -2.643464 -0.658244 -0.966177
5
Structure 2562 | Energy: -10.834943 Hartree
N 0.874483 -0.285087 -1.167808
N 0.986801 0.794506 -1.000619
O -2.056253 -0.036555 -1.400646
H -1.296155 -0.532834 -1.710581
H -2.643464 -0.658244 -0.966177
5
Structure 2563 | Energy: -10.835290 Hartree
N 0.874483 -0.285087 -1.167808
N 0.986801 0.794506 -1.000619
O -1.979560 -0.467493 -1.424296
H -1.157127 -0.803674 -1.785804
H -2.454699 -1.215100 -1.056322
5
Structure 2564 | Energy: -10.835221 Hartree
N 0.817878 -0.688743 -0.778503
N 1.027599 0.340774 -0.458817
O -1.979560 -0.467493 -1.424296
H -1.157127 -0.803674 -1.785804
H -2.454699 -1.215100 -1.056322
5
Structure 2565 | Energy: -10.835943 Hartree
N 0.817878 -0.688743 -0.778503
N 1.027599 0.340774 -0.458817
O -2.016247 -1.033161 -1.290973
H -1.193814 -1.369342 -1.652481
H -2.491386 -1.780768 -0.922999
5
Structure 2566 | Energy: -10.835719 Hartree
N 0.817878 -0.688743 -0.778503
N 1.027599 0.340774 -0.458817
O -2.016244 -1.033160 -1.290973
H -2.575588 -1.810272 -1.348718
H -1.109661 -1.339854 -1.226753
5
Structure 2567 | Energy: -10.834371 Hartree
N 0.803769 -0.543729 -0.230514
N 1.041708 0.195760 -1.006807
O -2.016244 -1.033160 -1.290973
H -2.575588 -1.810272 -1.348718
H -1.109661 -1.339854 -1.226753
5
Structure 2568 | Energy: -10.833782 Hartree
N 0.821202 -0.742753 -0.192795
N 1.218845 -0.314423 -1.122581
O -2.016244 -1.033160 -1.290973
H -2.575588 -1.810272 -1.348718
H -1.109661 -1.339854 -1.226753
5
Structure 2569 | Energy: -10.834107 Hartree
N -2.195637 -1.307968 -0.825718
N -1.797993 -0.879638 -1.755504
O 1.000595 -0.467946 -0.658050
H 0.441251 -1.245058 -0.715795
H 1.907178 -0.774639 -0.593830
5
Structure 2570 | Energy: -10.834107 Hartree
N -2.195637 -1.307968 -0.825718
N -1.797993 -0.879638 -1.755504
O 0.425717 -1.087187 0.686151
H 0.197119 -1.508030 -0.144955
H 1.220587 -1.514215 1.011585
5
Structure 2571 | Energy: -10.834107 Hartree
N -1.220680 -0.145966 -1.682281
N -1.903751 -1.005684 -1.662589
O 0.425717 -1.087187 0.686151
H 0.197119 -1.508030 -0.144955
H 1.220587 -1.514215 1.011585
5
Structure 2572 | Energy: -10.833883 Hartree
N -1.220680 -0.145966 -1.682281
N -1.903751 -1.005684 -1.662589
O 1.299782 -1.237490 -0.601238
H 0.692480 -1.594325 -1.252356
H 2.143955 -1.674124 -0.730858
5
Structure 2573 | Energy: -10.833882 Hartree
N -1.220680 -0.145966 -1.682281
N -1.903751 -1.005684 -1.662589
O -2.877586 2.080768 -0.678148
H -3.073427 1.396585 -1.321297
H -3.490977 2.801470 -0.834411
5
Structure 2574 | Energy: -10.833882 Hartree
N -1.220680 -0.145966 -1.682281
N -1.903751 -1.005684 -1.662589
O 1.300261 -1.236908 -0.602159
H 0.692660 -1.594109 -1.252798
H 2.144371 -1.673625 -0.731912
5
Structure 2575 | Energy: -10.835014 Hartree
N -1.236684 0.970699 -1.491833
N -1.919755 0.110981 -1.472142
O 1.300261 -1.236908 -0.602159
H 0.692660 -1.594109 -1.252798
H 2.144371 -1.673625 -0.731912
5
Structure 2576 | Energy: -10.835037 Hartree
N -1.236684 0.970699 -1.491833
N -1.919755 0.110981 -1.472142
O 1.224021 -1.188867 -0.624204
H 0.616419 -1.546067 -1.274843
H 2.068130 -1.625583 -0.753957
5
Structure 2577 | Energy: -10.834854 Hartree
N -1.785527 0.269928 -1.912281
N -1.370912 0.811752 -1.051694
O 1.224021 -1.188867 -0.624204
H 0.616419 -1.546067 -1.274843
H 2.068130 -1.625583 -0.753957
5
Structure 2578 | Energy: -10.834854 Hartree
N -2.358644 -1.243738 -0.546072
N -1.913884 -0.622300 0.242657
O 1.224021 -1.188867 -0.624204
H 0.616419 -1.546067 -1.274843
H 2.068130 -1.625583 -0.753957
5
Structure 2579 | Energy: -10.835500 Hartree
N -2.358644 -1.243738 -0.546072
N -1.913884 -0.622300 0.242657
O 0.702625 -2.401818 -1.319424
H -0.136224 -2.555516 -1.758527
H 1.289313 -3.118522 -1.568846
5
Structure 2580 | Energy: -10.835466 Hartree
N -2.358644 -1.243738 -0.546072
N -1.913884 -0.622300 0.242657
O 0.739438 -2.421594 -1.335144
H -0.099411 -2.575293 -1.774247
H 1.326126 -3.138298 -1.584566
5
Structure 2581 | Energy: -10.835362 Hartree
N -2.358644 -1.243738 -0.546072
N -1.913884 -0.622300 0.242657
O 0.666456 -2.463222 -1.396886
H 1.280424 -1.759338 -1.178500
H 1.104676 -3.293530 -1.200340
5
Structure 2582 | Energy: -10.834623 Hartree
N 2.052871 0.254470 0.211744
N 1.335881 0.140262 1.035741
O 0.666456 -2.463222 -1.396886
H 1.280424 -1.759338 -1.178500
H 1.104676 -3.293530 -1.200340
5
Structure 2583 | Energy: -10.834354 Hartree
N 2.052871 0.254470 0.211744
N 1.335881 0.140262 1.035741
O 0.666456 -2.463222 -1.396887
H 0.992709 -2.125442 -0.560487
H 1.392380 -2.927439 -1.818332
5
Structure 2584 | Energy: -10.835049 Hartree
N 1.083824 -2.413192 -1.785668
N 0.366834 -2.527400 -0.961671
O 1.635503 0.204441 0.600524
H 1.961757 0.542220 1.436925
H 2.361427 -0.259776 0.179080
5
Structure 2585 | Energy: -10.834354 Hartree
N 2.052871 0.254470 0.211744
N 1.335881 0.140262 1.035741
O 0.666456 -2.463222 -1.396887
H 0.992709 -2.125442 -0.560487
H 1.392380 -2.927439 -1.818332
5
Structure 2586 | Energy: -10.834354 Hartree
N 2.052871 0.254470 0.211744
N 1.335881 0.140262 1.035741
O 0.596008 3.300852 -0.551100
H 0.956093 2.750381 0.147057
H 1.305799 3.866498 -0.861456
5
Structure 2587 | Energy: -10.834182 Hartree
N 2.052871 0.254470 0.211744
N 1.335881 0.140262 1.035741
O 0.428539 3.004450 -0.979470
H 0.788624 2.453978 -0.281313
H 1.138330 3.570096 -1.289825
5
Structure 2588 | Energy: -10.835078 Hartree
N 0.846897 3.062403 -1.369769
N 0.129908 2.948195 -0.545772
O 1.634513 0.196517 0.602043
H 1.994597 -0.353954 1.300200
H 2.344304 0.762163 0.291688
5
Structure 2589 | Energy: -10.834777 Hartree
N 0.145231 2.793314 -0.585188
N 0.831574 3.217284 -1.330354
O 1.634513 0.196517 0.602043
H 1.994597 -0.353954 1.300200
H 2.344304 0.762163 0.291688
5
Structure 2590 | Energy: -10.834778 Hartree
N 0.145231 2.793314 -0.585188
N 0.831574 3.217284 -1.330354
O 1.597320 0.283117 0.553268
H 1.957404 -0.267355 1.251424
H 2.307110 0.848763 0.242912
5
Structure 2591 | Energy: -10.834773 Hartree
N 0.145231 2.793314 -0.585188
N 0.831574 3.217284 -1.330354
O 1.580746 0.321706 0.531533
H 1.940830 -0.228766 1.229690
H 2.290537 0.887351 0.221178
5
Structure 2592 | Energy: -10.834764 Hartree
N 0.145231 2.793314 -0.585188
N 0.831574 3.217284 -1.330354
O 1.567325 0.352955 0.513933
H 1.927409 -0.197517 1.212089
H 2.277115 0.918601 0.203577
5
Structure 2593 | Energy: -10.834557 Hartree
N 0.145231 2.793314 -0.585188
N 0.831574 3.217284 -1.330354
O 1.539575 0.967940 1.302565
H 1.781467 0.647665 2.173780
H 2.207274 1.603841 1.038207
5
Structure 2594 | Energy: -10.834580 Hartree
N 0.129864 2.821477 -0.617179
N 0.816207 3.245446 -1.362345
O 1.539575 0.967940 1.302565
H 1.781467 0.647665 2.173780
H 2.207274 1.603841 1.038207
5
Structure 2595 | Energy: -10.834819 Hartree
N 0.588659 3.554247 -0.859626
N 0.357412 2.512675 -1.119898
O 1.539575 0.967940 1.302565
H 1.781467 0.647665 2.173780
H 2.207274 1.603841 1.038207
5
Structure 2596 | Energy: -10.834819 Hartree
N 0.588659 3.554247 -0.859626
N 0.357412 2.512675 -1.119898
O -1.777578 1.776601 1.013657
H -2.277659 1.637205 1.820249
H -2.027681 2.636246 0.669363
5
Structure 2597 | Energy: -10.835063 Hartree
N 0.588659 3.554247 -0.859626
N 0.357412 2.512675 -1.119898
O -1.840731 1.864456 1.076202
H -1.776492 0.940000 1.323905
H -1.526494 1.939013 0.172999
5
Structure 2598 | Energy: -10.834826 Hartree
N 1.002103 3.440046 -1.232525
N 0.770856 2.398474 -1.492796
O -1.840731 1.864456 1.076202
H -1.776492 0.940000 1.323905
H -1.526494 1.939013 0.172999
5
Structure 2599 | Energy: -10.835131 Hartree
N 1.002103 3.440046 -1.232525
N 0.770856 2.398474 -1.492796
O -1.796461 2.007765 -0.007252
H -1.732222 1.083309 0.240451
H -1.482225 2.082322 -0.910454
5
Structure 2600 | Energy: -10.835640 Hartree
N 0.722638 3.830328 1.212891
N 0.412251 2.904694 1.715832
O -1.796461 2.007765 -0.007252
H -1.732222 1.083309 0.240451
H -1.482225 2.082322 -0.910454
5
Structure 2601 | Energy: -10.835674 Hartree
N 0.722638 3.830328 1.212891
N 0.412251 2.904694 1.715832
O -1.753396 2.033634 0.020474
H -1.689158 1.109178 0.268177
H -1.439160 2.108191 -0.882729
5
Structure 2602 | Energy: -10.835699 Hartree
N 0.722638 3.830328 1.212891
N 0.412251 2.904694 1.715832
O -1.657681 2.091131 0.082097
H -1.593442 1.166675 0.329800
H -1.343445 2.165688 -0.821106
5
Structure 2603 | Energy: -10.835618 Hartree
N 0.640104 3.780749 1.159754
N 0.329716 2.855114 1.662694
O -1.657681 2.091131 0.082097
H -1.593442 1.166675 0.329800
H -1.343445 2.165688 -0.821106
5
Structure 2604 | Energy: -10.835767 Hartree
N 0.640104 3.780749 1.159754
N 0.329716 2.855114 1.662694
O -1.343364 1.755455 -0.289580
H -1.279126 0.830998 -0.041877
H -1.029128 1.830011 -1.192783
5
Structure 2605 | Energy: -10.835383 Hartree
N 0.905401 4.098864 1.525890
N 0.595014 3.173230 2.028830
O -1.343364 1.755455 -0.289580
H -1.279126 0.830998 -0.041877
H -1.029128 1.830011 -1.192783
5
Structure 2606 | Energy: -10.835447 Hartree
N 0.905401 4.098864 1.525890
N 0.595014 3.173230 2.028830
O 1.762671 1.808451 -1.020269
H 1.831892 0.882260 -0.780517
H 2.639195 2.101760 -1.276693
5
Structure 2607 | Energy: -10.835497 Hartree
N 1.713278 3.663633 1.633615
N 1.402891 2.737998 2.136556
O 1.762671 1.808451 -1.020269
H 1.831892 0.882260 -0.780517
H 2.639195 2.101760 -1.276693
5
Structure 2608 | Energy: -10.835518 Hartree
N 1.713278 3.663633 1.633615
N 1.402891 2.737998 2.136556
O 1.758636 1.830824 -0.974727
H 1.827857 0.904633 -0.734976
H 2.635160 2.124133 -1.231152
5
Structure 2609 | Energy: -10.835538 Hartree
N 1.723757 3.677963 1.669668
N 1.392412 2.723668 2.100503
O 1.758636 1.830824 -0.974727
H 1.827857 0.904633 -0.734976
H 2.635160 2.124133 -1.231152
5
Structure 2610 | Energy: -10.834838 Hartree
N 2.904918 1.266471 2.036688
N 2.103235 0.517471 1.987767
O 1.758636 1.830824 -0.974727
H 1.827857 0.904633 -0.734976
H 2.635160 2.124133 -1.231152
5
Structure 2611 | Energy: -10.835486 Hartree
N 2.212394 2.169912 -0.951200
N 1.410712 1.420913 -1.000121
O 2.451159 0.927383 2.013160
H 2.520380 0.001191 2.252912
H 3.327683 1.220691 1.756736
5
Structure 2612 | Energy: -10.835531 Hartree
N 2.212394 2.169912 -0.951200
N 1.410712 1.420913 -1.000121
O 2.886181 0.750530 1.982227
H 2.955402 -0.175661 2.221978
H 3.762705 1.043839 1.725802
5
Structure 2613 | Energy: -10.835531 Hartree
N 2.212394 2.169912 -0.951200
N 1.410712 1.420913 -1.000121
O 1.034170 2.724386 2.111148
H 0.132092 2.833396 2.418513
H 1.367177 3.596970 1.892558
5
Structure 2614 | Energy: -10.835531 Hartree
N -0.524380 0.477993 0.214235
N 0.265069 0.712657 -0.512257
O 1.034170 2.724386 2.111148
H 0.132092 2.833396 2.418513
H 1.367177 3.596970 1.892558
5
Structure 2615 | Energy: -10.835521 Hartree
N -0.524269 0.465631 0.210129
N 0.264958 0.725019 -0.508151
O 1.034170 2.724386 2.111148
H 0.132092 2.833396 2.418513
H 1.367177 3.596970 1.892558
5
Structure 2616 | Energy: -10.834833 Hartree
N 0.607715 2.649615 2.475255
N 1.396943 2.909003 1.756975
O -0.097814 0.540402 -0.153978
H -0.999892 0.649412 0.153387
H 0.235193 1.412986 -0.372568
5
Structure 2617 | Energy: -10.834131 Hartree
N -0.396946 3.917920 0.585506
N -1.344287 3.725098 0.064494
O -0.097814 0.540402 -0.153978
H -0.999892 0.649412 0.153387
H 0.235193 1.412986 -0.372568
5
Structure 2618 | Energy: -10.834131 Hartree
N -0.396946 3.917920 0.585506
N -1.344287 3.725098 0.064494
O 0.138008 0.588401 -0.024282
H 0.293818 0.912735 0.864893
H -0.109972 1.342731 -0.562400
5
Structure 2619 | Energy: -10.834186 Hartree
N -0.396946 3.917920 0.585506
N -1.344287 3.725098 0.064494
O 0.372942 0.665325 0.034528
H 0.532026 1.028466 0.907983
H 0.050065 1.381208 -0.516235
5
Structure 2620 | Energy: -10.833914 Hartree
N 1.003090 3.289636 2.070128
N -0.083407 3.416904 2.167166
O 0.372942 0.665325 0.034528
H 0.532026 1.028466 0.907983
H 0.050065 1.381208 -0.516235
5
Structure 2621 | Energy: -10.835210 Hartree
N 0.399222 3.526302 2.636245
N 0.520460 3.180239 1.601049
O 0.372942 0.665325 0.034528
H 0.532026 1.028466 0.907983
H 0.050065 1.381208 -0.516235
5
Structure 2622 | Energy: -10.835244 Hartree
N 0.399222 3.526302 2.636245
N 0.520460 3.180239 1.601049
O 0.336447 0.719548 -0.004603
H 0.460833 0.024272 0.644413
H 0.700512 1.524771 0.368428
5
Structure 2623 | Energy: -10.835143 Hartree
N 0.399222 3.526302 2.636245
N 0.520460 3.180239 1.601049
O 0.399080 0.710712 0.001748
H -0.036216 0.094393 0.594006
H 0.203443 1.594894 0.318019
5
Structure 2624 | Energy: -10.835247 Hartree
N 3.395149 2.254237 -1.677820
N 2.435297 2.367203 -1.156271
O 0.399080 0.710712 0.001748
H -0.036216 0.094393 0.594006
H 0.203443 1.594894 0.318019
5
Structure 2625 | Energy: -10.835180 Hartree
N 3.395149 2.254237 -1.677820
N 2.435297 2.367203 -1.156271
O 0.492141 0.768524 -0.051855
H 0.056845 0.152204 0.540403
H 0.296504 1.652705 0.264416
5
Structure 2626 | Energy: -10.833102 Hartree
N 1.971227 4.147087 -0.037716
N 2.070245 3.053351 -0.042680
O 0.492141 0.768524 -0.051855
H 0.056845 0.152204 0.540403
H 0.296504 1.652705 0.264416
5
Structure 2627 | Energy: -10.833101 Hartree
N 0.881935 -2.672613 1.216706
N 1.305733 -1.733007 0.837728
O 0.492141 0.768524 -0.051855
H 0.056845 0.152204 0.540403
H 0.296504 1.652705 0.264416
5
Structure 2628 | Energy: -10.833966 Hartree
N 0.881935 -2.672613 1.216706
N 1.305733 -1.733007 0.837728
O -0.026120 0.618502 1.357754
H -0.461416 0.002183 1.950011
H -0.221757 1.502684 1.674024
5
Structure 2629 | Energy: -10.834312 Hartree
N 0.572997 -3.824769 0.845712
N 0.996796 -2.885163 0.466734
O -0.026120 0.618502 1.357754
H -0.461416 0.002183 1.950011
H -0.221757 1.502684 1.674024
5
Structure 2630 | Energy: -10.834880 Hartree
N 0.542275 -3.353256 0.163624
N 1.027518 -3.356677 1.148823
O -0.026120 0.618502 1.357754
H -0.461416 0.002183 1.950011
H -0.221757 1.502684 1.674024
5
Structure 2631 | Energy: -10.835072 Hartree
N 3.548997 0.991257 -0.746731
N 3.774066 1.577271 0.154391
O -0.026120 0.618502 1.357754
H -0.461416 0.002183 1.950011
H -0.221757 1.502684 1.674024
5
Structure 2632 | Energy: -10.835106 Hartree
N 3.548997 0.991257 -0.746731
N 3.774066 1.577271 0.154391
O 0.086711 3.250176 0.068957
H -0.842376 3.121545 -0.131928
H 0.144167 3.517518 0.988362
5
Structure 2633 | Energy: -10.834523 Hartree
N -0.074594 2.964931 -0.341400
N 0.150474 3.550944 0.559722
O 3.710302 1.276502 -0.336373
H 2.781215 1.147872 -0.537258
H 3.767758 1.543844 0.583032
5
Structure 2634 | Energy: -10.834621 Hartree
N 0.610338 3.887153 -0.770596
N 0.835406 4.473167 0.130526
O 3.710302 1.276502 -0.336373
H 2.781215 1.147872 -0.537258
H 3.767758 1.543844 0.583032
5
Structure 2635 | Energy: -10.834652 Hartree
N 0.610338 3.887153 -0.770596
N 0.835406 4.473167 0.130526
O 3.612994 1.372394 -0.337164
H 2.683908 1.243763 -0.538048
H 3.670450 1.639736 0.582241
5
Structure 2636 | Energy: -10.834616 Hartree
N 0.607087 3.699653 -1.350567
N 0.634131 4.311090 -0.438700
O 3.612994 1.372394 -0.337164
H 2.683908 1.243763 -0.538048
H 3.670450 1.639736 0.582241
5
Structure 2637 | Energy: -10.835173 Hartree
N 3.550702 1.074437 -0.752894
N 3.577746 1.685874 0.158974
O 0.669380 3.997610 -0.934837
H -0.259707 3.868979 -1.135722
H 0.726836 4.264952 -0.015432
5
Structure 2638 | Energy: -10.835265 Hartree
N 3.455486 1.159354 -0.772226
N 3.482530 1.770791 0.139641
O 0.669380 3.997610 -0.934837
H -0.259707 3.868979 -1.135722
H 0.726836 4.264952 -0.015432
5
Structure 2639 | Energy: -10.835135 Hartree
N 3.455486 1.159354 -0.772226
N 3.482530 1.770791 0.139641
O 0.462804 3.755184 -1.381965
H -0.466283 3.626553 -1.582850
H 0.520260 4.022526 -0.462560
5
Structure 2640 | Energy: -10.835235 Hartree
N 3.455486 1.159354 -0.772226
N 3.482530 1.770791 0.139641
O 0.577059 3.669244 -1.343613
H -0.352027 3.540613 -1.544497
H 0.634515 3.936586 -0.424208
5
Structure 2641 | Energy: -10.834903 Hartree
N 4.342894 1.302041 -0.915338
N 4.369938 1.913478 -0.003470
O 0.577059 3.669244 -1.343613
H -0.352027 3.540613 -1.544497
H 0.634515 3.936586 -0.424208
5
Structure 2642 | Energy: -10.834537 Hartree
N 4.342894 1.302041 -0.915338
N 4.369938 1.913478 -0.003470
O 0.502126 3.711614 -1.350024
H 0.949992 4.050491 -0.572412
H 0.521839 2.754216 -1.294537
5
Structure 2643 | Energy: -10.834548 Hartree
N 4.342894 1.302041 -0.915338
N 4.369938 1.913478 -0.003470
O 0.558951 3.680898 -1.337495
H 1.006817 4.019775 -0.559883
H 0.578664 2.723500 -1.282008
5
Structure 2644 | Energy: -10.834526 Hartree
N 4.342894 1.302041 -0.915338
N 4.369938 1.913478 -0.003470
O 0.558952 3.680900 -1.337494
H 0.311034 2.790079 -1.082395
H 1.274422 3.953153 -0.759515
5
Structure 2645 | Energy: -10.834609 Hartree
N 4.261631 0.768301 -1.408025
N 4.288675 1.379738 -0.496157
O 0.558952 3.680900 -1.337494
H 0.311034 2.790079 -1.082395
H 1.274422 3.953153 -0.759515
5
Structure 2646 | Energy: -10.834475 Hartree
N 3.108672 -0.238075 -0.693645
N 3.756432 0.588126 -1.015959
O 0.558952 3.680900 -1.337494
H 0.311034 2.790079 -1.082395
H 1.274422 3.953153 -0.759515
5
Structure 2647 | Energy: -10.834425 Hartree
N 4.039625 -0.695804 0.251251
N 4.687386 0.130397 -0.071063
O 0.558952 3.680900 -1.337494
H 0.311034 2.790079 -1.082395
H 1.274422 3.953153 -0.759515
5
Structure 2648 | Energy: -10.834423 Hartree
N 1.891614 0.150520 3.095262
N 2.722696 0.861106 2.992994
O 0.558952 3.680900 -1.337494
H 0.311034 2.790079 -1.082395
H 1.274422 3.953153 -0.759515
5
Structure 2649 | Energy: -10.834505 Hartree
N 1.891614 0.150520 3.095262
N 2.722696 0.861106 2.992994
O -2.777239 1.448829 0.678613
H -2.058828 2.057378 0.862067
H -2.540943 0.604721 1.068132
5
Structure 2650 | Energy: -10.834513 Hartree
N 1.775813 0.171922 3.041551
N 2.606895 0.882508 2.939283
O -2.777239 1.448829 0.678613
H -2.058828 2.057378 0.862067
H -2.540943 0.604721 1.068132
5
Structure 2651 | Energy: -10.834508 Hartree
N 1.775813 0.171922 3.041551
N 2.606895 0.882508 2.939283
O -2.307452 2.212997 1.292281
H -1.589041 2.821547 1.475735
H -2.071155 1.368890 1.681799
5
Structure 2652 | Energy: -10.834479 Hartree
N 2.356509 0.215685 3.370886
N 3.187591 0.926271 3.268619
O -2.307452 2.212997 1.292281
H -1.589041 2.821547 1.475735
H -2.071155 1.368890 1.681799
5
Structure 2653 | Energy: -10.834482 Hartree
N 2.293858 0.235989 3.346013
N 3.124940 0.946575 3.243746
O -2.307452 2.212997 1.292281
H -1.589041 2.821547 1.475735
H -2.071155 1.368890 1.681799
5
Structure 2654 | Energy: -10.834438 Hartree
N 2.075922 -0.368170 4.071745
N 2.907004 0.342416 3.969478
O -2.307452 2.212997 1.292281
H -1.589041 2.821547 1.475735
H -2.071155 1.368890 1.681799
5
Structure 2655 | Energy: -10.834442 Hartree
N 2.075922 -0.368170 4.071745
N 2.907004 0.342416 3.969478
O -3.383374 2.891726 0.718471
H -2.664963 3.500275 0.901925
H -3.147078 2.047618 1.107989
5
Structure 2656 | Energy: -10.834427 Hartree
N 2.075922 -0.368170 4.071745
N 2.907004 0.342416 3.969478
O -2.350162 2.613225 0.644870
H -1.631751 3.221775 0.828324
H -2.113865 1.769118 1.034389
5
Structure 2657 | Energy: -10.834426 Hartree
N 2.075922 -0.368170 4.071745
N 2.907004 0.342416 3.969478
O -2.208172 2.535742 0.744024
H -1.489761 3.144291 0.927478
H -1.971876 1.691634 1.133542
5
Structure 2658 | Energy: -10.834424 Hartree
N 1.963724 -0.306944 3.993396
N 2.794806 0.403642 3.891128
O -2.208172 2.535742 0.744024
H -1.489761 3.144291 0.927478
H -1.971876 1.691634 1.133542
5
Structure 2659 | Energy: -10.834407 Hartree
N 2.017334 -0.279329 4.193569
N 2.741196 0.376027 3.690955
O -2.208172 2.535742 0.744024
H -1.489761 3.144291 0.927478
H -1.971876 1.691634 1.133542
5
Structure 2660 | Energy: -10.834407 Hartree
N 1.991400 -0.265176 4.175459
N 2.715262 0.390179 3.672844
O -2.208172 2.535742 0.744024
H -1.489761 3.144291 0.927478
H -1.971876 1.691634 1.133542
5
Structure 2661 | Energy: -10.834420 Hartree
N 2.429343 -1.313579 1.663725
N 1.653425 -2.088852 1.718406
O -2.208172 2.535742 0.744024
H -1.489761 3.144291 0.927478
H -1.971876 1.691634 1.133542
5
Structure 2662 | Energy: -10.834579 Hartree
N 2.429343 -1.313579 1.663725
N 1.653425 -2.088852 1.718406
O -2.099753 2.500940 0.752363
H -2.350160 3.420468 0.861302
H -2.832308 1.967822 1.067364
5
Structure 2663 | Energy: -10.834593 Hartree
N 2.429343 -1.313579 1.663725
N 1.653425 -2.088852 1.718406
O -1.998335 2.398854 0.774477
H -2.248742 3.318382 0.883417
H -2.730890 1.865736 1.089478
5
Structure 2664 | Energy: -10.834593 Hartree
N 1.660049 -2.089342 1.617150
N 2.422719 -1.313089 1.764981
O -1.998335 2.398854 0.774477
H -2.248742 3.318382 0.883417
H -2.730890 1.865736 1.089478
5
Structure 2665 | Energy: -10.834616 Hartree
N 2.714049 -0.347461 -1.301547
N 3.186358 0.643651 -1.274902
O -1.998335 2.398854 0.774477
H -2.248742 3.318382 0.883417
H -2.730890 1.865736 1.089478
5
Structure 2666 | Energy: -10.834560 Hartree
N 3.052768 -0.619983 -1.973533
N 3.525077 0.371129 -1.946888
O -1.998335 2.398854 0.774477
H -2.248742 3.318382 0.883417
H -2.730890 1.865736 1.089478
5
Structure 2667 | Energy: -10.834523 Hartree
N 3.738032 -0.543619 -2.602817
N 4.210341 0.447493 -2.576171
O -1.998335 2.398854 0.774477
H -2.248742 3.318382 0.883417
H -2.730890 1.865736 1.089478
5
Structure 2668 | Energy: -10.834523 Hartree
N 3.738032 -0.543619 -2.602817
N 4.210341 0.447493 -2.576171
O -1.156495 3.589089 0.633517
H -1.406902 4.508617 0.742456
H -1.889050 3.055971 0.948518
5
Structure 2669 | Energy: -10.834523 Hartree
N 3.738032 -0.543619 -2.602817
N 4.210341 0.447493 -2.576171
O -1.051009 2.065057 2.145865
H -1.301416 2.984585 2.254804
H -1.783564 1.531938 2.460865
5
Structure 2670 | Energy: -10.834523 Hartree
N 3.738032 -0.543619 -2.602817
N 4.210341 0.447493 -2.576171
O -0.931235 2.316396 2.152622
H -1.805065 1.927705 2.226390
H -0.985549 3.206527 2.505885
5
Structure 2671 | Energy: -10.834526 Hartree
N 3.679854 -0.515541 -2.546884
N 4.152162 0.475571 -2.520239
O -0.931235 2.316396 2.152622
H -1.805065 1.927705 2.226390
H -0.985549 3.206527 2.505885
5
Structure 2672 | Energy: -10.834528 Hartree
N 3.645176 -0.498805 -2.513544
N 4.117484 0.492308 -2.486899
O -0.931235 2.316396 2.152622
H -1.805065 1.927705 2.226390
H -0.985549 3.206527 2.505885
5
Structure 2673 | Energy: -10.834433 Hartree
N -1.219322 1.848897 2.163193
N -0.747013 2.840010 2.189838
O 3.933263 -0.031306 -2.524116
H 3.059432 -0.419997 -2.450347
H 3.878948 0.858825 -2.170852
5
Structure 2674 | Energy: -10.834528 Hartree
N 3.645176 -0.498805 -2.513544
N 4.117484 0.492308 -2.486899
O -0.931235 2.316396 2.152622
H -1.805065 1.927705 2.226390
H -0.985549 3.206527 2.505885
5
Structure 2675 | Energy: -10.834532 Hartree
N 3.645176 -0.498805 -2.513544
N 4.117484 0.492308 -2.486899
O -0.853939 2.279092 2.078309
H -1.727769 1.890401 2.152078
H -0.908253 3.169223 2.431573
5
Structure 2676 | Energy: -10.834523 Hartree
N -1.941468 -0.105132 1.381768
N -1.469160 0.885980 1.408414
O 3.768217 -0.350351 -2.857732
H 4.632610 0.011007 -2.651951
H 3.901197 -1.068052 -3.480065
5
Structure 2677 | Energy: -10.834440 Hartree
N 3.587869 -0.865846 -2.894362
N 4.060177 0.125266 -2.867717
O -1.761121 0.410363 1.418399
H -0.896727 0.771721 1.624180
H -1.628140 -0.307338 0.796065
5
Structure 2678 | Energy: -10.834525 Hartree
N 3.587869 -0.865846 -2.894362
N 4.060177 0.125266 -2.867717
O -1.666964 0.420645 1.354212
H -2.601827 0.588747 1.487910
H -1.417499 -0.287569 1.951102
5
Structure 2679 | Energy: -10.834523 Hartree
N 3.633142 -0.872074 -2.929374
N 4.105450 0.119038 -2.902728
O -1.666964 0.420645 1.354212
H -2.601827 0.588747 1.487910
H -1.417499 -0.287569 1.951102
5
Structure 2680 | Energy: -10.834523 Hartree
N 3.633142 -0.872074 -2.929374
N 4.105450 0.119038 -2.902728
O -0.326928 3.232635 1.429810
H -1.049249 3.846743 1.575499
H 0.367548 3.458252 2.051805
5
Structure 2681 | Energy: -10.834495 Hartree
N 3.633142 -0.872074 -2.929374
N 4.105450 0.119038 -2.902728
O -0.898232 2.874168 3.025830
H -1.620553 3.488277 3.171518
H -0.203755 3.099785 3.647825
5
Structure 2682 | Energy: -10.834443 Hartree
N -1.135944 2.425597 3.055462
N -0.663635 3.416710 3.082107
O 3.870854 -0.423504 -2.959005
H 3.148533 0.190605 -2.813317
H 4.565330 -0.197887 -2.337010
5
Structure 2683 | Energy: -10.834444 Hartree
N -1.172505 2.450878 3.101342
N -0.700196 3.441990 3.127988
O 3.870854 -0.423504 -2.959005
H 3.148533 0.190605 -2.813317
H 4.565330 -0.197887 -2.337010
5
Structure 2684 | Energy: -10.834447 Hartree
N -1.172505 2.450878 3.101342
N -0.700196 3.441990 3.127988
O 2.928867 1.638068 -3.356657
H 2.206546 2.252177 -3.210969
H 3.623343 1.863685 -2.734662
5
Structure 2685 | Energy: -10.834500 Hartree
N 2.691155 1.189498 -3.327025
N 3.163463 2.180610 -3.300380
O -0.934792 2.899449 3.071711
H -1.657113 3.513557 3.217399
H -0.240316 3.125065 3.693706
5
Structure 2686 | Energy: -10.834502 Hartree
N 2.626984 1.210448 -3.220257
N 3.099292 2.201560 -3.193612
O -0.934792 2.899449 3.071711
H -1.657113 3.513557 3.217399
H -0.240316 3.125065 3.693706
5
Structure 2687 | Energy: -10.834446 Hartree
N -1.172505 2.450878 3.101342
N -0.700196 3.441990 3.127988
O 2.864696 1.659019 -3.249889
H 2.142375 2.273127 -3.104201
H 3.559172 1.884635 -2.627894
5
Structure 2688 | Energy: -10.834491 Hartree
N -1.172505 2.450878 3.101342
N -0.700196 3.441990 3.127988
O 2.892075 1.737890 -3.160019
H 3.249160 0.991602 -3.645454
H 2.017819 1.914305 -3.513053
5
Structure 2689 | Energy: -10.834481 Hartree
N -1.172505 2.450878 3.101342
N -0.700196 3.441990 3.127988
O 0.049366 -2.858400 -1.448377
H -0.284003 -3.752289 -1.548019
H -0.495733 -2.289337 -1.995288
5
Structure 2690 | Energy: -10.834480 Hartree
N -1.182027 2.510084 3.148105
N -0.709719 3.501196 3.174750
O 0.049366 -2.858400 -1.448377
H -0.284003 -3.752289 -1.548019
H -0.495733 -2.289337 -1.995288
5
Structure 2691 | Energy: -10.834453 Hartree
N -0.235941 -3.372131 -1.497876
N 0.236367 -2.381019 -1.471231
O -0.896720 3.023815 3.197605
H -1.230089 2.129925 3.097962
H -1.441819 3.592878 2.650693
5
Structure 2692 | Energy: -10.834442 Hartree
N -0.235941 -3.372131 -1.497876
N 0.236367 -2.381019 -1.471231
O -0.910420 2.994934 3.109624
H -1.121363 2.359116 3.796166
H -1.333089 3.822077 3.348924
5
Structure 2693 | Energy: -10.834441 Hartree
N -0.235941 -3.372131 -1.497876
N 0.236367 -2.381019 -1.471231
O -0.910420 2.994931 3.109624
H -1.059544 3.843280 3.531724
H -1.394906 2.337964 3.613356
5
Structure 2694 | Energy: -10.834506 Hartree
N -1.182027 2.510084 3.148105
N -0.709719 3.501196 3.174750
O 0.035665 -2.887284 -1.536357
H -0.113458 -2.038935 -1.114257
H -0.448821 -3.544251 -1.032625
5
Structure 2695 | Energy: -10.834487 Hartree
N -1.182027 2.510084 3.148105
N -0.709719 3.501196 3.174750
O 1.432728 -4.317371 -1.403490
H 1.283604 -3.469022 -0.981390
H 0.948242 -4.974338 -0.899759
5
Structure 2696 | Energy: -10.834460 Hartree
N -1.182027 2.510084 3.148105
N -0.709719 3.501196 3.174750
O 1.337670 -4.284361 -1.353924
H 2.038632 -4.098762 -1.981863
H 1.701975 -4.868532 -0.686014
5
Structure 2697 | Energy: -10.834459 Hartree
N -1.182027 2.510084 3.148105
N -0.709719 3.501196 3.174750
O 1.297885 -4.160203 -1.277294
H 1.998847 -3.974604 -1.905233
H 1.662190 -4.744375 -0.609384
5
Structure 2698 | Energy: -10.834454 Hartree
N -1.182027 2.510084 3.148105
N -0.709719 3.501196 3.174750
O 1.526987 -4.924043 0.231678
H 2.227949 -4.738444 -0.396262
H 1.891292 -5.508215 0.899587
5
Structure 2699 | Energy: -10.834489 Hartree
N 1.350438 -5.441901 0.220591
N 1.822746 -4.450789 0.247237
O -1.005478 3.027941 3.159191
H -0.304516 3.213540 2.531252
H -0.641173 2.443770 3.827101
5
Structure 2700 | Energy: -10.834482 Hartree
N 1.350438 -5.441901 0.220591
N 1.822746 -4.450789 0.247237
O -2.176817 1.517967 3.602507
H -1.475855 1.703566 2.974568
H -1.812512 0.933795 4.270417
5
Structure 2701 | Energy: -10.834482 Hartree
N 1.290437 -5.579085 0.451531
N 1.512217 -5.160772 1.442448
O -2.176817 1.517967 3.602507
H -1.475855 1.703566 2.974568
H -1.812512 0.933795 4.270417
5
Structure 2702 | Energy: -10.834486 Hartree
N 1.159996 -5.168640 1.397283
N 1.642659 -5.571216 0.496696
O -2.176817 1.517967 3.602507
H -1.475855 1.703566 2.974568
H -1.812512 0.933795 4.270417
5
Structure 2703 | Energy: -10.834453 Hartree
N 1.159996 -5.168640 1.397283
N 1.642659 -5.571216 0.496696
O 5.039848 1.651684 -1.233863
H 5.571227 0.889589 -1.472506
H 4.803837 1.555086 -0.309176
5
Structure 2704 | Energy: -10.834461 Hartree
N 1.159996 -5.168640 1.397283
N 1.642659 -5.571216 0.496696
O 5.062279 1.589268 -1.257233
H 5.100763 0.972811 -0.523338
H 4.918281 2.462527 -0.887420
5
Structure 2705 | Energy: -10.834460 Hartree
N 1.239963 -5.016068 1.350409
N 1.722626 -5.418645 0.449822
O 5.062279 1.589268 -1.257233
H 5.100763 0.972811 -0.523338
H 4.918281 2.462527 -0.887420
5
Structure 2706 | Energy: -10.834498 Hartree
N 1.239963 -5.016068 1.350409
N 1.722626 -5.418645 0.449822
O 5.064257 1.541425 -1.184398
H 4.928137 2.224179 -0.524534
H 5.059502 1.970518 -2.042265
5
Structure 2707 | Energy: -10.834498 Hartree
N 1.239963 -5.016068 1.350409
N 1.722626 -5.418645 0.449822
O 4.355344 2.132711 0.138343
H 4.967437 2.191400 -0.597863
H 3.872326 2.960709 0.172852
5
Structure 2708 | Energy: -10.834489 Hartree
N 1.239963 -5.016068 1.350409
N 1.722626 -5.418645 0.449822
O 4.139338 2.834190 0.300242
H 4.751431 2.892878 -0.435964
H 3.656320 3.662188 0.334751
5
Structure 2709 | Energy: -10.834491 Hartree
N 1.304821 -4.818930 1.334856
N 1.787484 -5.221507 0.434269
O 4.139338 2.834190 0.300242
H 4.751431 2.892878 -0.435964
H 3.656320 3.662188 0.334751
5
Structure 2710 | Energy: -10.834489 Hartree
N 1.304821 -4.818930 1.334856
N 1.787484 -5.221507 0.434269
O 3.025912 3.526044 -1.443402
H 3.638006 3.584732 -2.179608
H 2.542894 4.354042 -1.408893
5
Structure 2711 | Energy: -10.834489 Hartree
N -0.893266 -3.274820 2.881842
N -1.817774 -2.688889 2.971605
O 3.025912 3.526044 -1.443402
H 3.638006 3.584732 -2.179608
H 2.542894 4.354042 -1.408893
5
Structure 2712 | Energy: -10.834488 Hartree
N -1.026237 -3.248905 3.275693
N -1.684803 -2.714804 2.577755
O 3.025912 3.526044 -1.443402
H 3.638006 3.584732 -2.179608
H 2.542894 4.354042 -1.408893
5
Structure 2713 | Energy: -10.834452 Hartree
N 3.362417 3.308607 -1.133696
N 2.703852 3.842707 -1.831633
O -1.362742 -3.031468 2.965986
H -0.750649 -2.972779 2.229780
H -1.845760 -2.203470 3.000495
5
Structure 2714 | Energy: -10.834452 Hartree
N -1.098402 0.869037 -5.036966
N -0.810427 1.920789 -4.906670
O -1.362742 -3.031468 2.965986
H -0.750649 -2.972779 2.229780
H -1.845760 -2.203470 3.000495
5
Structure 2715 | Energy: -10.834451 Hartree
N -1.105786 0.788467 -4.891565
N -0.817811 1.840219 -4.761268
O -1.362742 -3.031468 2.965986
H -0.750649 -2.972779 2.229780
H -1.845760 -2.203470 3.000495
5
Structure 2716 | Energy: -10.834451 Hartree
N -0.654075 1.662242 -4.533509
N -1.269522 0.966444 -5.119324
O -1.362742 -3.031468 2.965986
H -0.750649 -2.972779 2.229780
H -1.845760 -2.203470 3.000495
5
Structure 2717 | Energy: -10.834451 Hartree
N -0.650976 1.696054 -4.594529
N -1.266423 1.000256 -5.180343
O -1.362742 -3.031468 2.965986
H -0.750649 -2.972779 2.229780
H -1.845760 -2.203470 3.000495
5
Structure 2718 | Energy: -10.834451 Hartree
N -0.654431 1.658362 -4.526507
N -1.269878 0.962564 -5.112321
O -1.362742 -3.031468 2.965986
H -0.750649 -2.972779 2.229780
H -1.845760 -2.203470 3.000495
5
Structure 2719 | Energy: -10.834456 Hartree
N -0.654431 1.658362 -4.526507
N -1.269878 0.962564 -5.112321
O -0.893480 -3.673192 3.453226
H -0.281386 -3.614503 2.717019
H -1.376498 -2.845194 3.487735
5
Structure 2720 | Energy: -10.834483 Hartree
N -0.578534 -3.275679 3.706870
N -1.193981 -3.971478 3.121056
O -0.969376 1.260850 -4.780152
H -0.357283 1.319538 -5.516358
H -1.452394 2.088848 -4.745642
5
Structure 2721 | Energy: -10.834483 Hartree
N -0.578927 -3.250091 3.664171
N -1.194374 -3.945889 3.078357
O -0.969376 1.260850 -4.780152
H -0.357283 1.319538 -5.516358
H -1.452394 2.088848 -4.745642
5
Structure 2722 | Energy: -10.834455 Hartree
N -0.654431 1.658362 -4.526507
N -1.269878 0.962564 -5.112321
O -0.893873 -3.647603 3.410526
H -0.281780 -3.588915 2.674320
H -1.376891 -2.819605 3.445036
5
Structure 2723 | Energy: -10.834456 Hartree
N -0.654431 1.658362 -4.526507
N -1.269878 0.962564 -5.112321
O -0.893871 -3.647603 3.410527
H -1.112931 -3.624132 2.476951
H -0.545769 -2.784389 3.642398
5
Structure 2724 | Energy: -10.834455 Hartree
N -0.653020 1.566679 -4.373517
N -1.268467 0.870881 -4.959331
O -0.893871 -3.647603 3.410527
H -1.112931 -3.624132 2.476951
H -0.545769 -2.784389 3.642398
5
Structure 2725 | Energy: -10.834490 Hartree
N 2.521530 0.895335 3.265401
N 1.906083 0.199537 2.679586
O -2.712881 -0.042473 -5.046424
H -2.054940 0.425679 -4.528689
H -3.040452 -0.763145 -4.504754
5
Structure 2726 | Energy: -10.834490 Hartree
N 2.521530 0.895335 3.265401
N 1.906083 0.199537 2.679586
O -1.167092 -0.842591 -5.720069
H -0.769804 -0.239523 -5.088742
H -1.233181 -1.698610 -5.292350
5
Structure 2727 | Energy: -10.834496 Hartree
N 2.521530 0.895335 3.265401
N 1.906083 0.199537 2.679586
O -2.064122 -1.653351 -5.137941
H -1.382038 -1.150428 -4.688571
H -2.496223 -2.198899 -4.477832
5
Structure 2728 | Energy: -10.834504 Hartree
N 2.521530 0.895335 3.265401
N 1.906083 0.199537 2.679586
O -3.859769 -2.818896 -3.407379
H -3.144283 -2.212440 -3.206400
H -4.023124 -3.337355 -2.617067
5
Structure 2729 | Energy: -10.834503 Hartree
N 2.548943 0.910584 3.294092
N 1.933496 0.214786 2.708277
O -3.859769 -2.818896 -3.407379
H -3.144283 -2.212440 -3.206400
H -4.023124 -3.337355 -2.617067
5
Structure 2730 | Energy: -10.834494 Hartree
N 3.758768 1.117673 2.944154
N 3.143321 0.421875 2.358339
O -3.859769 -2.818896 -3.407379
H -3.144283 -2.212440 -3.206400
H -4.023124 -3.337355 -2.617067
5
Structure 2731 | Energy: -10.834492 Hartree
N 3.758768 1.117673 2.944154
N 3.143321 0.421875 2.358339
O -3.859769 -2.818894 -3.407380
H -3.219395 -3.440397 -3.055588
H -3.948014 -2.109441 -2.767873
5
Structure 2732 | Energy: -10.834494 Hartree
N 3.626343 1.052483 2.834953
N 3.010896 0.356685 2.249139
O -3.859769 -2.818894 -3.407380
H -3.219395 -3.440397 -3.055588
H -3.948014 -2.109441 -2.767873
5
Structure 2733 | Energy: -10.834495 Hartree
N 3.554145 1.016942 2.775418
N 2.938698 0.321144 2.189604
O -3.859769 -2.818894 -3.407380
H -3.219395 -3.440397 -3.055588
H -3.948014 -2.109441 -2.767873
5
Structure 2734 | Energy: -10.834496 Hartree
N 3.554145 1.016942 2.775418
N 2.938698 0.321144 2.189604
O -3.774750 -2.777041 -3.337272
H -3.134376 -3.398544 -2.985481
H -3.862995 -2.067588 -2.697765
5
Structure 2735 | Energy: -10.834474 Hartree
N 3.554145 1.016942 2.775418
N 2.938698 0.321144 2.189604
O -3.786628 -2.803204 -3.246316
H -3.040114 -3.190914 -3.707293
H -3.768729 -1.859950 -3.419606
5
Structure 2736 | Energy: -10.834488 Hartree
N 3.057269 0.559738 1.978729
N 3.435575 0.778347 2.986292
O -3.786628 -2.803204 -3.246316
H -3.040114 -3.190914 -3.707293
H -3.768729 -1.859950 -3.419606
5
Structure 2737 | Energy: -10.834488 Hartree
N 3.663670 -0.547950 1.739292
N 4.228440 -0.669947 2.673230
O -3.786628 -2.803204 -3.246316
H -3.040114 -3.190914 -3.707293
H -3.768729 -1.859950 -3.419606
5
Structure 2738 | Energy: -10.834507 Hartree
N 2.608837 -1.630375 0.687926
N 3.173607 -1.752372 1.621864
O -3.786628 -2.803204 -3.246316
H -3.040114 -3.190914 -3.707293
H -3.768729 -1.859950 -3.419606
5
Structure 2739 | Energy: -10.834501 Hartree
N 2.252430 -2.898062 1.349365
N 2.715327 -3.236481 2.286002
O -3.786628 -2.803204 -3.246316
H -3.040114 -3.190914 -3.707293
H -3.768729 -1.859950 -3.419606
5
Structure 2740 | Energy: -10.834503 Hartree
N 2.252430 -2.898062 1.349365
N 2.715327 -3.236481 2.286002
O -3.680366 -2.808240 -3.159305
H -2.933852 -3.195950 -3.620281
H -3.662466 -1.864986 -3.332594
5
Structure 2741 | Energy: -10.834451 Hartree
N 2.832984 -2.656646 1.922727
N 2.134773 -3.477897 1.712641
O -3.680366 -2.808240 -3.159305
H -2.933852 -3.195950 -3.620281
H -3.662466 -1.864986 -3.332594
5
Structure 2742 | Energy: -10.834444 Hartree
N 2.832984 -2.656646 1.922727
N 2.134773 -3.477897 1.712641
O -3.680365 -2.808243 -3.159306
H -3.241818 -1.986076 -2.931667
H -3.354511 -3.074819 -4.021185
5
Structure 2743 | Energy: -10.834442 Hartree
N 2.683248 -2.649549 1.800117
N 1.985037 -3.470800 1.590032
O -3.680365 -2.808243 -3.159306
H -3.241818 -1.986076 -2.931667
H -3.354511 -3.074819 -4.021185
5
Structure 2744 | Energy: -10.834467 Hartree
N 2.683248 -2.649549 1.800117
N 1.985037 -3.470800 1.590032
O -3.597225 -2.795566 -3.240473
H -3.410868 -2.176268 -2.532063
H -4.505058 -3.085842 -3.132506
5
Structure 2745 | Energy: -10.834471 Hartree
N 1.597275 -2.273283 1.139264
N 0.899064 -3.094534 0.929178
O -3.597225 -2.795566 -3.240473
H -3.410868 -2.176268 -2.532063
H -4.505058 -3.085842 -3.132506
5
Structure 2746 | Energy: -10.834506 Hartree
N 1.597275 -2.273283 1.139264
N 0.899064 -3.094534 0.929178
O -3.597223 -2.795565 -3.240471
H -4.471025 -2.421711 -3.370107
H -3.444938 -2.840407 -2.294492
5
Structure 2747 | Energy: -10.834508 Hartree
N 1.549861 -2.274188 1.098223
N 0.851650 -3.095439 0.888137
O -3.597223 -2.795565 -3.240471
H -4.471025 -2.421711 -3.370107
H -3.444938 -2.840407 -2.294492
5
Structure 2748 | Energy: -10.834507 Hartree
N 1.583650 -2.273543 1.127470
N 0.885439 -3.094794 0.917384
O -3.597223 -2.795565 -3.240471
H -4.471025 -2.421711 -3.370107
H -3.444938 -2.840407 -2.294492
5
Structure 2749 | Energy: -10.834511 Hartree
N 1.583650 -2.273543 1.127470
N 0.885439 -3.094794 0.917384
O -3.502920 -2.793765 -3.158844
H -4.376722 -2.419912 -3.288480
H -3.350635 -2.838608 -2.212865
5
Structure 2750 | Energy: -10.834517 Hartree
N 1.583650 -2.273543 1.127470
N 0.885439 -3.094794 0.917384
O -3.594846 -2.753802 -3.143706
H -3.468856 -2.787213 -2.193384
H -2.799442 -3.105608 -3.548234
5
Structure 2751 | Energy: -10.834509 Hartree
N 1.583650 -2.273543 1.127470
N 0.885439 -3.094794 0.917384
O -3.594846 -2.753802 -3.143706
H -3.316523 -2.513906 -2.257654
H -2.951769 -3.378905 -3.483966
5
Structure 2752 | Energy: -10.834404 Hartree
N 1.583650 -2.273543 1.127470
N 0.885439 -3.094794 0.917384
O -2.964103 2.116417 0.921075
H -2.468551 1.509081 1.473953
H -2.961164 1.757628 0.031502
5
Structure 2753 | Energy: -10.834402 Hartree
N 1.427936 -2.192866 0.104665
N 0.729725 -3.014118 -0.105421
O -2.964103 2.116417 0.921075
H -2.468551 1.509081 1.473953
H -2.961164 1.757628 0.031502
5
Structure 2754 | Energy: -10.834424 Hartree
N 1.427936 -2.192866 0.104665
N 0.729725 -3.014118 -0.105421
O -4.026667 2.183271 1.886600
H -3.531115 1.575935 2.439478
H -4.023728 1.824482 0.997027
5
Structure 2755 | Energy: -10.834452 Hartree
N 1.427936 -2.192866 0.104665
N 0.729725 -3.014118 -0.105421
O -4.047124 2.117198 1.907423
H -3.121028 1.922136 2.063625
H -4.109113 2.526993 1.042377
5
Structure 2756 | Energy: -10.834452 Hartree
N 1.427936 -2.192866 0.104665
N 0.729725 -3.014118 -0.105421
O -4.047124 2.453430 0.593051
H -3.121028 2.357338 0.362369
H -4.109113 2.397490 1.548617
5
Structure 2757 | Energy: -10.834477 Hartree
N 0.138958 -1.270656 -3.873240
N -0.699046 -1.934592 -4.124292
O -4.047124 2.453430 0.593051
H -3.121028 2.357338 0.362369
H -4.109113 2.397490 1.548617
