6
)Structure 1 | Energy: -152.053136 Hartree
O 3.860310 -0.972758 -0.922445
H 3.324165 -0.877727 -0.147709
H 3.255758 -1.250837 -1.595625
O -0.399919 -0.296073 -0.638663
H 0.328744 -0.847676 -0.883605
H -0.197991 0.538404 -1.036248
6
)Structure 2 | Energy: -152.053070 Hartree
O 3.860308 -0.972749 -0.922447
H 3.343432 -0.987449 -0.129149
H 3.236515 -1.141249 -1.614162
O -0.399919 -0.296073 -0.638663
H 0.328744 -0.847676 -0.883605
H -0.197991 0.538404 -1.036248
6
)Structure 3 | Energy: -152.054246 Hartree
O 3.840195 -0.935724 -0.924840
H 3.502943 -1.281084 -0.110170
H 3.396245 -1.435287 -1.595158
O -0.399919 -0.296073 -0.638663
H 0.328744 -0.847676 -0.883605
H -0.197991 0.538404 -1.036248
6
)Structure 4 | Energy: -152.053651 Hartree
O -0.858172 -2.189370 3.233930
H 0.085192 -2.145463 3.164399
H -1.132624 -2.637411 2.446581
O -0.310197 -0.094292 0.214176
H 0.418466 -0.645894 -0.030766
H -0.108269 0.740186 -0.183410
6
)Structure 5 | Energy: -152.053551 Hartree
O -0.858172 -2.189370 3.233930
H 0.085192 -2.145463 3.164399
H -1.132624 -2.637411 2.446581
O -0.727978 0.035199 -0.231788
H 0.000685 -0.516403 -0.476729
H -0.526050 0.869677 -0.629373
6
)Structure 6 | Energy: -152.053822 Hartree
O -0.858172 -2.189370 3.233930
H 0.085192 -2.145463 3.164399
H -1.132624 -2.637411 2.446581
O -0.391859 0.846494 -1.173247
H 0.336804 0.294892 -1.418188
H -0.189931 1.680972 -1.570832
6
)Structure 7 | Energy: -152.053670 Hartree
O -0.858172 -2.189370 3.233930
H 0.085192 -2.145463 3.164399
H -1.132624 -2.637411 2.446581
O 0.040104 1.879177 -0.461097
H 0.768766 1.327575 -0.706038
H 0.242031 2.713655 -0.858682
6
)Structure 8 | Energy: -152.054540 Hartree
O -0.829840 -2.238368 3.244568
H -0.286770 -1.495618 3.020747
H -1.210359 -2.509567 2.421381
O 0.040104 1.879177 -0.461097
H 0.768766 1.327575 -0.706038
H 0.242031 2.713655 -0.858682
6
)Structure 9 | Energy: -152.054134 Hartree
O -0.829840 -2.238368 3.244568
H -0.286770 -1.495618 3.020747
H -1.210359 -2.509567 2.421381
O 0.109149 1.918005 -0.438422
H 0.416896 2.201260 -1.287108
H -0.501997 1.223697 -0.637515
6
)Structure 10 | Energy: -152.054161 Hartree
O -0.829840 -2.238368 3.244568
H -0.286770 -1.495618 3.020747
H -1.210359 -2.509567 2.421381
O -0.614667 1.358320 -1.088158
H -0.400941 1.531621 -1.993419
H -1.157069 0.584006 -1.126089
6
)Structure 11 | Energy: -152.054397 Hartree
O -0.829840 -2.238368 3.244568
H -0.286770 -1.495618 3.020747
H -1.210359 -2.509567 2.421381
O -1.628941 0.747251 -1.414815
H -1.415215 0.920552 -2.320077
H -2.171343 -0.027063 -1.452747
6
)Structure 12 | Energy: -152.053794 Hartree
O -0.879590 -2.185560 3.193050
H -0.536445 -2.644655 2.439272
H -0.171040 -2.198694 3.820557
O -1.628941 0.747251 -1.414815
H -1.415215 0.920552 -2.320077
H -2.171343 -0.027063 -1.452747
6
)Structure 13 | Energy: -152.053959 Hartree
O -1.453850 -0.726918 3.897232
H -1.110705 -1.186013 3.143454
H -0.745300 -0.740051 4.524739
O -1.628941 0.747251 -1.414815
H -1.415215 0.920552 -2.320077
H -2.171343 -0.027063 -1.452747
6
)Structure 14 | Energy: -152.053839 Hartree
O -1.706178 0.740045 -1.460525
H -1.363032 0.280950 -2.214303
H -0.997627 0.726911 -0.833018
O -1.376614 -0.719712 3.942941
H -1.162888 -0.546411 3.037680
H -1.919016 -1.494026 3.905010
6
)Structure 15 | Energy: -152.054704 Hartree
O -1.680873 0.663991 -1.442638
H -1.563710 0.884101 -2.356160
H -1.198581 1.330890 -0.975069
O -1.376614 -0.719712 3.942941
H -1.162888 -0.546411 3.037680
H -1.919016 -1.494026 3.905010
6
)Structure 16 | Energy: -152.054880 Hartree
O -1.428546 -0.802972 3.915119
H -1.311382 -0.582862 3.001597
H -0.946253 -0.136073 4.382688
O -1.628941 0.747251 -1.414815
H -1.415215 0.920552 -2.320077
H -2.171343 -0.027063 -1.452747
6
)Structure 17 | Energy: -152.054810 Hartree
O -1.428546 -0.802972 3.915119
H -1.311382 -0.582862 3.001597
H -0.946253 -0.136073 4.382688
O -0.497453 2.226984 -0.666302
H -0.121564 2.589122 -1.455461
H -1.203182 1.680340 -0.979875
6
)Structure 18 | Energy: -152.054148 Hartree
O -1.428546 -0.802972 3.915119
H -1.311382 -0.582862 3.001597
H -0.946253 -0.136073 4.382688
O -0.554798 2.267185 -0.714251
H -0.768003 1.482173 -1.197480
H 0.353442 2.149216 -0.476801
6
)Structure 19 | Energy: -152.053109 Hartree
O 3.669704 -1.178930 0.840525
H 2.856155 -0.882452 0.457202
H 4.224345 -0.411887 0.840577
O -0.554798 2.267185 -0.714251
H -0.768003 1.482173 -1.197480
H 0.353442 2.149216 -0.476801
6
)Structure 20 | Energy: -152.053670 Hartree
O 3.669704 -1.178930 0.840525
H 2.856155 -0.882452 0.457202
H 4.224345 -0.411887 0.840577
O -0.515982 2.264585 -0.772246
H -1.076049 1.502805 -0.737232
H 0.045391 2.169848 -0.016544
6
)Structure 21 | Energy: -152.054043 Hartree
O 3.650504 -1.173548 0.854564
H 4.361005 -0.547652 0.842631
H 3.024233 -0.832110 0.232322
O -0.515982 2.264585 -0.772246
H -1.076049 1.502805 -0.737232
H 0.045391 2.169848 -0.016544
6
)Structure 22 | Energy: -152.054164 Hartree
O 3.048664 -1.743462 0.181302
H 3.759164 -1.117566 0.169369
H 2.422392 -1.402023 -0.440941
O -0.515982 2.264585 -0.772246
H -1.076049 1.502805 -0.737232
H 0.045391 2.169848 -0.016544
6
)Structure 23 | Energy: -152.054373 Hartree
O 2.844850 -1.237413 0.134808
H 3.555350 -0.611517 0.122874
H 2.218579 -0.895975 -0.487435
O -0.515982 2.264585 -0.772246
H -1.076049 1.502805 -0.737232
H 0.045391 2.169848 -0.016544
6
)Structure 24 | Energy: -152.054373 Hartree
O -1.247751 0.349341 4.513672
H -0.742271 1.133883 4.673926
H -1.554698 0.443683 3.623242
O -0.000436 0.285506 -0.263572
H -0.560502 -0.476274 -0.228558
H 0.560938 0.190768 0.492130
6
)Structure 25 | Energy: -152.054732 Hartree
O -0.066178 -0.292961 0.243392
H 0.439303 0.491581 0.403646
H -0.373125 -0.198619 -0.647038
O -3.441383 -2.125166 2.391392
H -2.886485 -1.931340 3.132829
H -3.482662 -1.307313 1.917457
6
)Structure 26 | Energy: -152.054268 Hartree
O 1.243466 -0.020031 -0.301400
H 1.748946 0.764511 -0.141146
H 0.936519 0.074311 -1.191830
O -3.441383 -2.125166 2.391392
H -2.886485 -1.931340 3.132829
H -3.482662 -1.307313 1.917457
6
)Structure 27 | Energy: -152.054334 Hartree
O -3.423753 -2.117735 2.447215
H -2.918273 -1.333193 2.607470
H -3.730700 -2.023393 1.556786
O 1.225836 -0.027461 -0.357224
H 1.780734 0.166365 0.384213
H 1.184557 0.790391 -0.831158
6
)Structure 28 | Energy: -152.054420 Hartree
O -3.423722 -2.117672 2.447300
H -3.327639 -2.157357 1.506082
H -3.321833 -1.200233 2.656834
O 1.225836 -0.027461 -0.357224
H 1.780734 0.166365 0.384213
H 1.184557 0.790391 -0.831158
6
)Structure 29 | Energy: -152.054111 Hartree
O 1.774088 -3.822575 -1.938321
H 1.950601 -3.932853 -1.014536
H 0.830106 -3.782366 -1.995452
O -4.597556 1.085045 -1.071324
H -4.092193 1.508772 -1.749759
H -4.075660 1.202807 -0.290966
6
)Structure 30 | Energy: -152.054126 Hartree
O 1.774088 -3.822575 -1.938321
H 1.950601 -3.932853 -1.014536
H 0.830106 -3.782366 -1.995452
O -4.595328 1.081296 -1.072135
H -4.109874 1.538525 -1.743319
H -4.093341 1.232561 -0.284525
6
)Structure 31 | Energy: -152.054059 Hartree
O 2.169616 -2.539548 -1.096985
H 2.346129 -2.649826 -0.173199
H 1.225634 -2.499340 -1.154115
O -4.595328 1.081296 -1.072135
H -4.109874 1.538525 -1.743319
H -4.093341 1.232561 -0.284525
6
)Structure 32 | Energy: -152.054125 Hartree
O 2.169616 -2.539548 -1.096985
H 2.346129 -2.649826 -0.173199
H 1.225634 -2.499340 -1.154115
O -4.515385 1.091480 -1.121074
H -4.578156 1.996696 -0.853020
H -4.893912 0.612760 -0.398062
6
)Structure 33 | Energy: -152.054287 Hartree
O 2.169616 -2.539548 -1.096985
H 2.346129 -2.649826 -0.173199
H 1.225634 -2.499340 -1.154115
O -4.558980 1.061508 -1.034019
H -4.149479 1.124574 -1.884632
H -4.630652 1.960599 -0.748190
6
)Structure 34 | Energy: -152.054238 Hartree
O 2.419540 -3.255647 -1.594333
H 2.596054 -3.365925 -0.670547
H 1.475559 -3.215438 -1.651463
O -4.558980 1.061508 -1.034019
H -4.149479 1.124574 -1.884632
H -4.630652 1.960599 -0.748190
6
)Structure 35 | Energy: -152.054268 Hartree
O 2.419540 -3.255647 -1.594333
H 2.596054 -3.365925 -0.670547
H 1.475559 -3.215438 -1.651463
O -3.782001 0.097129 -0.158001
H -3.372501 0.160196 -1.008613
H -3.853673 0.996221 0.127829
6
)Structure 36 | Energy: -152.054178 Hartree
O -3.720156 0.154886 -0.238094
H -3.543642 0.044608 0.685691
H -4.664137 0.195094 -0.295225
O 2.357695 -3.313403 -1.514239
H 2.767195 -3.250337 -2.364852
H 2.286023 -2.414312 -1.228410
6
)Structure 37 | Energy: -152.054158 Hartree
O -3.720156 0.154886 -0.238094
H -3.543642 0.044608 0.685691
H -4.664137 0.195094 -0.295225
O 2.357696 -3.313404 -1.514240
H 2.387012 -2.425874 -1.187681
H 2.666200 -3.238761 -2.405562
6
)Structure 38 | Energy: -152.054288 Hartree
O 2.419540 -3.255647 -1.594333
H 2.596054 -3.365925 -0.670547
H 1.475559 -3.215438 -1.651463
O -3.782000 0.097128 -0.158002
H -3.752684 0.984658 0.168557
H -3.473496 0.171771 -1.049324
6
)Structure 39 | Energy: -152.054158 Hartree
O -3.720156 0.154886 -0.238094
H -3.543642 0.044608 0.685691
H -4.664137 0.195094 -0.295225
O 2.357696 -3.313404 -1.514240
H 2.387012 -2.425874 -1.187681
H 2.666200 -3.238761 -2.405562
6
)Structure 40 | Energy: -152.054440 Hartree
O 0.322941 3.519068 -0.936176
H -0.038307 3.297377 -0.089387
H -0.206473 4.243951 -1.236588
O 2.357696 -3.313404 -1.514240
H 2.387012 -2.425874 -1.187681
H 2.666200 -3.238761 -2.405562
6
)Structure 41 | Energy: -152.054390 Hartree
O 2.426433 -3.287723 -1.576412
H 2.065185 -3.509413 -0.729624
H 1.897020 -2.562840 -1.876825
O 0.254203 3.493386 -0.874004
H 0.283520 4.380917 -0.547445
H 0.562707 3.568029 -1.765326
6
)Structure 42 | Energy: -152.054406 Hartree
O 2.426433 -3.287723 -1.576412
H 2.065185 -3.509413 -0.729624
H 1.897020 -2.562840 -1.876825
O 0.254202 3.493387 -0.874003
H 0.934145 3.577784 -1.526510
H -0.087907 4.371149 -0.786276
6
)Structure 43 | Energy: -152.054641 Hartree
O 1.614226 -2.522609 0.042695
H 1.252978 -2.744300 0.889483
H 1.084812 -1.797726 -0.257718
O 0.254202 3.493387 -0.874003
H 0.934145 3.577784 -1.526510
H -0.087907 4.371149 -0.786276
6
)Structure 44 | Energy: -152.054534 Hartree
O 1.605574 -2.518813 0.117101
H 1.460645 -2.815406 -0.770439
H 1.014463 -1.786879 0.221229
O 0.254202 3.493387 -0.874003
H 0.934145 3.577784 -1.526510
H -0.087907 4.371149 -0.786276
6
)Structure 45 | Energy: -152.054465 Hartree
O 3.113326 -2.382954 0.989191
H 2.968397 -2.679547 0.101652
H 2.522215 -1.651020 1.093320
O 0.254202 3.493387 -0.874003
H 0.934145 3.577784 -1.526510
H -0.087907 4.371149 -0.786276
6
)Structure 46 | Energy: -152.054309 Hartree
O 3.113301 -2.383026 0.989174
H 3.292832 -1.734546 0.322885
H 2.198174 -2.594871 0.872355
O 0.254202 3.493387 -0.874003
H 0.934145 3.577784 -1.526510
H -0.087907 4.371149 -0.786276
6
)Structure 47 | Energy: -152.054324 Hartree
O 3.658182 -1.759128 1.779288
H 3.789136 -1.183778 1.038666
H 2.774135 -2.080997 1.675157
O 0.254202 3.493387 -0.874003
H 0.934145 3.577784 -1.526510
H -0.087907 4.371149 -0.786276
6
)Structure 48 | Energy: -152.054521 Hartree
O 0.315243 3.533040 -0.858338
H 0.446197 4.108390 -1.598960
H -0.568803 3.211171 -0.962468
O 3.597141 -1.798781 1.763622
H 4.277083 -1.714384 1.111115
H 3.255031 -0.921019 1.851349
6
)Structure 49 | Energy: -152.054576 Hartree
O -0.165477 1.520436 -1.198053
H -0.034523 2.095786 -1.938675
H -1.049523 1.198567 -1.302183
O 3.597141 -1.798781 1.763622
H 4.277083 -1.714384 1.111115
H 3.255031 -0.921019 1.851349
6
)Structure 50 | Energy: -152.055028 Hartree
O 0.795375 1.758535 0.085061
H -0.121219 1.624473 0.281484
H 0.877673 1.526397 -0.828898
O -1.981094 -0.899164 2.991116
H -1.340587 -0.743521 3.669891
H -2.794611 -0.603315 3.373039
6
)Structure 51 | Energy: -152.054610 Hartree
O 0.720214 1.787970 0.014790
H 0.474851 1.391036 0.838768
H 1.474560 1.292639 -0.270849
O -1.981094 -0.899164 2.991116
H -1.340587 -0.743521 3.669891
H -2.794611 -0.603315 3.373039
6
)Structure 52 | Energy: -152.054865 Hartree
O 0.720214 1.787970 0.014790
H 0.474851 1.391036 0.838768
H 1.474560 1.292639 -0.270849
O -1.981093 -0.899164 2.991116
H -1.852423 -1.316672 3.830366
H -2.282783 -0.030173 3.212567
6
)Structure 53 | Energy: -152.054393 Hartree
O 0.720214 1.787970 0.014790
H 0.474851 1.391036 0.838768
H 1.474560 1.292639 -0.270849
O -1.913935 -1.774439 2.892235
H -1.785265 -2.191948 3.731485
H -2.215625 -0.905449 3.113686
6
)Structure 54 | Energy: -152.054656 Hartree
O 0.583809 1.571410 -0.336656
H 0.482169 1.118661 0.488805
H 1.099520 0.981592 -0.867823
O -1.913935 -1.774439 2.892235
H -1.785265 -2.191948 3.731485
H -2.215625 -0.905449 3.113686
6
)Structure 55 | Energy: -152.054867 Hartree
O 1.260827 0.638476 0.534377
H 1.159187 0.185727 1.359838
H 1.776538 0.048659 0.003209
O -1.913935 -1.774439 2.892235
H -1.785265 -2.191948 3.731485
H -2.215625 -0.905449 3.113686
6
)Structure 56 | Energy: -152.054655 Hartree
O -1.946785 -1.690842 2.935118
H -2.048425 -2.143591 3.760579
H -1.431074 -2.280660 2.403951
O 1.293677 0.554879 0.491494
H 1.422347 0.137371 1.330744
H 0.991988 1.423870 0.712944
6
)Structure 57 | Energy: -152.054484 Hartree
O -1.946785 -1.690842 2.935118
H -2.048425 -2.143591 3.760579
H -1.431074 -2.280660 2.403951
O 1.423884 0.974229 0.871257
H 1.552555 0.556720 1.710507
H 1.122195 1.843219 1.092707
6
)Structure 58 | Energy: -152.053324 Hartree
O -1.946785 -1.690842 2.935118
H -2.048425 -2.143591 3.760579
H -1.431074 -2.280660 2.403951
O 1.359585 0.970956 0.909233
H 2.062835 0.582691 1.409132
H 1.632484 1.869191 0.791327
6
)Structure 59 | Energy: -152.053523 Hartree
O 1.391035 1.057826 0.914140
H 1.289394 0.605077 1.739601
H 1.906746 0.468008 0.382972
O -1.978235 -1.777712 2.930211
H -1.274985 -2.165977 3.430111
H -1.705336 -0.879477 2.812306
6
)Structure 60 | Energy: -152.053692 Hartree
O 1.407625 1.049105 0.889302
H 1.643114 1.084510 1.805811
H 1.289708 0.126997 0.710995
O -1.978235 -1.777712 2.930211
H -1.274985 -2.165977 3.430111
H -1.705336 -0.879477 2.812306
6
)Structure 61 | Energy: -152.053692 Hartree
O 0.655654 3.964883 2.230771
H 1.520307 3.658067 1.996384
H 0.231915 3.209120 2.611888
O -0.325383 -0.169990 -0.127332
H 0.377867 -0.558255 0.372568
H -0.052484 0.728245 -0.245237
6
)Structure 62 | Energy: -152.053519 Hartree
O 1.658370 4.162568 0.860681
H 2.415718 3.638918 0.639521
H 1.177982 3.633194 1.481143
O -0.325383 -0.169990 -0.127332
H 0.377867 -0.558255 0.372568
H -0.052484 0.728245 -0.245237
6
)Structure 63 | Energy: -152.054981 Hartree
O -1.995256 2.240451 3.706288
H -1.864283 1.366825 4.047347
H -2.462331 2.109333 2.893496
O -0.325383 -0.169990 -0.127332
H 0.377867 -0.558255 0.372568
H -0.052484 0.728245 -0.245237
6
)Structure 64 | Energy: -152.054753 Hartree
O -1.995256 2.240451 3.706288
H -1.864283 1.366825 4.047347
H -2.462331 2.109333 2.893496
O -0.325383 -0.169990 -0.127332
H 0.020591 -0.159530 0.753238
H 0.304787 0.329526 -0.625900
6
)Structure 65 | Energy: -152.055115 Hartree
O -3.353668 1.741730 3.076790
H -3.372775 0.818859 3.288077
H -3.460942 1.771285 2.136790
O -0.325383 -0.169990 -0.127332
H 0.020591 -0.159530 0.753238
H 0.304787 0.329526 -0.625900
6
)Structure 66 | Energy: -152.058244 Hartree
O -3.353668 1.741730 3.076790
H -3.372775 0.818859 3.288077
H -3.460942 1.771285 2.136790
O -1.160333 0.914175 0.307446
H -0.814360 0.924635 1.188015
H -0.530164 1.413692 -0.191123
6
)Structure 67 | Energy: -152.053529 Hartree
O -0.295215 -0.211694 0.132209
H 0.506540 0.011764 0.583821
H -0.211325 0.199930 -0.716030
O -3.949035 -0.849576 -2.486419
H -3.651701 -0.787888 -3.382520
H -3.480543 -0.157700 -2.042545
6
)Structure 68 | Energy: -152.053393 Hartree
O -0.295215 -0.211694 0.132209
H 0.506540 0.011764 0.583821
H -0.211325 0.199930 -0.716030
O -0.373519 -1.211415 4.570765
H 0.503913 -1.491431 4.787362
H -0.241455 -0.464971 4.004565
6
)Structure 69 | Energy: -152.053075 Hartree
O -1.078486 -0.457349 0.150501
H -0.323333 -0.001749 0.495279
H -1.210915 -0.079926 -0.707401
O -0.373519 -1.211415 4.570765
H 0.503913 -1.491431 4.787362
H -0.241455 -0.464971 4.004565
6
)Structure 70 | Energy: -152.054419 Hartree
O -0.351877 -1.231927 4.579915
H 0.403275 -0.776327 4.924693
H -0.484307 -0.854504 3.722013
O -1.100127 -0.436837 0.141351
H -0.222695 -0.716853 0.357948
H -0.968063 0.309607 -0.424849
6
)Structure 71 | Energy: -152.053075 Hartree
O -1.078486 -0.457349 0.150501
H -0.323333 -0.001749 0.495279
H -1.210915 -0.079926 -0.707401
O -0.373519 -1.211415 4.570765
H 0.503913 -1.491431 4.787362
H -0.241455 -0.464971 4.004565
6
)Structure 72 | Energy: -152.054419 Hartree
O -0.351877 -1.231927 4.579915
H 0.403275 -0.776327 4.924693
H -0.484307 -0.854504 3.722013
O -1.100127 -0.436837 0.141351
H -0.222695 -0.716853 0.357948
H -0.968063 0.309607 -0.424849
6
)Structure 73 | Energy: -152.053571 Hartree
O -1.390912 4.374461 0.866885
H -0.728218 4.977128 0.559760
H -0.972142 3.526181 0.834722
O -0.336498 -0.155475 0.116535
H 0.540933 -0.435492 0.333131
H -0.204435 0.590968 -0.449666
6
)Structure 74 | Energy: -152.053120 Hartree
O -1.390912 4.374461 0.866885
H -0.728218 4.977128 0.559760
H -0.972142 3.526181 0.834722
O -0.382206 -0.444626 0.818803
H 0.495225 -0.724642 1.035400
H -0.250143 0.301818 0.252603
6
)Structure 75 | Energy: -152.052944 Hartree
O -1.390912 4.374461 0.866885
H -0.728218 4.977128 0.559760
H -0.972142 3.526181 0.834722
O -0.961886 -0.161369 0.772265
H -0.084454 -0.441386 0.988862
H -0.829822 0.585074 0.206065
6
)Structure 76 | Energy: -152.053666 Hartree
O -1.390912 4.374461 0.866885
H -0.728218 4.977128 0.559760
H -0.972142 3.526181 0.834722
O -0.343937 -0.054478 1.199649
H 0.316189 -0.313221 0.573154
H -0.909718 0.523822 0.709076
6
)Structure 77 | Energy: -152.054686 Hartree
O 3.672104 2.018704 1.709195
H 4.437771 1.479757 1.850571
H 2.963291 1.399926 1.605851
O -0.343937 -0.054478 1.199649
H 0.316189 -0.313221 0.573154
H -0.909718 0.523822 0.709076
6
)Structure 78 | Energy: -152.053309 Hartree
O 3.672104 2.018704 1.709195
H 4.437771 1.479757 1.850571
H 2.963291 1.399926 1.605851
O -0.112506 0.030052 2.789864
H 0.547620 -0.228691 2.163369
H -0.678287 0.608352 2.299291
6
)Structure 79 | Energy: -152.056612 Hartree
O 0.377560 3.379629 2.562402
H 1.209359 3.831090 2.530923
H 0.558908 2.524398 2.199534
O -0.031448 -0.106519 0.372356
H 0.628678 -0.365262 -0.254139
H -0.597230 0.471781 -0.118217
6
)Structure 80 | Energy: -152.057219 Hartree
O -2.270822 -0.355028 3.796460
H -1.805628 -0.351925 4.621252
H -1.602839 -0.529813 3.148981
O -0.031448 -0.106519 0.372356
H 0.628678 -0.365262 -0.254139
H -0.597230 0.471781 -0.118217
6
)Structure 81 | Energy: -152.056973 Hartree
O -2.270822 -0.355028 3.796460
H -1.805628 -0.351925 4.621252
H -1.602839 -0.529813 3.148981
O -0.015387 -0.116529 0.367819
H 0.491728 -0.206912 -0.425828
H -0.715202 0.472311 0.125481
6
)Structure 82 | Energy: -152.056267 Hartree
O -2.270822 -0.355028 3.796460
H -1.805628 -0.351925 4.621252
H -1.602839 -0.529813 3.148981
O 0.114721 1.232921 0.605556
H 0.621837 1.142538 -0.188091
H -0.585093 1.821762 0.363218
6
)Structure 83 | Energy: -152.055595 Hartree
O -2.270822 -0.355028 3.796460
H -1.805628 -0.351925 4.621252
H -1.602839 -0.529813 3.148981
O 0.784036 1.385544 0.673212
H 1.291152 1.295160 -0.120435
H 0.084222 1.974384 0.430873
6
)Structure 84 | Energy: -152.054828 Hartree
O -2.270822 -0.355028 3.796460
H -1.805628 -0.351925 4.621252
H -1.602839 -0.529813 3.148981
O 2.199821 0.700196 0.772203
H 2.706936 0.609813 -0.021444
H 1.500006 1.289036 0.529865
6
)Structure 85 | Energy: -152.054955 Hartree
O 2.125633 0.737693 0.704315
H 2.590828 0.740796 1.529107
H 2.793617 0.562907 0.056836
O -2.196635 -0.392524 3.864348
H -1.689520 -0.482907 3.070701
H -2.896450 0.196316 3.622009
6
)Structure 86 | Energy: -152.055233 Hartree
O 1.873455 1.199738 1.635625
H 2.338650 1.202841 2.460418
H 2.541439 1.024953 0.988146
O -2.196635 -0.392524 3.864348
H -1.689520 -0.482907 3.070701
H -2.896450 0.196316 3.622009
6
)Structure 87 | Energy: -152.053847 Hartree
O -2.324248 -1.629247 -4.016017
H -3.075719 -1.840891 -3.480109
H -1.682930 -2.289483 -3.795154
O 2.248019 1.639513 -3.619351
H 2.599798 1.180919 -2.870250
H 1.582275 2.201670 -3.250616
6
)Structure 88 | Energy: -152.053762 Hartree
O -2.324248 -1.629247 -4.016017
H -3.075719 -1.840891 -3.480109
H -1.682930 -2.289483 -3.795154
O 2.251716 1.653301 -3.975651
H 2.726355 1.107261 -3.365922
H 1.661888 2.148995 -3.426477
6
)Structure 89 | Energy: -152.053716 Hartree
O -2.324248 -1.629247 -4.016017
H -3.075719 -1.840891 -3.480109
H -1.682930 -2.289483 -3.795154
O 2.246872 1.648333 -3.975976
H 2.764794 1.146689 -3.363341
H 1.700328 2.188423 -3.423896
6
)Structure 90 | Energy: -152.053709 Hartree
O 2.251434 1.699269 -3.953150
H 1.499963 1.487625 -3.417243
H 2.892753 1.039033 -3.732287
O -2.328810 -1.680183 -4.038842
H -1.810888 -2.181827 -3.426208
H -2.875355 -1.140093 -3.486763
6
)Structure 91 | Energy: -152.053716 Hartree
O -2.324248 -1.629247 -4.016017
H -3.075719 -1.840891 -3.480109
H -1.682930 -2.289483 -3.795154
O 2.246872 1.648333 -3.975976
H 2.764794 1.146689 -3.363341
H 1.700328 2.188423 -3.423896
6
)Structure 92 | Energy: -152.053611 Hartree
O -2.324248 -1.629247 -4.016017
H -3.075719 -1.840891 -3.480109
H -1.682930 -2.289483 -3.795154
O 1.121910 2.681255 -2.927571
H 1.673850 2.251916 -2.290202
H 0.381924 2.983796 -2.421517
6
)Structure 93 | Energy: -152.053619 Hartree
O 1.117551 2.722945 -2.905937
H 0.366080 2.511302 -2.370030
H 1.758870 2.062709 -2.685074
O -2.319890 -1.670937 -4.037651
H -1.767949 -2.100276 -3.400282
H -3.059876 -1.368396 -3.531597
6
)Structure 94 | Energy: -152.053744 Hartree
O 1.117551 2.722945 -2.905937
H 0.366080 2.511302 -2.370030
H 1.758870 2.062709 -2.685074
O -3.698551 -0.296988 -2.601460
H -3.161755 -0.856788 -2.059533
H -4.142015 0.263460 -1.981429
6
)Structure 95 | Energy: -152.053573 Hartree
O 1.117551 2.722945 -2.905937
H 0.366080 2.511302 -2.370030
H 1.758870 2.062709 -2.685074
O -3.710662 -0.246974 -2.574602
H -2.924531 -0.339237 -2.056243
H -4.187016 -1.047926 -2.411007
6
)Structure 96 | Energy: -152.054213 Hartree
O -1.143073 2.146458 -3.378314
H -1.224258 2.976730 -3.826371
H -0.209774 2.000067 -3.319121
O -1.951319 -1.728792 3.061944
H -1.657132 -0.970762 3.545736
H -1.691726 -1.545427 2.170771
6
)Structure 97 | Energy: -152.054244 Hartree
O -1.143073 2.146458 -3.378314
H -1.224258 2.976730 -3.826371
H -0.209774 2.000067 -3.319121
O -1.951319 -1.728792 3.061944
H -1.459807 -1.084726 3.550621
H -1.889048 -1.431465 2.165886
6
)Structure 98 | Energy: -152.054143 Hartree
O -1.968012 -1.714383 3.060908
H -2.049197 -0.884111 2.612851
H -1.034713 -1.860774 3.120101
O -1.126381 2.132049 -3.377278
H -0.634869 2.776115 -2.888601
H -1.064109 2.429377 -4.273336
6
)Structure 99 | Energy: -152.054244 Hartree
O -1.143073 2.146458 -3.378314
H -1.224258 2.976730 -3.826371
H -0.209774 2.000067 -3.319121
O -1.951319 -1.728792 3.061944
H -1.459807 -1.084726 3.550621
H -1.889048 -1.431465 2.165886
6
)Structure 100 | Energy: -152.054242 Hartree
O -1.143113 2.146524 -3.378284
H -0.711443 2.112533 -4.220427
H -0.721965 2.863213 -2.925545
O -1.951319 -1.728792 3.061944
H -1.459807 -1.084726 3.550621
H -1.889048 -1.431465 2.165886
6
)Structure 101 | Energy: -152.053889 Hartree
O -1.047968 2.226032 -3.416049
H -1.532892 2.185551 -2.603702
H -1.410660 1.528252 -3.942869
O -1.951319 -1.728792 3.061944
H -1.459807 -1.084726 3.550621
H -1.889048 -1.431465 2.165886
6
)Structure 102 | Energy: -152.054023 Hartree
O -2.521247 2.781345 -2.933053
H -3.006171 2.740863 -2.120706
H -2.883939 2.083565 -3.459873
O -1.951319 -1.728792 3.061944
H -1.459807 -1.084726 3.550621
H -1.889048 -1.431465 2.165886
6
)Structure 103 | Energy: -152.053871 Hartree
O -2.521247 2.781345 -2.933053
H -3.006171 2.740863 -2.120706
H -2.883939 2.083565 -3.459873
O -2.790292 -1.359615 2.198114
H -2.298780 -0.715549 2.686791
H -2.728021 -1.062288 1.302056
6
)Structure 104 | Energy: -152.053853 Hartree
O 2.073888 -1.968180 -2.191511
H 1.324335 -1.397978 -2.092827
H 1.702993 -2.809107 -2.417919
O -2.790292 -1.359615 2.198114
H -2.298780 -0.715549 2.686791
H -2.728021 -1.062288 1.302056
6
)Structure 105 | Energy: -152.053864 Hartree
O 2.073888 -1.968180 -2.191511
H 1.324335 -1.397978 -2.092827
H 1.702993 -2.809107 -2.417919
O -2.967259 -2.214868 2.716432
H -2.475747 -1.570802 3.205108
H -2.904987 -1.917541 1.820374
6
)Structure 106 | Energy: -152.053943 Hartree
O 2.073872 -1.968097 -2.191548
H 1.532635 -2.483956 -1.610471
H 1.494946 -1.724450 -2.899688
O -2.967259 -2.214868 2.716432
H -2.475747 -1.570802 3.205108
H -2.904987 -1.917541 1.820374
6
)Structure 107 | Energy: -152.053856 Hartree
O 2.073888 -1.968179 -2.191514
H 1.322795 -1.406312 -2.061651
H 1.704530 -2.800782 -2.449058
O -2.967259 -2.214868 2.716432
H -2.475747 -1.570802 3.205108
H -2.904987 -1.917541 1.820374
6
)Structure 108 | Energy: -152.053925 Hartree
O 2.073888 -1.968179 -2.191514
H 1.322795 -1.406312 -2.061651
H 1.704530 -2.800782 -2.449058
O -3.751204 -1.404843 2.788086
H -3.259692 -0.760777 3.276763
H -3.688933 -1.107515 1.892028
6
)Structure 109 | Energy: -152.054179 Hartree
O 1.946416 -1.985130 -2.202026
H 2.556340 -2.687575 -2.378834
H 2.494225 -1.250474 -1.965032
O -3.751204 -1.404843 2.788086
H -3.259692 -0.760777 3.276763
H -3.688933 -1.107515 1.892028
6
)Structure 110 | Energy: -152.054618 Hartree
O -2.520090 3.868472 1.732223
H -2.698284 3.983984 0.809400
H -1.623602 3.566328 1.763849
O -1.618925 -0.138977 4.292108
H -1.270232 -0.556486 3.517957
H -2.291792 0.436003 3.957670
6
)Structure 111 | Energy: -152.055439 Hartree
O -2.431042 2.713755 1.231627
H -2.609237 2.829266 0.308804
H -1.534555 2.411610 1.263253
O -1.618925 -0.138977 4.292108
H -1.270232 -0.556486 3.517957
H -2.291792 0.436003 3.957670
6
)Structure 112 | Energy: -152.054880 Hartree
O -1.677255 -0.119723 4.279945
H -1.855450 -0.004212 3.357122
H -0.780767 -0.421868 4.311571
O -2.372713 2.694501 1.243791
H -2.024020 2.276992 0.469640
H -3.045579 3.269481 0.909352
6
)Structure 113 | Energy: -152.054994 Hartree
O -1.456252 0.155366 4.454679
H -1.838937 0.204137 3.589882
H -0.655067 -0.333395 4.331410
O -2.372713 2.694501 1.243791
H -2.024020 2.276992 0.469640
H -3.045579 3.269481 0.909352
6
)Structure 114 | Energy: -152.055156 Hartree
O -2.414268 2.727931 1.237047
H -2.796952 2.776701 0.372251
H -1.613082 2.239169 1.113779
O -1.414697 0.121936 4.461422
H -1.066004 -0.295572 3.687271
H -2.087564 0.696917 4.126984
6
)Structure 115 | Energy: -152.054560 Hartree
O -1.370447 3.155889 1.474735
H -1.726672 3.426342 0.640075
H -0.841377 2.397770 1.271458
O -1.414697 0.121936 4.461422
H -1.066004 -0.295572 3.687271
H -2.087564 0.696917 4.126984
6
)Structure 116 | Energy: -152.054238 Hartree
O -1.398706 3.171984 1.386822
H -0.928982 2.447456 0.998084
H -1.190535 3.121202 2.308812
O -1.414697 0.121936 4.461422
H -1.066004 -0.295572 3.687271
H -2.087564 0.696917 4.126984
6
)Structure 117 | Energy: -152.055961 Hartree
O -0.225966 0.258437 -0.177751
H 0.243759 -0.466091 -0.566489
H -0.017794 0.207654 0.744240
O -3.815311 1.295767 0.088103
H -3.615450 1.048499 -0.803033
H -3.399106 0.625014 0.609702
6
)Structure 118 | Energy: -152.057486 Hartree
O -0.822028 0.699515 -2.081504
H -0.319502 -0.056205 -2.351787
H -0.199028 1.246681 -1.624926
O -3.815311 1.295767 0.088103
H -3.615450 1.048499 -0.803033
H -3.399106 0.625014 0.609702
6
)Structure 119 | Energy: -152.053241 Hartree
O -0.375175 0.069518 -0.062098
H 0.127351 -0.686202 -0.332381
H 0.247824 0.616684 0.394479
O 1.310218 -1.892962 -3.306264
H 1.581403 -1.852134 -2.400724
H 1.326170 -0.990503 -3.590015
6
)Structure 120 | Energy: -152.054111 Hartree
O -0.375175 0.069518 -0.062098
H 0.127351 -0.686202 -0.332381
H 0.247824 0.616684 0.394479
O 1.310218 -1.892962 -3.306263
H 1.061503 -0.993645 -3.463043
H 1.846061 -1.848978 -2.527714
6
)Structure 121 | Energy: -152.054993 Hartree
O -0.408423 0.418005 -1.031998
H 0.094103 -0.337715 -1.302281
H 0.214577 0.965170 -0.575420
O 1.310218 -1.892962 -3.306263
H 1.061503 -0.993645 -3.463043
H 1.846061 -1.848978 -2.527714
6
)Structure 122 | Energy: -152.053464 Hartree
O -0.408423 0.418005 -1.031998
H 0.094103 -0.337715 -1.302281
H 0.214577 0.965170 -0.575420
O 2.040805 -2.612692 -3.250280
H 1.792090 -1.713375 -3.407060
H 2.576648 -2.568708 -2.471731
6
)Structure 123 | Energy: -152.057168 Hartree
O 0.862520 -0.859008 -4.051812
H 0.517735 -0.505818 -3.243679
H 0.372502 -1.657153 -4.189029
O -0.095709 -0.314434 -0.207256
H -0.344424 0.584883 -0.364036
H 0.440134 -0.270450 0.571293
6
)Structure 124 | Energy: -152.056538 Hartree
O 3.560663 -1.447695 -1.767731
H 2.842898 -1.251377 -1.182094
H 3.234295 -2.147355 -2.315400
O -0.095709 -0.314434 -0.207256
H -0.344424 0.584883 -0.364036
H 0.440134 -0.270450 0.571293
6
)Structure 125 | Energy: -152.056409 Hartree
O 3.560663 -1.447695 -1.767731
H 2.842898 -1.251377 -1.182094
H 3.234295 -2.147355 -2.315400
O 0.312277 0.746720 -0.497978
H 0.212487 1.596497 -0.901872
H 0.912871 0.902796 0.216255
6
)Structure 126 | Energy: -152.056407 Hartree
O 0.348044 0.167780 -0.012656
H -0.369721 0.364099 0.572981
H 0.021677 -0.531879 -0.560325
O -1.271325 -1.378781 -3.472022
H -1.251570 -0.803535 -4.222963
H -0.421602 -1.794821 -3.481026
6
)Structure 127 | Energy: -152.057421 Hartree
O 0.552378 0.487330 -0.616604
H -0.165388 0.683648 -0.030968
H 0.226010 -0.212330 -1.164273
O -1.271325 -1.378781 -3.472022
H -1.251570 -0.803535 -4.222963
H -0.421602 -1.794821 -3.481026
6
)Structure 128 | Energy: -152.052485 Hartree
O 0.429477 0.456709 -0.607589
H 0.921723 0.689087 -1.382440
H 1.089583 0.268242 0.044117
O -1.271325 -1.378781 -3.472022
H -1.251570 -0.803535 -4.222963
H -0.421602 -1.794821 -3.481026
6
)Structure 129 | Energy: -152.053323 Hartree
O -2.474394 -2.643787 -1.332665
H -1.598166 -2.998275 -1.275560
H -3.025427 -3.313236 -0.952952
O -0.289827 -0.053068 0.253315
H -0.270071 0.522177 -0.497626
H 0.559897 -0.469109 0.244311
6
)Structure 130 | Energy: -152.054192 Hartree
O -2.474394 -2.643787 -1.332665
H -1.598166 -2.998275 -1.275560
H -3.025427 -3.313236 -0.952952
O -0.453971 -1.915225 1.776748
H -0.374234 -2.807935 2.079934
H -1.112189 -1.539869 2.343368
6
)Structure 131 | Energy: -152.055053 Hartree
O 2.832127 -0.749289 0.419948
H 2.285073 -1.285755 -0.136500
H 2.549152 0.137057 0.245888
O -0.453971 -1.915225 1.776748
H -0.374234 -2.807935 2.079934
H -1.112189 -1.539869 2.343368
6
)Structure 132 | Energy: -152.053261 Hartree
O 2.832127 -0.749289 0.419948
H 2.285073 -1.285755 -0.136500
H 2.549152 0.137057 0.245888
O 0.828241 -0.230064 3.505264
H 0.190640 -0.921526 3.608001
H 1.042697 0.016185 4.393280
6
)Structure 133 | Energy: -152.053342 Hartree
O -1.434928 1.037862 -3.642550
H -2.022249 0.329837 -3.867170
H -0.590203 0.754738 -3.962337
O 0.141049 0.148404 -0.330251
H -0.496553 -0.543058 -0.227514
H 0.355504 0.394653 0.557765
6
)Structure 134 | Energy: -152.054297 Hartree
O -1.434928 1.037862 -3.642550
H -2.022249 0.329837 -3.867170
H -0.590203 0.754738 -3.962337
O 1.104511 -0.647443 -0.734763
H 0.466909 -1.338905 -0.632026
H 1.318966 -0.401194 0.153253
6
)Structure 135 | Energy: -152.055528 Hartree
O -0.928284 0.863705 -2.714223
H -1.515605 0.155680 -2.938843
H -0.083560 0.580582 -3.034010
O 1.104511 -0.647443 -0.734763
H 0.466909 -1.338905 -0.632026
H 1.318966 -0.401194 0.153253
6
)Structure 136 | Energy: -152.057653 Hartree
O -0.928284 0.863705 -2.714223
H -1.515605 0.155680 -2.938843
H -0.083560 0.580582 -3.034010
O 2.097214 0.420334 -1.736938
H 1.840085 -0.409090 -1.361237
H 2.534413 0.866767 -1.026477
6
)Structure 137 | Energy: -152.059373 Hartree
O -0.928284 0.863705 -2.714223
H -1.515605 0.155680 -2.938843
H -0.083560 0.580582 -3.034010
O 2.102575 0.390694 -1.740698
H 1.519478 0.069847 -1.068192
H 2.769924 0.858274 -1.259849
6
)Structure 138 | Energy: -152.059852 Hartree
O 2.092887 0.454362 -1.645702
H 1.505566 -0.253662 -1.870322
H 2.937611 0.171239 -1.965489
O -0.918596 0.800036 -2.809219
H -1.501693 0.479189 -2.136713
H -0.251247 1.267616 -2.328370
6
)Structure 139 | Energy: -152.059234 Hartree
O 2.092887 0.454362 -1.645702
H 1.505566 -0.253662 -1.870322
H 2.937611 0.171239 -1.965489
O -0.732414 0.064663 -3.233427
H -1.329847 -0.336270 -2.618987
H -0.255964 0.693420 -2.711065
6
)Structure 140 | Energy: -152.057625 Hartree
O 2.092887 0.454362 -1.645702
H 1.505566 -0.253662 -1.870322
H 2.937611 0.171239 -1.965489
O -0.605113 -0.334571 -2.903930
H -1.202546 -0.735505 -2.289491
H -0.128663 0.294185 -2.381569
6
)Structure 141 | Energy: -152.060999 Hartree
O -0.551468 -2.910965 0.046064
H 0.013193 -2.229510 -0.290797
H -0.609635 -3.539789 -0.659045
O 0.040328 -0.075941 -0.378934
H -0.557105 -0.476875 0.235506
H 0.516778 0.552816 0.143428
6
)Structure 142 | Energy: -152.061710 Hartree
O 0.398381 -2.790792 -1.320200
H 0.493743 -1.856408 -1.440741
H 0.070653 -3.104091 -2.151115
O 0.040328 -0.075941 -0.378934
H -0.557105 -0.476875 0.235506
H 0.516778 0.552816 0.143428
6
)Structure 143 | Energy: -152.056375 Hartree
O 0.398381 -2.790792 -1.320200
H 0.493743 -1.856408 -1.440741
H 0.070653 -3.104091 -2.151115
O 2.171031 -0.918386 -2.687021
H 2.360345 -0.615977 -1.810711
H 3.016780 -0.932986 -3.110928
6
)Structure 144 | Energy: -152.057448 Hartree
O 2.241948 -0.937034 -2.608470
H 2.337311 -0.002649 -2.729011
H 1.914220 -1.250333 -3.439385
O 0.327464 -2.772144 -1.398751
H 0.516778 -2.469735 -0.522441
H 1.173213 -2.786744 -1.822657
6
)Structure 145 | Energy: -152.054844 Hartree
O 1.083405 -3.779203 -0.866327
H 1.245205 -4.596437 -0.416163
H 1.196893 -3.987594 -1.782665
O -2.592252 -2.131802 2.757504
H -2.089118 -1.788367 2.033544
H -1.936622 -2.387037 3.390122
6
)Structure 146 | Energy: -152.056776 Hartree
O 1.083405 -3.779203 -0.866327
H 1.245205 -4.596437 -0.416163
H 1.196893 -3.987594 -1.782665
O -1.584967 -2.556771 1.737544
H -1.081833 -2.213336 1.013584
H -0.929337 -2.812006 2.370162
6
)Structure 147 | Energy: -152.057085 Hartree
O -1.535533 -2.494449 1.758517
H -1.373733 -3.311682 2.208682
H -1.422045 -2.702840 0.842180
O 1.033971 -3.841525 -0.887300
H 1.537105 -3.498091 -1.611261
H 1.689601 -4.096761 -0.254683
6
)Structure 148 | Energy: -152.056187 Hartree
O -2.035370 -2.880352 1.637710
H -1.873570 -3.697586 2.087874
H -1.921882 -3.088743 0.721372
O 1.033971 -3.841525 -0.887300
H 1.537105 -3.498091 -1.611261
H 1.689601 -4.096761 -0.254683
6
)Structure 149 | Energy: -152.055454 Hartree
O -2.035370 -2.880352 1.637710
H -1.873570 -3.697586 2.087874
H -1.921882 -3.088743 0.721372
O 1.058924 -3.794963 -0.861903
H 0.878275 -4.319666 -1.628234
H 1.952374 -4.014218 -0.640824
6
)Structure 150 | Energy: -152.055215 Hartree
O -2.334193 -1.797881 1.067384
H -2.172392 -2.615115 1.517549
H -2.220704 -2.006272 0.151047
O 1.058924 -3.794963 -0.861903
H 0.878275 -4.319666 -1.628234
H 1.952374 -4.014218 -0.640824
6
)Structure 151 | Energy: -152.055886 Hartree
O 1.083405 -3.779203 -0.866327
H 1.245205 -4.596437 -0.416163
H 1.196893 -3.987594 -1.782665
O -2.358673 -1.813641 1.071809
H -2.539323 -2.338344 0.305478
H -1.465223 -2.032896 1.292888
6
)Structure 152 | Energy: -152.055791 Hartree
O 1.379932 -3.237986 -0.781621
H 1.537131 -4.123280 -0.484565
H 1.606785 -3.253183 -1.700473
O -2.358673 -1.813641 1.071809
H -2.539323 -2.338344 0.305478
H -1.465223 -2.032896 1.292888
6
)Structure 153 | Energy: -152.055302 Hartree
O 1.379932 -3.237986 -0.781621
H 1.537131 -4.123280 -0.484565
H 1.606785 -3.253183 -1.700473
O -2.335761 -1.885302 1.096656
H -2.345478 -0.957761 0.910149
H -2.022722 -2.276082 0.293849
6
)Structure 154 | Energy: -152.054942 Hartree
O 1.379932 -3.237986 -0.781621
H 1.537131 -4.123280 -0.484565
H 1.606785 -3.253183 -1.700473
O -2.333804 -1.799281 1.071205
H -2.014651 -1.921457 0.188921
H -2.384612 -2.677708 1.419035
6
)Structure 155 | Energy: -152.054905 Hartree
O 1.396490 -3.326209 -0.675826
H 1.539578 -4.203923 -0.350491
H 1.638927 -3.370421 -1.589747
O -2.333804 -1.799281 1.071205
H -2.014651 -1.921457 0.188921
H -2.384612 -2.677708 1.419035
6
)Structure 156 | Energy: -152.054905 Hartree
O -0.128508 0.307308 0.196195
H 0.014580 -0.570405 0.521531
H 0.113929 0.263096 -0.717726
O -3.746009 2.775913 0.540956
H -3.518021 1.892633 0.792048
H -3.692858 2.765400 -0.403642
6
)Structure 157 | Energy: -152.054708 Hartree
O -3.751850 2.777487 0.535085
H -3.608762 1.899774 0.860421
H -3.509413 2.733275 -0.378836
O -0.122668 0.305734 0.202066
H 0.105321 -0.577546 0.453158
H -0.069517 0.295221 -0.742532
6
)Structure 158 | Energy: -152.053150 Hartree
O -3.511146 -3.073670 0.271683
H -3.109588 -2.695933 -0.498229
H -2.781543 -3.358916 0.802998
O -0.093713 0.297931 0.231168
H 0.134275 -0.585349 0.482261
H -0.040562 0.287417 -0.713430
6
)Structure 159 | Energy: -152.053552 Hartree
O -3.511146 -3.073670 0.271683
H -3.109588 -2.695933 -0.498229
H -2.781543 -3.358916 0.802998
O 0.041989 0.210704 -1.202997
H 0.269977 -0.672577 -0.951905
H 0.095140 0.200190 -2.147595
6
)Structure 160 | Energy: -152.054704 Hartree
O -3.837601 -2.380002 2.176389
H -3.563990 -1.595498 1.722090
H -3.145903 -2.544741 2.801205
O -0.093713 0.297931 0.231168
H 0.134275 -0.585349 0.482261
H -0.040562 0.287417 -0.713430
6
)Structure 161 | Energy: -152.052965 Hartree
O 1.232567 -1.808636 -4.169985
H 1.455233 -1.211533 -3.469567
H 0.300879 -1.693705 -4.291350
O -0.093713 0.297931 0.231168
H 0.134275 -0.585349 0.482261
H -0.040562 0.287417 -0.713430
6
)Structure 162 | Energy: -152.055445 Hartree
O -0.776362 4.578138 0.785544
H -0.157771 3.916519 0.509313
H -1.591985 4.324077 0.377876
O -0.093713 0.297931 0.231168
H 0.134275 -0.585349 0.482261
H -0.040562 0.287417 -0.713430
6
)Structure 163 | Energy: -152.054600 Hartree
O -0.776362 4.578138 0.785544
H -0.157771 3.916519 0.509313
H -1.591985 4.324077 0.377876
O -0.070636 0.246037 0.127582
H -0.528157 0.893730 0.643701
H 0.255590 -0.367992 0.769257
6
)Structure 164 | Energy: -152.054781 Hartree
O 3.629946 -2.401647 0.487624
H 3.262997 -1.656458 0.032937
H 3.004571 -3.097552 0.344087
O 0.043765 -0.011221 -0.385931
H -0.413756 0.636471 0.130187
H 0.369991 -0.625250 0.255744
6
)Structure 165 | Energy: -152.055571 Hartree
O 0.330775 -0.016428 0.199408
H -0.036174 0.728761 -0.255279
H -0.294601 -0.712333 0.055871
O 3.240847 -2.481631 0.162553
H 3.602296 -3.127765 -0.426579
H 2.848848 -1.841642 -0.413599
6
)Structure 166 | Energy: -152.057220 Hartree
O 2.149451 -1.310064 -2.888103
H 2.537422 -2.127778 -3.166531
H 2.882276 -0.789801 -2.590991
O 0.010184 0.002048 0.388428
H 0.371632 -0.644086 -0.200704
H -0.381816 0.642038 -0.187724
6
)Structure 167 | Energy: -152.056099 Hartree
O 0.714815 -3.682136 0.780039
H 1.118177 -4.194106 1.466977
H -0.211826 -3.852295 0.871488
O 0.010184 0.002048 0.388428
H 0.371632 -0.644086 -0.200704
H -0.381816 0.642038 -0.187724
6
)Structure 168 | Energy: -152.056727 Hartree
O 0.037754 0.039872 0.279673
H 0.441115 -0.472098 0.966611
H -0.888888 -0.130287 0.371122
O 0.687245 -3.719960 0.888794
H 1.048694 -4.366093 0.299662
H 0.295246 -3.079970 0.312642
6
)Structure 169 | Energy: -152.056099 Hartree
O 0.714815 -3.682136 0.780039
H 1.118177 -4.194106 1.466977
H -0.211826 -3.852295 0.871488
O 0.010184 0.002048 0.388428
H 0.371632 -0.644086 -0.200704
H -0.381816 0.642038 -0.187724
6
)Structure 170 | Energy: -152.056087 Hartree
O 0.714815 -3.682136 0.780039
H 1.118177 -4.194106 1.466977
H -0.211826 -3.852295 0.871488
O 0.019517 0.000696 0.363211
H 0.378480 -0.650511 -0.221839
H -0.371528 0.637677 -0.216910
6
)Structure 171 | Energy: -152.057734 Hartree
O 0.714815 -3.682136 0.780039
H 1.118177 -4.194106 1.466977
H -0.211826 -3.852295 0.871488
O -0.035878 0.003586 0.334999
H 0.418342 -0.773269 0.042782
H 0.467847 0.714569 -0.033736
6
)Structure 172 | Energy: -152.058550 Hartree
O 0.714815 -3.682136 0.780039
H 1.118177 -4.194106 1.466977
H -0.211826 -3.852295 0.871488
O -0.870430 -0.514958 0.665577
H -0.416209 -1.291812 0.373360
H -0.366704 0.196025 0.296842
6
)Structure 173 | Energy: -152.058447 Hartree
O 0.174427 0.227376 -0.259463
H 0.577788 -0.284594 0.427476
H -0.752215 0.057218 -0.168013
O 2.212936 2.308744 1.850904
H 1.910398 1.837851 1.088053
H 2.425358 3.168785 1.518629
6
)Structure 174 | Energy: -152.057018 Hartree
O 0.174427 0.227376 -0.259463
H 0.577788 -0.284594 0.427476
H -0.752215 0.057218 -0.168013
O 2.413927 2.000649 2.170146
H 2.111389 1.529756 1.407295
H 2.626349 2.860690 1.837871
6
)Structure 175 | Energy: -152.057018 Hartree
O -0.132004 -2.574312 -2.474068
H -0.486806 -2.841284 -1.637683
H 0.497722 -3.247406 -2.689405
O 0.030038 -0.129716 0.365042
H -0.272500 -0.600609 -0.397809
H 0.242461 0.730325 0.032767
6
)Structure 176 | Energy: -152.054208 Hartree
O -4.124082 -2.263666 0.901371
H -3.839051 -2.948362 0.312603
H -4.529091 -1.620363 0.337359
O 2.598311 1.000530 1.843325
H 2.174316 0.196411 2.105680
H 3.385883 1.024494 2.367116
6
)Structure 177 | Energy: -152.053979 Hartree
O -4.124082 -2.263666 0.901371
H -3.839051 -2.948362 0.312603
H -4.529091 -1.620363 0.337359
O 2.641778 0.915206 1.931844
H 3.027761 1.727469 1.637810
H 1.842529 0.847693 1.430003
6
)Structure 178 | Energy: -152.053824 Hartree
O -4.124082 -2.263666 0.901371
H -3.839051 -2.948362 0.312603
H -4.529091 -1.620363 0.337359
O 1.167275 0.963610 -3.485961
H 1.390231 0.881786 -4.401825
H 0.549148 0.262688 -3.338217
6
)Structure 179 | Energy: -152.053837 Hartree
O -4.124082 -2.263666 0.901371
H -3.839051 -2.948362 0.312603
H -4.529091 -1.620363 0.337359
O 1.810082 -1.139751 -3.406160
H 2.033038 -1.221575 -4.322023
H 1.191954 -1.840673 -3.258415
6
)Structure 180 | Energy: -152.054227 Hartree
O -4.111848 -2.278905 0.776165
H -4.647168 -1.557517 1.075714
H -3.915149 -2.769333 1.561514
O 1.810082 -1.139751 -3.406160
H 2.033038 -1.221575 -4.322023
H 1.191954 -1.840673 -3.258415
6
)Structure 181 | Energy: -152.054316 Hartree
O -4.111848 -2.278905 0.776165
H -4.647168 -1.557517 1.075714
H -3.915149 -2.769333 1.561514
O 1.952165 -1.051961 -2.267783
H 2.175120 -1.133784 -3.183646
H 1.334037 -1.752882 -2.120038
6
)Structure 182 | Energy: -152.055021 Hartree
O -4.111848 -2.278905 0.776165
H -4.647168 -1.557517 1.075714
H -3.915149 -2.769333 1.561514
O -0.308403 -0.518873 -2.040189
H -0.085447 -0.600696 -2.956052
H -0.926531 -1.219794 -1.892444
6
)Structure 183 | Energy: -152.053914 Hartree
O -4.111848 -2.278905 0.776165
H -4.647168 -1.557517 1.075714
H -3.915149 -2.769333 1.561514
O -0.343941 -0.612645 -2.122873
H 0.196584 0.143472 -2.299875
H -0.644494 -0.475612 -1.236255
6
)Structure 184 | Energy: -152.054384 Hartree
O -4.205159 -0.913756 1.392041
H -4.740479 -0.192367 1.691590
H -4.008460 -1.404183 2.177390
O -0.343941 -0.612645 -2.122873
H 0.196584 0.143472 -2.299875
H -0.644494 -0.475612 -1.236255
6
)Structure 185 | Energy: -152.054879 Hartree
O -3.068595 -0.931008 2.200635
H -3.603915 -0.209619 2.500183
H -2.871896 -1.421435 2.985983
O -0.343941 -0.612645 -2.122873
H 0.196584 0.143472 -2.299875
H -0.644494 -0.475612 -1.236255
6
)Structure 186 | Energy: -152.054516 Hartree
O -3.068595 -0.931008 2.200635
H -3.603915 -0.209619 2.500183
H -2.871896 -1.421435 2.985983
O 0.490728 -1.258348 -2.567641
H 1.031254 -0.502232 -2.744643
H 0.190176 -1.121316 -1.681023
6
)Structure 187 | Energy: -152.054418 Hartree
O -3.068582 -0.930922 2.200620
H -3.769267 -1.340482 2.688473
H -2.706746 -0.291949 2.797922
O 0.490728 -1.258348 -2.567641
H 1.031254 -0.502232 -2.744643
H 0.190176 -1.121316 -1.681023
6
)Structure 188 | Energy: -152.054217 Hartree
O 0.523115 -1.221210 -2.588653
H -0.177569 -1.630770 -2.100801
H 0.884952 -0.582237 -1.991351
O -3.100969 -0.968060 2.221633
H -2.560444 -0.211943 2.044631
H -3.401522 -0.831028 3.108251
6
)Structure 189 | Energy: -152.054418 Hartree
O -3.068582 -0.930922 2.200620
H -3.769267 -1.340482 2.688473
H -2.706746 -0.291949 2.797922
O 0.490728 -1.258348 -2.567641
H 1.031254 -0.502232 -2.744643
H 0.190176 -1.121316 -1.681023
6
)Structure 190 | Energy: -152.054527 Hartree
O -0.239612 -1.919691 3.315138
H -0.616928 -2.444759 4.006973
H 0.389082 -1.365474 3.755102
O 0.490728 -1.258348 -2.567641
H 1.031254 -0.502232 -2.744643
H 0.190176 -1.121316 -1.681023
6
)Structure 191 | Energy: -152.054323 Hartree
O 0.490090 -1.210005 -2.591263
H 0.112775 -1.735072 -1.899429
H 1.118784 -0.655787 -2.151300
O -0.238974 -1.968035 3.338761
H 0.301552 -1.211918 3.161759
H -0.539527 -1.831003 4.225379
6
)Structure 192 | Energy: -152.053251 Hartree
O 0.490090 -1.210005 -2.591263
H 0.112775 -1.735072 -1.899429
H 1.118784 -0.655787 -2.151300
O -0.251941 -1.918914 3.438106
H -0.346881 -2.560760 2.749462
H 0.314718 -1.261807 3.060867
6
)Structure 193 | Energy: -152.053377 Hartree
O 0.490090 -1.210005 -2.591263
H 0.112775 -1.735072 -1.899429
H 1.118784 -0.655787 -2.151300
O -1.929865 -2.023346 3.204908
H -2.024805 -2.665192 2.516265
H -1.363206 -1.366239 2.827670
6
)Structure 194 | Energy: -152.053646 Hartree
O 0.490090 -1.210005 -2.591263
H 0.112775 -1.735072 -1.899429
H 1.118784 -0.655787 -2.151300
O -2.705810 -1.639949 3.907360
H -2.800750 -2.281795 3.218717
H -2.139151 -0.982842 3.530122
6
)Structure 195 | Energy: -152.054117 Hartree
O 0.543151 -1.176786 -2.486795
H 0.472232 -1.060625 -3.423906
H -0.082861 -1.857480 -2.284939
O -2.705810 -1.639949 3.907360
H -2.800750 -2.281795 3.218717
H -2.139151 -0.982842 3.530122
6
)Structure 196 | Energy: -152.053982 Hartree
O 3.247670 -0.803391 2.014688
H 3.212392 -1.580566 2.554553
H 3.278747 -0.087313 2.632951
O -2.546216 1.278743 4.174161
H -1.929463 1.894172 3.805279
H -2.112014 0.442362 4.089688
6
)Structure 197 | Energy: -152.053610 Hartree
O 3.275409 -0.830032 2.025739
H 2.727569 -1.295458 2.642138
H 3.323300 0.050418 2.369972
O -2.546216 1.278743 4.174161
H -1.929463 1.894172 3.805279
H -2.112014 0.442362 4.089688
6
)Structure 198 | Energy: -152.053658 Hartree
O 3.259664 -0.855105 2.037909
H 2.734592 -0.886432 2.825320
H 3.566184 0.039359 1.993625
O -2.546216 1.278743 4.174161
H -1.929463 1.894172 3.805279
H -2.112014 0.442362 4.089688
6
)Structure 199 | Energy: -152.053474 Hartree
O 2.692382 -0.926936 1.423994
H 2.167310 -0.958263 2.211405
H 2.998902 -0.032472 1.379709
O -2.546216 1.278743 4.174161
H -1.929463 1.894172 3.805279
H -2.112014 0.442362 4.089688
6
)Structure 200 | Energy: -152.053953 Hartree
O -0.087581 -1.563827 -0.880736
H -0.429781 -0.744638 -0.551303
H -0.823632 -2.158036 -0.847174
O -2.546216 1.278743 4.174161
H -1.929463 1.894172 3.805279
H -2.112014 0.442362 4.089688
6
)Structure 201 | Energy: -152.053940 Hartree
O -0.087581 -1.563827 -0.880736
H -0.429781 -0.744638 -0.551303
H -0.823632 -2.158036 -0.847174
O -2.543758 1.290168 4.171452
H -1.827450 1.765354 3.776092
H -2.253030 0.389843 4.161858
6
)Structure 202 | Energy: -152.053466 Hartree
O -0.142181 -1.539576 -0.924003
H 0.003231 -0.936961 -0.208175
H -0.390025 -2.350623 -0.503576
O -2.543758 1.290168 4.171452
H -1.827450 1.765354 3.776092
H -2.253030 0.389843 4.161858
6
)Structure 203 | Energy: -152.053489 Hartree
O -0.142181 -1.539576 -0.924003
H 0.003231 -0.936961 -0.208175
H -0.390025 -2.350623 -0.503576
O -2.543758 1.290169 4.171452
H -1.913575 0.751014 4.626853
H -2.166905 1.404167 3.311110
6
)Structure 204 | Energy: -152.054409 Hartree
O -0.197659 -1.546124 -0.819072
H 0.443201 -0.885033 -1.040333
H 0.050548 -2.298623 -1.336875
O -2.543758 1.290169 4.171452
H -1.913575 0.751014 4.626853
H -2.166905 1.404167 3.311110
6
)Structure 205 | Energy: -152.054541 Hartree
O -0.197659 -1.546124 -0.819072
H 0.443201 -0.885033 -1.040333
H 0.050548 -2.298623 -1.336875
O -3.574289 1.779158 3.015632
H -2.944106 1.240003 3.471033
H -3.197436 1.893156 2.155291
6
)Structure 206 | Energy: -152.054367 Hartree
O -0.643892 -2.171962 -0.597458
H -0.003032 -1.510871 -0.818718
H -0.395685 -2.924461 -1.115260
O -3.574289 1.779158 3.015632
H -2.944106 1.240003 3.471033
H -3.197436 1.893156 2.155291
6
)Structure 207 | Energy: -152.054410 Hartree
O -0.643908 -2.171943 -0.597480
H 0.205739 -1.758280 -0.536803
H -0.604202 -2.677354 -1.396832
O -3.574289 1.779158 3.015632
H -2.944106 1.240003 3.471033
H -3.197436 1.893156 2.155291
6
)Structure 208 | Energy: -152.054564 Hartree
O -0.645143 -2.142994 -0.617633
H -0.563449 -3.084057 -0.684149
H 0.184595 -1.811058 -0.929618
O -3.574289 1.779158 3.015632
H -2.944106 1.240003 3.471033
H -3.197436 1.893156 2.155291
6
)Structure 209 | Energy: -152.054631 Hartree
O -3.568939 1.789452 3.014153
H -3.487245 0.848389 2.947637
H -2.739202 2.121388 2.702167
O -0.650493 -2.153288 -0.616153
H -0.020309 -2.692443 -0.160752
H -0.273640 -2.039289 -1.476495
6
)Structure 210 | Energy: -152.054564 Hartree
O -0.645143 -2.142994 -0.617633
H -0.563449 -3.084057 -0.684149
H 0.184595 -1.811058 -0.929618
O -3.574289 1.779158 3.015632
H -2.944106 1.240003 3.471033
H -3.197436 1.893156 2.155291
6
)Structure 211 | Energy: -152.054631 Hartree
O -3.568939 1.789452 3.014153
H -3.487245 0.848389 2.947637
H -2.739202 2.121388 2.702167
O -0.650493 -2.153288 -0.616153
H -0.020309 -2.692443 -0.160752
H -0.273640 -2.039289 -1.476495
6
)Structure 212 | Energy: -152.052253 Hartree
O -3.553470 -2.802156 -0.214116
H -3.955111 -1.953110 -0.334550
H -2.705456 -2.611468 0.160706
O -0.849324 -0.000719 0.807102
H -1.573318 -0.608247 0.851284
H -1.127640 0.639692 0.168654
6
)Structure 213 | Energy: -152.052285 Hartree
O -3.553470 -2.802156 -0.214116
H -3.955111 -1.953110 -0.334550
H -2.705456 -2.611468 0.160706
O -0.892921 0.064872 0.768002
H -1.663503 -0.406377 0.486332
H -0.345492 -0.603235 1.154208
6
)Structure 214 | Energy: -152.052445 Hartree
O -3.553470 -2.802156 -0.214116
H -3.955111 -1.953110 -0.334550
H -2.705456 -2.611468 0.160706
O -1.156057 0.031406 1.183041
H -1.926639 -0.439843 0.901371
H -0.608628 -0.636701 1.569248
6
)Structure 215 | Energy: -152.058338 Hartree
O -1.283677 2.852756 -1.918872
H -1.977744 2.208788 -1.902323
H -0.556308 2.427473 -1.487536
O 0.074384 0.379785 -0.034846
H -0.696198 -0.091464 -0.316515
H 0.621813 -0.288322 0.351361
6
)Structure 216 | Energy: -152.059611 Hartree
O -0.168441 2.600061 -2.587770
H -0.048536 1.779659 -3.045222
H -0.072027 2.376895 -1.672957
O 0.074384 0.379785 -0.034846
H -0.696198 -0.091464 -0.316515
H 0.621813 -0.288322 0.351361
6
)Structure 217 | Energy: -152.049995 Hartree
O -0.072107 0.347856 -0.152454
H 0.047799 -0.472546 -0.609905
H 0.024308 0.124690 0.762359
O -0.822677 2.920516 0.301914
H -1.656449 2.754141 -0.113243
H -0.594424 3.792368 0.013859
6
)Structure 218 | Energy: -152.050835 Hartree
O 2.795152 -0.958473 -0.328279
H 3.628508 -1.002386 -0.775815
H 2.984564 -1.247538 0.552939
O 0.201839 -0.235159 0.234404
H -0.631932 -0.401534 -0.180753
H 0.430093 0.636693 -0.053651
6
)Structure 219 | Energy: -152.049831 Hartree
O 2.795152 -0.958473 -0.328279
H 3.628508 -1.002386 -0.775815
H 2.984564 -1.247538 0.552939
O 0.875101 -2.655111 -1.371909
H 0.735211 -3.065220 -2.213010
H 0.301837 -1.902553 -1.386961
6
)Structure 220 | Energy: -152.054919 Hartree
O 2.795152 -0.958473 -0.328279
H 3.628508 -1.002386 -0.775815
H 2.984564 -1.247538 0.552939
O 1.105704 -3.436676 -1.259335
H 0.965814 -3.846785 -2.100437
H 0.532440 -2.684118 -1.274387
6
)Structure 221 | Energy: -152.055404 Hartree
O 2.795152 -0.958473 -0.328279
H 3.628508 -1.002386 -0.775815
H 2.984564 -1.247538 0.552939
O 1.150607 -3.808768 -1.527464
H 1.010717 -4.218878 -2.368565
H 0.577343 -3.056211 -1.542515
6
)Structure 222 | Energy: -152.056149 Hartree
O 2.885537 -0.925177 -0.324384
H 2.953850 -1.366168 0.510815
H 2.224630 -1.412240 -0.795503
O 1.150607 -3.808768 -1.527464
H 1.010717 -4.218878 -2.368565
H 0.577343 -3.056211 -1.542515
6
)Structure 223 | Energy: -152.053015 Hartree
O -3.113271 1.035149 1.735710
H -2.669700 1.723723 2.210904
H -2.495284 0.772347 1.068620
O 0.237718 -0.114150 0.285384
H 0.097828 -0.524259 -0.555717
H -0.335546 0.638408 0.270333
6
)Structure 224 | Energy: -152.052930 Hartree
O 0.250162 3.673126 -0.471426
H -0.141689 3.850721 0.372145
H 0.087746 2.752247 -0.618343
O 0.237718 -0.114150 0.285384
H 0.097828 -0.524259 -0.555717
H -0.335546 0.638408 0.270333
6
)Structure 225 | Energy: -152.055146 Hartree
O 0.250162 3.673126 -0.471426
H -0.141689 3.850721 0.372145
H 0.087746 2.752247 -0.618343
O -0.445333 0.591729 -2.637853
H -0.256425 0.883107 -3.517979
H -0.879281 1.332687 -2.240523
6
)Structure 226 | Energy: -152.056680 Hartree
O -0.428031 0.691081 -2.703847
H -0.819882 0.868676 -1.860276
H -0.590447 -0.229798 -2.850764
O 0.232860 3.573774 -0.405432
H 0.421768 3.865153 -1.285558
H -0.201088 4.314732 -0.008102
6
)Structure 227 | Energy: -152.060507 Hartree
O -0.428031 0.691081 -2.703847
H -0.819882 0.868676 -1.860276
H -0.590447 -0.229798 -2.850764
O -0.558042 2.923705 -0.803657
H -0.369134 3.215083 -1.683784
H -0.991989 3.664663 -0.406327
6
)Structure 228 | Energy: -152.059485 Hartree
O -0.428031 0.691081 -2.703847
H -0.819882 0.868676 -1.860276
H -0.590447 -0.229798 -2.850764
O -0.397062 2.943779 -0.346844
H -0.208154 3.235158 -1.226971
H -0.831010 3.684737 0.050486
6
)Structure 229 | Energy: -152.059485 Hartree
O 0.184756 0.247761 -0.232218
H -0.207095 0.425356 0.611353
H 0.022340 -0.673118 -0.379135
O -0.787667 2.760524 1.603944
H -0.084823 2.918698 0.990592
H -0.593544 3.338696 2.327293
6
)Structure 230 | Energy: -152.058414 Hartree
O 0.184756 0.247761 -0.232218
H -0.207095 0.425356 0.611353
H 0.022340 -0.673118 -0.379135
O -0.679641 2.787381 1.636618
H -0.942113 2.705563 0.731287
H -1.450849 3.125557 2.067984
6
)Structure 231 | Energy: -152.056553 Hartree
O -1.381309 1.915498 -2.387977
H -0.555791 1.836571 -1.930823
H -1.395358 2.809797 -2.697836
O 0.344560 -0.085453 0.157989
H 0.082088 -0.167270 -0.747343
H -0.426648 0.252723 0.589354
6
)Structure 232 | Energy: -152.051529 Hartree
O -1.381309 1.915498 -2.387977
H -0.555791 1.836571 -1.930823
H -1.395358 2.809797 -2.697836
O 0.833165 1.128733 0.276113
H 0.570694 1.046916 -0.629218
H 0.061957 1.466909 0.707479
6
)Structure 233 | Energy: -152.051906 Hartree
O -1.305949 2.006823 -2.414734
H -2.228929 1.942416 -2.213095
H -0.918334 1.254440 -1.990875
O 0.833165 1.128733 0.276113
H 0.570694 1.046916 -0.629218
H 0.061957 1.466909 0.707479
6
)Structure 234 | Energy: -152.053144 Hartree
O -1.305949 2.006823 -2.414734
H -2.228929 1.942416 -2.213095
H -0.918334 1.254440 -1.990875
O 1.678453 0.812464 0.484764
H 1.415982 0.730646 -0.420568
H 0.907245 1.150640 0.916129
6
)Structure 235 | Energy: -152.053573 Hartree
O -1.305949 2.006823 -2.414734
H -2.228929 1.942416 -2.213095
H -0.918334 1.254440 -1.990875
O 1.678453 0.812463 0.484764
H 1.498723 1.113019 -0.394198
H 0.824506 0.768273 0.889760
6
)Structure 236 | Energy: -152.053430 Hartree
O -1.305949 2.006823 -2.414734
H -2.228929 1.942416 -2.213095
H -0.918334 1.254440 -1.990875
O 1.678748 0.816869 0.486102
H 1.496380 1.078057 -0.404815
H 0.822163 0.733311 0.879142
6
)Structure 237 | Energy: -152.054638 Hartree
O 0.178455 0.272263 -0.208499
H -0.744525 0.207856 -0.006860
H 0.566070 -0.480120 0.215359
O 2.782399 -2.485777 -2.043412
H 1.904264 -2.464297 -1.691803
H 3.122596 -1.622117 -1.860223
6
)Structure 238 | Energy: -152.055171 Hartree
O 2.782255 -2.390549 -2.048487
H 1.859275 -2.454955 -1.846848
H 3.169869 -3.142932 -1.624628
O 0.178599 0.177035 -0.203424
H -0.699536 0.198515 0.148184
H 0.518797 1.040694 -0.020236
6
)Structure 239 | Energy: -152.054638 Hartree
O 0.178455 0.272263 -0.208499
H -0.744525 0.207856 -0.006860
H 0.566070 -0.480120 0.215359
O 2.782399 -2.485777 -2.043412
H 1.904264 -2.464297 -1.691803
H 3.122596 -1.622117 -1.860223
6
)Structure 240 | Energy: -152.055188 Hartree
O -0.056649 -0.664124 0.474098
H -0.955651 -0.898603 0.657163
H 0.437367 -1.445862 0.676127
O 2.782399 -2.485777 -2.043412
H 1.904264 -2.464297 -1.691803
H 3.122596 -1.622117 -1.860223
6
)Structure 241 | Energy: -152.054804 Hartree
O -0.056649 -0.664124 0.474098
H -0.955651 -0.898603 0.657163
H 0.437367 -1.445862 0.676127
O 2.630937 -2.930777 -1.854261
H 1.773546 -2.837839 -1.465092
H 2.984415 -2.053260 -1.839519
6
)Structure 242 | Energy: -152.055284 Hartree
O 0.134995 0.338739 -0.128365
H -0.764007 0.104260 0.054701
H 0.629011 -0.442999 0.073664
O -0.232293 -1.521490 -3.917961
H -0.331075 -0.839676 -3.269438
H -0.288277 -2.322337 -3.417252
6
)Structure 243 | Energy: -152.055131 Hartree
O 0.134995 0.338739 -0.128365
H -0.764007 0.104260 0.054701
H 0.629011 -0.442999 0.073664
O -0.242645 -1.577197 -3.810694
H 0.282975 -1.506581 -4.594242
H -0.738024 -0.771248 -3.794985
6
)Structure 244 | Energy: -152.055879 Hartree
O 0.979356 2.294509 -2.669368
H 0.403041 2.222259 -1.921478
H 1.761606 1.828401 -2.410894
O -0.242645 -1.577197 -3.810694
H 0.282975 -1.506581 -4.594242
H -0.738024 -0.771248 -3.794985
6
)Structure 245 | Energy: -152.053824 Hartree
O -0.068645 0.179453 -0.335455
H -0.644960 0.107203 0.412435
H 0.713605 -0.286655 -0.076980
O 0.389505 -2.061872 3.616124
H -0.500125 -2.382878 3.589203
H 0.749513 -2.317216 2.779228
6
)Structure 246 | Energy: -152.053823 Hartree
O -0.068645 0.179453 -0.335455
H -0.644960 0.107203 0.412435
H 0.713605 -0.286655 -0.076980
O 0.903557 -2.211078 3.431341
H 1.310681 -2.908471 2.938286
H 0.052228 -2.114826 3.029876
6
)Structure 247 | Energy: -152.053638 Hartree
O 0.719714 2.661525 2.284667
H 0.598353 2.666338 1.345547
H 0.475626 1.786331 2.550070
O 1.699489 -0.146316 -3.871510
H 2.464991 -0.209683 -3.319059
H 1.145907 0.476656 -3.423566
6
)Structure 248 | Energy: -152.053565 Hartree
O 2.249052 2.987798 2.405872
H 2.127691 2.992611 1.466752
H 2.004964 2.112604 2.671275
O 1.699489 -0.146316 -3.871510
H 2.464991 -0.209683 -3.319059
H 1.145907 0.476656 -3.423566
6
)Structure 249 | Energy: -152.053689 Hartree
O 2.249052 2.987798 2.405872
H 2.127691 2.992611 1.466752
H 2.004964 2.112604 2.671275
O 1.171281 -1.184047 -4.242349
H 1.936783 -1.247414 -3.689898
H 0.617699 -0.561076 -3.794405
6
)Structure 250 | Energy: -152.053659 Hartree
O 1.729103 2.390646 2.424873
H 1.607742 2.395460 1.485752
H 1.485015 1.515453 2.690276
O 1.171281 -1.184047 -4.242349
H 1.936783 -1.247414 -3.689898
H 0.617699 -0.561076 -3.794405
6
)Structure 251 | Energy: -152.053659 Hartree
O 1.729103 2.390646 2.424873
H 1.607742 2.395460 1.485752
H 1.485015 1.515453 2.690276
O 1.171281 -1.184047 -4.242349
H 1.953296 -1.216420 -3.710734
H 0.601186 -0.592070 -3.773570
6
)Structure 252 | Energy: -152.053996 Hartree
O 1.763042 2.314321 2.409308
H 0.939192 2.419616 2.864150
H 1.614884 2.702733 1.558916
O 1.171281 -1.184047 -4.242349
H 1.953296 -1.216420 -3.710734
H 0.601186 -0.592070 -3.773570
6
)Structure 253 | Energy: -152.053679 Hartree
O 1.682020 2.371848 2.438238
H 2.334999 2.711647 1.842543
H 1.505069 1.497632 2.121352
O 1.171281 -1.184047 -4.242349
H 1.953296 -1.216420 -3.710734
H 0.601186 -0.592070 -3.773570
6
)Structure 254 | Energy: -152.053747 Hartree
O 1.682020 2.371848 2.438238
H 2.334999 2.711647 1.842543
H 1.505069 1.497632 2.121352
O 1.210370 -1.194235 -4.228688
H 1.582321 -0.847786 -3.430668
H 0.351741 -0.798999 -4.270465
6
)Structure 255 | Energy: -152.054114 Hartree
O 1.753321 2.369956 2.349343
H 1.387049 1.500485 2.268323
H 1.321321 2.738823 3.106505
O 1.210370 -1.194235 -4.228688
H 1.582321 -0.847786 -3.430668
H 0.351741 -0.798999 -4.270465
6
)Structure 256 | Energy: -152.053747 Hartree
O 1.681910 2.371686 2.438275
H 2.334930 2.713985 1.844057
H 1.506887 1.497859 2.119254
O 1.210370 -1.194235 -4.228688
H 1.582321 -0.847786 -3.430668
H 0.351741 -0.798999 -4.270465
6
)Structure 257 | Energy: -152.053881 Hartree
O 1.666383 2.390849 2.392871
H 2.437567 2.226531 2.917250
H 1.650688 1.681161 1.766709
O 1.210370 -1.194235 -4.228688
H 1.582321 -0.847786 -3.430668
H 0.351741 -0.798999 -4.270465
6
)Structure 258 | Energy: -152.053836 Hartree
O 1.666383 2.390849 2.392871
H 2.437567 2.226531 2.917250
H 1.650688 1.681161 1.766709
O -0.089194 -2.576733 -3.006975
H 0.282268 -2.225490 -2.210825
H -0.383091 -1.811023 -3.478689
6
)Structure 259 | Energy: -152.054080 Hartree
O -0.127126 -2.465332 -2.983127
H 0.644057 -2.629649 -2.458747
H -0.142821 -3.175020 -3.609288
O 1.704315 2.279448 2.369023
H 2.075777 2.630691 3.165172
H 1.410418 3.045158 1.897308
6
)Structure 260 | Energy: -152.053905 Hartree
O -0.127126 -2.465332 -2.983127
H 0.644057 -2.629649 -2.458747
H -0.142821 -3.175020 -3.609288
O 1.690102 2.397510 2.358494
H 1.594755 1.513917 2.033867
H 2.117024 2.288051 3.195726
6
)Structure 261 | Energy: -152.053874 Hartree
O 1.666383 2.390849 2.392871
H 2.437567 2.226531 2.917250
H 1.650688 1.681161 1.766709
O -0.103407 -2.458671 -3.017504
H -0.198754 -3.342263 -3.342131
H 0.323515 -2.568130 -2.180271
6
)Structure 262 | Energy: -152.054080 Hartree
O 1.669574 2.327260 2.436854
H 2.226083 1.741079 1.943509
H 1.811522 3.175904 2.042347
O -0.103407 -2.458671 -3.017504
H -0.198754 -3.342263 -3.342131
H 0.323515 -2.568130 -2.180271
6
)Structure 263 | Energy: -152.054308 Hartree
O 1.708444 2.294840 2.431807
H 2.186298 3.112093 2.453067
H 1.234359 2.319456 1.612894
O -0.103407 -2.458671 -3.017504
H -0.198754 -3.342263 -3.342131
H 0.323515 -2.568130 -2.180271
6
)Structure 264 | Energy: -152.052943 Hartree
O 0.205901 -0.073729 0.318770
H -0.481491 0.568011 0.207600
H 0.275590 -0.494282 -0.526369
O -0.915197 -1.758758 4.150116
H -1.665547 -1.298745 4.497353
H -0.199459 -1.475728 4.700401
6
)Structure 265 | Energy: -152.054695 Hartree
O -0.882571 -1.729558 4.253844
H -1.569964 -1.087818 4.142675
H -0.812882 -2.150111 3.408705
O 0.173275 -0.102929 0.215041
H -0.577074 0.357084 0.562279
H 0.889014 0.180101 0.765327
6
)Structure 266 | Energy: -152.054784 Hartree
O 0.205901 -0.073729 0.318770
H -0.481491 0.568011 0.207600
H 0.275590 -0.494282 -0.526369
O 4.129417 0.525052 0.717207
H 3.593641 0.908156 1.396459
H 4.012974 1.106358 -0.020171
6
)Structure 267 | Energy: -152.055567 Hartree
O 0.234832 0.802586 -0.155721
H -0.233745 0.340862 -0.836856
H -0.057405 0.397683 0.648414
O 4.129417 0.525052 0.717207
H 3.593641 0.908156 1.396459
H 4.012974 1.106358 -0.020171
6
)Structure 268 | Energy: -152.055763 Hartree
O 0.216678 0.813996 -0.154000
H -0.089774 0.250371 -0.850501
H 0.086764 0.307068 0.634751
O 4.129417 0.525052 0.717207
H 3.593641 0.908156 1.396459
H 4.012974 1.106358 -0.020171
6
)Structure 269 | Energy: -152.055764 Hartree
O 0.145456 0.356851 -0.030750
H -0.160996 -0.206774 -0.727251
H 0.015541 -0.150077 0.758001
O 3.748981 -0.029793 -1.767534
H 3.066069 0.306821 -2.329257
H 3.802866 0.605330 -1.068310
6
)Structure 270 | Energy: -152.055082 Hartree
O 0.145456 0.356851 -0.030750
H -0.160996 -0.206774 -0.727251
H 0.015541 -0.150077 0.758001
O 4.287535 0.017326 -1.977620
H 3.604623 0.353941 -2.539343
H 4.341420 0.652450 -1.278396
6
)Structure 271 | Energy: -152.055590 Hartree
O 0.145456 0.356851 -0.030750
H -0.160996 -0.206774 -0.727251
H 0.015541 -0.150077 0.758001
O 3.376556 -0.781568 -2.588537
H 2.693644 -0.444954 -3.150260
H 3.430441 -0.146444 -1.889313
6
)Structure 272 | Energy: -152.054818 Hartree
O 3.365776 -0.667295 -2.586005
H 3.059324 -1.230919 -3.282506
H 3.235861 -1.174223 -1.797255
O 0.156236 0.242578 -0.033282
H -0.526676 0.579192 -0.595004
H 0.210121 0.877702 0.665943
6
)Structure 273 | Energy: -152.054585 Hartree
O 3.365776 -0.667295 -2.586005
H 3.059324 -1.230919 -3.282506
H 3.235861 -1.174223 -1.797255
O 0.092296 0.482998 0.520731
H -0.590616 0.819613 -0.040992
H 0.146182 1.118122 1.219955
6
)Structure 274 | Energy: -152.053810 Hartree
O 3.365776 -0.667295 -2.586005
H 3.059324 -1.230919 -3.282506
H 3.235861 -1.174223 -1.797255
O 0.078492 0.588959 0.562118
H -0.093377 0.529742 -0.366410
H -0.131954 -0.273826 0.888482
6
)Structure 275 | Energy: -152.054055 Hartree
O 2.587854 -0.838264 -2.856908
H 2.281402 -1.401888 -3.553408
H 2.457939 -1.345192 -2.068157
O 0.078492 0.588959 0.562118
H -0.093377 0.529742 -0.366410
H -0.131954 -0.273826 0.888482
6
)Structure 276 | Energy: -152.054643 Hartree
O 2.573524 -0.861030 -2.903997
H 2.212177 -1.735834 -2.874930
H 2.754613 -0.649899 -1.999226
O 0.078492 0.588959 0.562118
H -0.093377 0.529742 -0.366410
H -0.131954 -0.273826 0.888482
6
)Structure 277 | Energy: -152.054724 Hartree
O 2.573524 -0.861030 -2.903997
H 2.212177 -1.735834 -2.874930
H 2.754613 -0.649899 -1.999226
O -1.041530 -2.164902 -0.519248
H -0.928904 -1.536510 -1.217567
H -1.140884 -2.991011 -0.969663
6
)Structure 278 | Energy: -152.055402 Hartree
O 2.573524 -0.861030 -2.903997
H 2.212177 -1.735834 -2.874930
H 2.754613 -0.649899 -1.999226
O -0.971780 -2.399070 -1.160253
H -0.859154 -1.770678 -1.858571
H -1.071135 -3.225179 -1.610667
6
)Structure 279 | Energy: -152.058113 Hartree
O 1.621378 -1.167755 -2.881472
H 1.260031 -2.042559 -2.852405
H 1.802467 -0.956624 -1.976700
O -0.971780 -2.399070 -1.160253
H -0.859154 -1.770678 -1.858571
H -1.071135 -3.225179 -1.610667
6
)Structure 280 | Energy: -152.058480 Hartree
O 1.575447 -1.161207 -2.861125
H 1.624288 -2.094488 -3.013766
H 2.167224 -1.008624 -2.138283
O -0.971780 -2.399070 -1.160253
H -0.859154 -1.770678 -1.858571
H -1.071135 -3.225179 -1.610667
6
)Structure 281 | Energy: -152.058669 Hartree
O 1.272515 -2.364172 -1.641366
H 1.412495 -1.568654 -2.135588
H 2.103017 -2.528704 -1.218072
O -0.004424 0.065906 0.382911
H 0.108202 0.694298 -0.315408
H -0.103778 -0.760203 -0.067504
6
)Structure 282 | Energy: -152.056851 Hartree
O 1.208166 -1.460530 -1.485530
H 1.348146 -0.665012 -1.979752
H 2.038667 -1.625061 -1.062237
O -0.004424 0.065906 0.382911
H 0.108202 0.694298 -0.315408
H -0.103778 -0.760203 -0.067504
6
)Structure 283 | Energy: -152.052476 Hartree
O 1.112212 2.453429 0.171987
H 0.264671 2.770552 -0.106951
H 1.163888 2.690480 1.086928
O -0.004424 0.065906 0.382911
H 0.108202 0.694298 -0.315408
H -0.103778 -0.760203 -0.067504
6
)Structure 284 | Energy: -152.055221 Hartree
O 1.112212 2.453429 0.171987
H 0.264671 2.770552 -0.106951
H 1.163888 2.690480 1.086928
O -0.485307 -0.273697 0.140760
H -0.372681 0.354695 -0.557558
H -0.584662 -1.099806 -0.309655
6
)Structure 285 | Energy: -152.061045 Hartree
O -0.440033 -0.315767 0.040898
H -1.287574 0.001355 -0.238040
H -0.388357 -0.078717 0.955840
O 1.066938 2.495500 0.271849
H 1.179564 3.123892 -0.426470
H 0.967583 1.669391 -0.178566
6
)Structure 286 | Energy: -152.058690 Hartree
O 0.265288 -0.184724 -0.212001
H -0.582253 0.132398 -0.490939
H 0.316964 0.052326 0.702940
O -1.617825 -2.258249 1.524121
H -1.614212 -3.188995 1.354093
H -0.735014 -1.985738 1.320202
6
)Structure 287 | Energy: -152.057415 Hartree
O -1.523695 -2.326088 1.467611
H -2.371236 -2.008965 1.188673
H -1.472019 -2.089037 2.382552
O 0.171158 -0.116886 -0.155491
H 0.174771 -1.047632 -0.325519
H 1.053970 0.155625 -0.359410
6
)Structure 288 | Energy: -152.058577 Hartree
O -1.617265 -2.119679 -1.971350
H -2.076038 -1.434313 -2.436646
H -2.269837 -2.492363 -1.395817
O 0.171158 -0.116886 -0.155491
H 0.174771 -1.047632 -0.325519
H 1.053970 0.155625 -0.359410
6
)Structure 289 | Energy: -152.055539 Hartree
O -1.617265 -2.119679 -1.971350
H -2.076038 -1.434313 -2.436646
H -2.269837 -2.492363 -1.395817
O -0.259382 -0.280640 -0.928419
H -0.255769 -1.211386 -1.098447
H 0.623430 -0.008129 -1.132338
6
)Structure 290 | Energy: -152.054244 Hartree
O 3.060101 -2.391857 -1.354653
H 3.581083 -2.439943 -0.565373
H 3.229942 -3.209567 -1.800172
O -2.841212 2.157941 2.312840
H -3.637990 2.348128 1.839360
H -2.444391 1.455459 1.818619
6
)Structure 291 | Energy: -152.054198 Hartree
O 3.564593 -1.996681 -0.941615
H 3.897731 -2.246730 -0.091208
H 3.802459 -2.715704 -1.509425
O -2.841212 2.157941 2.312840
H -3.637990 2.348128 1.839360
H -2.444391 1.455459 1.818619
6
)Structure 292 | Energy: -152.054295 Hartree
O 3.564593 -1.996681 -0.941615
H 3.897731 -2.246730 -0.091208
H 3.802459 -2.715704 -1.509425
O -1.766949 1.349626 2.412129
H -2.563727 1.539813 1.938649
H -1.370128 0.647145 1.917907
6
)Structure 293 | Energy: -152.054358 Hartree
O 3.283923 -1.285262 -0.401950
H 3.617061 -1.535311 0.448457
H 3.521789 -2.004284 -0.969759
O -1.766949 1.349626 2.412129
H -2.563727 1.539813 1.938649
H -1.370128 0.647145 1.917907
6
)Structure 294 | Energy: -152.054521 Hartree
O 3.283923 -1.285262 -0.401950
H 3.617061 -1.535311 0.448457
H 3.521789 -2.004284 -0.969759
O -0.522519 3.610582 0.902377
H -0.707902 4.286176 0.266440
H -0.289787 2.859594 0.376018
6
)Structure 295 | Energy: -152.054758 Hartree
O 2.581471 -1.059435 -0.759959
H 2.914608 -1.309484 0.090449
H 2.819337 -1.778458 -1.327768
O -0.522519 3.610582 0.902377
H -0.707902 4.286176 0.266440
H -0.289787 2.859594 0.376018
6
)Structure 296 | Energy: -152.054360 Hartree
O -0.551820 3.660586 0.821530
H -0.218682 3.410537 1.671938
H -0.313953 2.941563 0.253721
O 2.610771 -1.109439 -0.679112
H 2.425388 -0.433845 -1.315049
H 2.843503 -1.860427 -1.205471
6
)Structure 297 | Energy: -152.054289 Hartree
O -2.363221 3.175287 0.439069
H -2.030084 2.925237 1.289476
H -2.125355 2.456264 -0.128741
O 2.610771 -1.109439 -0.679112
H 2.425388 -0.433845 -1.315049
H 2.843503 -1.860427 -1.205471
6
)Structure 298 | Energy: -152.053901 Hartree
O -2.308415 3.152019 0.507133
H -2.553638 2.240309 0.433999
H -2.471688 3.510489 -0.353578
O 2.610771 -1.109439 -0.679112
H 2.425388 -0.433845 -1.315049
H 2.843503 -1.860427 -1.205471
6
)Structure 299 | Energy: -152.053957 Hartree
O -2.308415 3.152019 0.507133
H -2.553638 2.240309 0.433999
H -2.471688 3.510489 -0.353578
O 2.718081 -1.927566 -1.481651
H 2.532698 -1.251971 -2.117588
H 2.950813 -2.678554 -2.008010
6
)Structure 300 | Energy: -152.053937 Hartree
O -2.308415 3.152019 0.507133
H -2.553638 2.240309 0.433999
H -2.471688 3.510489 -0.353578
O 3.127280 -0.883917 -1.930634
H 2.941897 -0.208323 -2.566570
H 3.360012 -1.634905 -2.456992
6
)Structure 301 | Energy: -152.053947 Hartree
O 3.152786 -0.857180 -1.943416
H 2.907563 -1.768890 -2.016549
H 2.989513 -0.498710 -2.804127
O -2.333921 3.125282 0.519915
H -2.519304 3.800877 -0.116021
H -2.101189 2.374294 -0.006443
6
)Structure 302 | Energy: -152.053937 Hartree
O -2.308415 3.152019 0.507133
H -2.553638 2.240309 0.433999
H -2.471688 3.510489 -0.353578
O 3.127280 -0.883917 -1.930634
H 2.941897 -0.208323 -2.566570
H 3.360012 -1.634905 -2.456992
6
)Structure 303 | Energy: -152.053859 Hartree
O -2.308415 3.152019 0.507133
H -2.553638 2.240309 0.433999
H -2.471688 3.510489 -0.353578
O 3.127279 -0.883916 -1.930634
H 3.883183 -0.784116 -2.490865
H 2.418741 -1.059121 -2.532696
6
)Structure 304 | Energy: -152.053945 Hartree
O -2.308415 3.152019 0.507133
H -2.553638 2.240309 0.433999
H -2.471688 3.510489 -0.353578
O 1.276378 -2.511585 -2.149817
H 1.963520 -2.679782 -2.778113
H 0.492217 -2.462965 -2.677006
6
)Structure 305 | Energy: -152.054192 Hartree
O -2.326508 3.177699 0.423565
H -2.108064 2.993798 1.326427
H -2.630088 2.349417 0.080387
O 1.276378 -2.511585 -2.149817
H 1.963520 -2.679782 -2.778113
H 0.492217 -2.462965 -2.677006
6
)Structure 306 | Energy: -152.054135 Hartree
O -2.326508 3.177699 0.423565
H -2.108064 2.993798 1.326427
H -2.630088 2.349417 0.080387
O 2.432339 -2.948596 -1.590057
H 3.119481 -3.116792 -2.218353
H 1.648178 -2.899976 -2.117246
6
)Structure 307 | Energy: -152.054172 Hartree
O -2.326508 3.177699 0.423565
H -2.108064 2.993798 1.326427
H -2.630088 2.349417 0.080387
O 2.386642 -3.004381 -1.639794
H 2.376746 -2.119878 -1.303987
H 3.116212 -3.011468 -2.242188
6
)Structure 308 | Energy: -152.054140 Hartree
O -1.427560 3.119155 -0.765735
H -1.209115 2.935254 0.137128
H -1.731139 2.290873 -1.108912
O 2.386642 -3.004381 -1.639794
H 2.376746 -2.119878 -1.303987
H 3.116212 -3.011468 -2.242188
6
)Structure 309 | Energy: -152.054152 Hartree
O 2.431674 -2.898651 -1.686027
H 2.650118 -3.082552 -0.783164
H 2.128094 -3.726933 -2.029204
O -1.472592 3.013426 -0.719502
H -1.482488 3.897929 -0.383695
H -0.743022 3.006338 -1.321896
6
)Structure 310 | Energy: -152.054405 Hartree
O 2.431674 -2.898651 -1.686027
H 2.650118 -3.082552 -0.783164
H 2.128094 -3.726933 -2.029204
O -1.482662 3.103280 -0.726742
H -1.193106 2.418070 -0.142059
H -0.872565 3.060027 -1.448623
6
)Structure 311 | Energy: -152.054202 Hartree
O 2.431674 -2.898651 -1.686027
H 2.650118 -3.082552 -0.783164
H 2.128094 -3.726933 -2.029204
O -3.347080 3.581722 0.498633
H -3.057523 2.896512 1.083316
H -2.736983 3.538469 -0.223248
6
)Structure 312 | Energy: -152.054293 Hartree
O 2.390700 -2.918625 -1.615268
H 2.364296 -3.859435 -1.719566
H 3.064248 -2.633025 -2.215890
O -3.347080 3.581722 0.498633
H -3.057523 2.896512 1.083316
H -2.736983 3.538469 -0.223248
6
)Structure 313 | Energy: -152.054292 Hartree
O 2.390700 -2.918625 -1.615268
H 2.364296 -3.859435 -1.719566
H 3.064248 -2.633025 -2.215890
O -3.252475 3.681723 0.443626
H -2.986727 2.987114 1.028525
H -2.630976 3.630947 -0.267965
6
)Structure 314 | Energy: -152.054294 Hartree
O -3.239040 3.676677 0.475980
H -3.265444 2.735868 0.371682
H -2.565492 3.962277 -0.124642
O 2.377266 -2.913580 -1.647621
H 2.643014 -3.608189 -1.062723
H 2.998765 -2.964356 -2.359213
6
)Structure 315 | Energy: -151.946371 Hartree
O -1.113042 1.110015 -0.450410
H -1.185246 1.357316 -1.361633
H -2.007582 0.982100 -0.168600
O 0.136757 0.012314 0.363497
H 0.478107 0.449892 -0.402803
H -0.614864 -0.462205 0.039306
6
)Structure 316 | Energy: -151.946371 Hartree
O 0.560592 -1.163388 -1.003060
H 0.560985 -1.014701 -1.938256
H 0.217025 -2.039726 -0.903187
O 0.136757 0.012314 0.363497
H 0.478107 0.449892 -0.402803
H -0.614864 -0.462205 0.039306
6
)Structure 317 | Energy: -151.942103 Hartree
O 0.797353 -1.648995 0.055194
H 0.723532 -2.195450 -0.714634
H 0.695199 -2.248009 0.780955
O 0.136757 0.012314 0.363497
H 0.478107 0.449892 -0.402803
H -0.614864 -0.462205 0.039306
6
)Structure 318 | Energy: -151.944269 Hartree
O 0.785808 -1.729612 -0.010001
H 0.688240 -2.296556 0.742165
H 0.913734 -0.867347 0.358936
O 0.136757 0.012314 0.363497
H 0.478107 0.449892 -0.402803
H -0.614864 -0.462205 0.039306
6
)Structure 319 | Energy: -151.944217 Hartree
O -0.010119 -0.098440 -0.373701
H -0.107687 -0.665384 0.378465
H 0.117807 0.763825 -0.004764
O -1.102252 -1.165017 0.750551
H -0.961289 -1.997610 0.323787
H -1.708120 -0.715674 0.179398
6
)Structure 320 | Energy: -151.990785 Hartree
O -0.396111 -0.212575 -1.026014
H -0.493679 -0.779519 -0.273849
H -0.268185 0.649691 -0.657077
O -1.102252 -1.165017 0.750551
H -0.961289 -1.997610 0.323787
H -1.708120 -0.715674 0.179398
6
)Structure 321 | Energy: -152.002831 Hartree
O 0.974059 -0.365871 -1.706046
H 0.617692 0.104746 -0.965627
H 1.864278 -0.564955 -1.453349
O 0.154968 0.127750 0.332639
H 0.295931 -0.704843 -0.094125
H -0.450900 0.577093 -0.238514
6
)Structure 322 | Energy: -152.044653 Hartree
O 1.358965 -1.289249 -1.981982
H 1.002598 -0.818632 -1.241563
H 2.249185 -1.488333 -1.729285
O 0.154968 0.127750 0.332639
H 0.295931 -0.704843 -0.094125
H -0.450900 0.577093 -0.238514
6
)Structure 323 | Energy: -152.053695 Hartree
O 1.358965 -1.289249 -1.981982
H 1.002598 -0.818632 -1.241563
H 2.249185 -1.488333 -1.729285
O -1.311318 -0.764753 -2.946505
H -0.777923 -0.935585 -2.183933
H -1.326941 -1.592779 -3.404031
6
)Structure 324 | Energy: -152.056669 Hartree
O 1.345536 -1.277512 -1.544393
H 0.989169 -0.806895 -0.803974
H 2.235756 -1.476597 -1.291696
O -1.311318 -0.764753 -2.946505
H -0.777923 -0.935585 -2.183933
H -1.326941 -1.592779 -3.404031
6
)Structure 325 | Energy: -152.058816 Hartree
O -1.312218 -0.835836 -2.985005
H -1.668585 -0.365219 -2.244586
H -0.421998 -1.034920 -2.732308
O 1.346436 -1.206430 -1.505893
H 1.879831 -1.377261 -0.743321
H 1.330813 -2.034456 -1.963419
6
)Structure 326 | Energy: -152.058821 Hartree
O -0.177951 -0.090511 -0.331039
H -0.534318 0.380106 0.409380
H 0.712269 -0.289595 -0.078342
O -0.685098 1.238259 2.383680
H -0.606365 1.311485 3.323706
H -1.544086 0.862942 2.255318
6
)Structure 327 | Energy: -152.055198 Hartree
O -0.177951 -0.090511 -0.331039
H -0.534318 0.380106 0.409380
H 0.712269 -0.289595 -0.078342
O 1.140171 -2.479049 0.488775
H 1.050558 -3.399928 0.686671
H 1.399802 -2.465498 -0.420956
6
)Structure 328 | Energy: -152.055200 Hartree
O -0.177951 -0.090511 -0.331039
H -0.534318 0.380106 0.409380
H 0.712269 -0.289595 -0.078342
O -2.025630 -0.779685 1.724382
H -2.569905 -1.456506 2.099732
H -2.609364 -0.313426 1.143816
6
)Structure 329 | Energy: -152.055200 Hartree
O 1.434018 2.698265 0.364114
H 1.545313 2.020606 -0.287875
H 2.245379 2.692805 0.851602
O 0.376003 0.070187 0.068405
H -0.168272 -0.606634 0.443755
H -0.207731 0.536447 -0.512161
6
)Structure 330 | Energy: -152.055359 Hartree
O 1.434018 2.698265 0.364114
H 1.545313 2.020606 -0.287875
H 2.245379 2.692805 0.851602
O -0.284763 0.462510 0.115646
H -0.909170 -0.104653 0.544192
H -0.822480 1.120130 -0.301004
6
)Structure 331 | Energy: -152.059787 Hartree
O 1.441672 2.695056 0.322484
H 1.515732 1.751963 0.364763
H 2.153470 3.012380 0.859728
O -0.284763 0.462510 0.115646
H -0.909170 -0.104653 0.544192
H -0.822480 1.120130 -0.301004
6
)Structure 332 | Energy: -152.059725 Hartree
O 1.536583 2.626469 -0.495645
H 1.610643 1.683375 -0.453365
H 2.248380 2.943792 0.041600
O -0.284763 0.462510 0.115646
H -0.909170 -0.104653 0.544192
H -0.822480 1.120130 -0.301004
6
)Structure 333 | Energy: -152.058929 Hartree
O 1.828139 2.372942 -0.352646
H 1.654797 1.727311 0.318034
H 2.016777 3.167013 0.126779
O -0.284763 0.462510 0.115646
H -0.909170 -0.104653 0.544192
H -0.822480 1.120130 -0.301004
6
)Structure 334 | Energy: -152.059001 Hartree
O 1.744725 2.488888 -0.231564
H 1.584043 1.815637 0.414665
H 1.880385 3.276226 0.276055
O -0.284763 0.462510 0.115646
H -0.909170 -0.104653 0.544192
H -0.822480 1.120130 -0.301004
6
)Structure 335 | Energy: -152.059009 Hartree
O 0.008340 -0.038028 -0.384616
H -0.152341 -0.711280 0.261613
H 0.144000 0.749309 0.123004
O -1.066406 2.642016 -0.480354
H -1.407136 3.473246 -0.183419
H -1.831227 2.180118 -0.791640
6
)Structure 336 | Energy: -152.057523 Hartree
O 0.008340 -0.038028 -0.384616
H -0.152341 -0.711280 0.261613
H 0.144000 0.749309 0.123004
O -1.074884 2.680414 -0.090638
H -1.398979 3.436298 -0.558412
H -1.854355 2.284872 0.271537
6
)Structure 337 | Energy: -152.052898 Hartree
O -2.766939 -1.461256 -0.662404
H -3.144496 -2.063692 -0.036928
H -2.500692 -0.716559 -0.142288
O 0.367856 -0.120114 0.035199
H 0.043760 0.635770 -0.432574
H -0.411616 -0.515657 0.397374
6
)Structure 338 | Energy: -152.054990 Hartree
O -2.766939 -1.461256 -0.662404
H -3.144496 -2.063692 -0.036928
H -2.500692 -0.716559 -0.142288
O 0.672657 -1.053671 -0.704722
H 0.477248 -0.265069 -1.189626
H -0.092470 -1.184190 -0.163661
6
)Structure 339 | Energy: -152.053267 Hartree
O -2.766939 -1.461256 -0.662404
H -3.144496 -2.063692 -0.036928
H -2.500692 -0.716559 -0.142288
O -0.002490 -1.363252 1.489750
H 0.337169 -0.738840 0.865289
H -0.941320 -1.271548 1.416335
6
)Structure 340 | Energy: -152.054028 Hartree
O 1.684030 -2.474277 1.748381
H 2.297777 -2.675711 1.055966
H 0.977721 -2.018659 1.313040
O 0.766908 0.250704 -4.357039
H 1.588029 0.720302 -4.378216
H 1.021425 -0.657304 -4.434135
6
)Structure 341 | Energy: -152.054005 Hartree
O 1.684030 -2.474277 1.748381
H 2.297777 -2.675711 1.055966
H 0.977721 -2.018659 1.313040
O 0.578617 -0.080214 -3.589965
H 1.399738 0.389384 -3.611141
H 0.833133 -0.988222 -3.667060
6
)Structure 342 | Energy: -152.054001 Hartree
O 1.684030 -2.474277 1.748381
H 2.297777 -2.675711 1.055966
H 0.977721 -2.018659 1.313040
O 0.537032 -0.030057 -3.558166
H 1.363684 0.429290 -3.587446
H 0.778923 -0.940645 -3.644879
6
)Structure 343 | Energy: -152.054613 Hartree
O 1.684030 -2.474277 1.748381
H 2.297777 -2.675711 1.055966
H 0.977721 -2.018659 1.313040
O 0.602267 -0.120089 -3.569920
H -0.186920 0.392335 -3.470853
H 1.294112 0.525299 -3.574911
6
)Structure 344 | Energy: -152.054500 Hartree
O 1.338974 -1.886638 2.034820
H 1.952720 -2.088072 1.342406
H 0.632665 -1.431020 1.599480
O 0.602267 -0.120089 -3.569920
H -0.186920 0.392335 -3.470853
H 1.294112 0.525299 -3.574911
6
)Structure 345 | Energy: -152.054087 Hartree
O 0.602000 -0.069528 -3.501554
H 1.215746 -0.270962 -4.193969
H -0.104309 0.386090 -3.936895
O 1.339241 -1.937199 1.966455
H 0.550054 -1.424774 2.065521
H 2.031087 -1.291810 1.961463
6
)Structure 346 | Energy: -152.054500 Hartree
O 1.338974 -1.886638 2.034820
H 1.952720 -2.088072 1.342406
H 0.632665 -1.431020 1.599480
O 0.602267 -0.120089 -3.569920
H -0.186920 0.392335 -3.470853
H 1.294112 0.525299 -3.574911
6
)Structure 347 | Energy: -152.054362 Hartree
O 1.338974 -1.886638 2.034820
H 1.952720 -2.088072 1.342406
H 0.632665 -1.431020 1.599480
O 0.602266 -0.120089 -3.569920
H 1.157534 0.474115 -3.086383
H -0.050320 0.443521 -3.959376
6
)Structure 348 | Energy: -152.054007 Hartree
O 1.281060 -1.902990 1.993971
H 2.079797 -1.707507 2.463550
H 1.424800 -1.552040 1.126703
O 0.602266 -0.120089 -3.569920
H 1.157534 0.474115 -3.086383
H -0.050320 0.443521 -3.959376
6
)Structure 349 | Energy: -152.054216 Hartree
O 1.275439 -1.876616 1.999789
H 2.124372 -1.916672 2.417410
H 1.469436 -1.761492 1.080499
O 0.602266 -0.120089 -3.569920
H 1.157534 0.474115 -3.086383
H -0.050320 0.443521 -3.959376
6
)Structure 350 | Energy: -152.054290 Hartree
O 0.538465 -0.059506 -3.536586
H 1.387398 -0.099563 -3.118965
H 0.732462 0.055617 -4.455875
O 1.339240 -1.937199 1.966455
H 1.894508 -1.342994 2.449992
H 0.686654 -1.373589 1.576999
6
)Structure 351 | Energy: -152.054214 Hartree
O 0.538465 -0.059506 -3.536586
H 1.387398 -0.099563 -3.118965
H 0.732462 0.055617 -4.455875
O 1.331022 -1.936630 1.960625
H 1.962098 -1.461889 2.481753
H 0.749504 -1.263725 1.637767
6
)Structure 352 | Energy: -152.054185 Hartree
O 0.010401 0.894640 -2.943556
H 0.859334 0.854583 -2.525935
H 0.204398 1.009763 -3.862846
O 1.331022 -1.936630 1.960625
H 1.962098 -1.461889 2.481753
H 0.749504 -1.263725 1.637767
6
)Structure 353 | Energy: -152.054185 Hartree
O 1.275439 -1.876616 1.999789
H 2.124372 -1.916672 2.417410
H 1.469436 -1.761492 1.080499
O 0.065984 0.834626 -2.982720
H 0.697060 1.309366 -2.461593
H -0.515535 1.507531 -3.305578
6
)Structure 354 | Energy: -152.054185 Hartree
O 0.010401 0.894640 -2.943556
H 0.859334 0.854583 -2.525935
H 0.204398 1.009763 -3.862846
O 1.331022 -1.936630 1.960625
H 1.962098 -1.461889 2.481753
H 0.749504 -1.263725 1.637767
6
)Structure 355 | Energy: -152.053929 Hartree
O 0.010401 0.894640 -2.943556
H 0.859334 0.854583 -2.525935
H 0.204398 1.009763 -3.862846
O 1.300218 -1.853600 2.024377
H 2.206558 -2.120807 1.975822
H 0.993968 -1.922654 1.131828
6
)Structure 356 | Energy: -152.054026 Hartree
O 0.074424 0.914177 -2.908828
H 0.096847 0.052016 -3.299819
H -0.049287 1.502243 -3.640167
O 1.300218 -1.853600 2.024377
H 2.206558 -2.120807 1.975822
H 0.993968 -1.922654 1.131828
6
)Structure 357 | Energy: -152.054227 Hartree
O 0.441416 1.487300 -2.620321
H 1.386246 1.543648 -2.648924
H 0.148665 2.079626 -3.298132
O 1.300218 -1.853600 2.024377
H 2.206558 -2.120807 1.975822
H 0.993968 -1.922654 1.131828
6
)Structure 358 | Energy: -152.054359 Hartree
O 0.441416 1.487300 -2.620321
H 1.386246 1.543648 -2.648924
H 0.148665 2.079626 -3.298132
O 0.572698 -0.838942 2.672417
H 1.423707 -1.246366 2.743126
H 0.289739 -1.052600 1.795214
6
)Structure 359 | Energy: -152.054375 Hartree
O 0.441416 1.487300 -2.620321
H 1.386246 1.543648 -2.648924
H 0.148665 2.079626 -3.298132
O 0.545621 0.290751 3.843857
H 1.396630 -0.116673 3.914566
H 0.262662 0.077093 2.966654
6
)Structure 360 | Energy: -152.054391 Hartree
O 0.441416 1.487300 -2.620321
H 1.386246 1.543648 -2.648924
H 0.148665 2.079626 -3.298132
O 0.557826 0.288998 3.843386
H 1.377038 -0.180884 3.900926
H 0.245632 0.097102 2.971083
6
)Structure 361 | Energy: -152.054275 Hartree
O -0.456211 0.362740 -2.655137
H 0.166743 -0.338361 -2.785842
H -0.404448 0.875959 -3.448805
O 0.557826 0.288998 3.843386
H 1.377038 -0.180884 3.900926
H 0.245632 0.097102 2.971083
6
)Structure 362 | Energy: -152.054150 Hartree
O 0.548442 0.262482 3.849519
H 1.171397 -0.438619 3.718814
H 0.600205 0.775701 3.055851
O -0.446828 0.389256 -2.661270
H 0.372385 -0.080626 -2.603730
H -0.759022 0.197360 -3.533572
6
)Structure 363 | Energy: -152.054348 Hartree
O -3.211990 -0.659915 3.217733
H -2.785737 -1.505148 3.241964
H -2.628936 -0.115671 2.707999
O -0.446828 0.389256 -2.661270
H 0.372385 -0.080626 -2.603730
H -0.759022 0.197360 -3.533572
6
)Structure 364 | Energy: -152.053816 Hartree
O -3.091588 -0.668513 3.198059
H -3.545791 -1.445359 2.903257
H -3.779915 -0.038996 3.358977
O -0.446828 0.389256 -2.661270
H 0.372385 -0.080626 -2.603730
H -0.759022 0.197360 -3.533572
6
)Structure 365 | Energy: -152.053835 Hartree
O 1.875540 3.114808 0.916624
H 1.148025 2.523182 0.784722
H 2.288890 3.174242 0.067158
O -2.876647 -4.159551 -0.008844
H -1.967035 -3.913965 -0.095467
H -3.326651 -3.583214 -0.609287
6
)Structure 366 | Energy: -152.053862 Hartree
O 2.929598 2.985349 0.717684
H 2.202082 2.393723 0.585783
H 3.342948 3.044783 -0.131781
O -2.876647 -4.159551 -0.008844
H -1.967035 -3.913965 -0.095467
H -3.326651 -3.583214 -0.609287
6
)Structure 367 | Energy: -152.053899 Hartree
O 3.100065 3.583083 1.377217
H 2.372550 2.991457 1.245315
H 3.513415 3.642517 0.527752
O -2.876647 -4.159551 -0.008844
H -1.967035 -3.913965 -0.095467
H -3.326651 -3.583214 -0.609287
6
)Structure 368 | Energy: -152.053950 Hartree
O 3.145512 3.568534 1.319701
H 2.757611 2.704891 1.338437
H 2.407020 4.160004 1.347516
O -2.876647 -4.159551 -0.008844
H -1.967035 -3.913965 -0.095467
H -3.326651 -3.583214 -0.609287
6
)Structure 369 | Energy: -152.053955 Hartree
O 1.224910 2.893624 1.790270
H 0.837009 2.029981 1.809005
H 0.486417 3.485094 1.818084
O -2.876647 -4.159551 -0.008844
H -1.967035 -3.913965 -0.095467
H -3.326651 -3.583214 -0.609287
6
)Structure 370 | Energy: -152.053500 Hartree
O 1.175147 -0.475560 -3.897871
H 1.579127 0.326039 -4.199430
H 1.384646 -0.513407 -2.975559
O -0.873783 -0.500268 1.353355
H -1.324400 0.329156 1.288465
H -0.369466 -0.548945 0.554296
6
)Structure 371 | Energy: -152.053491 Hartree
O 1.175147 -0.475560 -3.897871
H 1.579127 0.326039 -4.199430
H 1.384646 -0.513407 -2.975559
O -0.875928 -0.498234 1.354944
H -1.304980 0.338107 1.246967
H -0.354841 -0.590177 0.570586
6
)Structure 372 | Energy: -152.053504 Hartree
O 1.070186 -0.115555 -3.926863
H 1.488480 0.697356 -4.173650
H 1.296936 -0.230790 -3.015114
O -0.875928 -0.498234 1.354944
H -1.304980 0.338107 1.246967
H -0.354841 -0.590177 0.570586
6
)Structure 373 | Energy: -152.053002 Hartree
O -0.567196 0.436289 -3.867177
H -0.148903 1.249200 -4.113963
H -0.340447 0.321054 -2.955427
O -0.875928 -0.498234 1.354944
H -1.304980 0.338107 1.246967
H -0.354841 -0.590177 0.570586
6
)Structure 374 | Energy: -152.053050 Hartree
O -0.096185 0.514233 -3.803651
H 0.556035 1.173157 -3.996332
H 0.047060 0.299014 -2.893078
O -0.875928 -0.498234 1.354944
H -1.304980 0.338107 1.246967
H -0.354841 -0.590177 0.570586
6
)Structure 375 | Energy: -152.053646 Hartree
O -0.915287 -0.481409 1.264846
H -0.263067 0.177516 1.072165
H -0.772042 -0.696628 2.175419
O -0.056825 0.497408 -3.713554
H -0.485878 1.333748 -3.821530
H 0.464261 0.405465 -4.497911
6
)Structure 376 | Energy: -152.054938 Hartree
O -0.905746 -0.500369 1.337739
H -0.999930 -0.242666 0.431418
H -0.186606 0.024485 1.659214
O -0.056825 0.497408 -3.713554
H -0.485878 1.333748 -3.821530
H 0.464261 0.405465 -4.497911
6
)Structure 377 | Energy: -152.054638 Hartree
O -2.897163 0.141845 0.661190
H -2.609294 0.302448 -0.226524
H -2.302406 0.646444 1.197497
O -0.056825 0.497408 -3.713554
H -0.485878 1.333748 -3.821530
H 0.464261 0.405465 -4.497911
6
)Structure 378 | Energy: -152.054882 Hartree
O -0.101062 0.501839 -3.743820
H 0.186807 0.662442 -4.631535
H 0.493695 1.006438 -3.207513
O -2.852927 0.137414 0.691457
H -3.281979 0.973754 0.583480
H -2.331840 0.045471 -0.092900
6
)Structure 379 | Energy: -152.054821 Hartree
O -0.101062 0.501839 -3.743820
H 0.186807 0.662442 -4.631535
H 0.493695 1.006438 -3.207513
O 1.905596 -3.940623 -1.774428
H 1.908267 -3.628757 -0.881152
H 1.516143 -3.230046 -2.262902
6
)Structure 380 | Energy: -152.054430 Hartree
O -1.122132 -0.013225 -3.009303
H -0.834263 0.147377 -3.897017
H -0.527375 0.491374 -2.472996
O 1.905596 -3.940623 -1.774428
H 1.908267 -3.628757 -0.881152
H 1.516143 -3.230046 -2.262902
6
)Structure 381 | Energy: -152.054530 Hartree
O -0.844521 0.042695 -3.406279
H -0.528293 0.109614 -4.296346
H -0.230640 0.553642 -2.898278
O 1.905596 -3.940623 -1.774428
H 1.908267 -3.628757 -0.881152
H 1.516143 -3.230046 -2.262902
6
)Structure 382 | Energy: -152.054618 Hartree
O 1.019043 -0.410930 1.824542
H 1.192929 0.383417 1.339285
H 1.866631 -0.680283 2.148618
O 1.905596 -3.940623 -1.774428
H 1.908267 -3.628757 -0.881152
H 1.516143 -3.230046 -2.262902
6
)Structure 383 | Energy: -152.054248 Hartree
O 1.019043 -0.410930 1.824542
H 1.192929 0.383417 1.339285
H 1.866631 -0.680283 2.148618
O 1.938836 -3.868407 -1.719887
H 1.635907 -3.529997 -2.549901
H 1.260914 -4.475031 -1.459829
6
)Structure 384 | Energy: -152.053747 Hartree
O 1.096507 -0.333814 1.776545
H 1.320653 -0.475587 2.685587
H 0.509392 -1.045259 1.564124
O 1.938836 -3.868407 -1.719887
H 1.635907 -3.529997 -2.549901
H 1.260914 -4.475031 -1.459829
6
)Structure 385 | Energy: -152.053888 Hartree
O 1.165623 -0.388165 1.072113
H 1.389768 -0.529938 1.981155
H 0.578507 -1.099610 0.859692
O 1.938836 -3.868407 -1.719887
H 1.635907 -3.529997 -2.549901
H 1.260914 -4.475031 -1.459829
6
)Structure 386 | Energy: -152.054082 Hartree
O 0.120990 0.284406 -0.232207
H 0.345135 0.142633 0.676835
H -0.466125 -0.427039 -0.444628
O 1.052917 -2.822598 -3.329130
H 0.341523 -3.444755 -3.374394
H 0.884540 -2.230948 -4.048019
6
)Structure 387 | Energy: -152.053757 Hartree
O -0.427111 0.032947 -0.111793
H -0.202965 -0.108826 0.797249
H -1.014226 -0.678498 -0.324214
O 1.052917 -2.822598 -3.329130
H 0.341523 -3.444755 -3.374394
H 0.884540 -2.230948 -4.048019
6
)Structure 388 | Energy: -152.054306 Hartree
O 0.172931 -0.354915 -0.735228
H 0.397077 -0.496688 0.173814
H -0.414184 -1.066360 -0.947649
O 1.052917 -2.822598 -3.329130
H 0.341523 -3.444755 -3.374394
H 0.884540 -2.230948 -4.048019
6
)Structure 389 | Energy: -152.053933 Hartree
O 0.120990 0.284406 -0.232207
H 0.345135 0.142633 0.676835
H -0.466125 -0.427039 -0.444628
O 3.661599 -0.052521 0.587771
H 3.721695 -0.234938 1.514228
H 3.840899 0.874412 0.525745
6
)Structure 390 | Energy: -152.053957 Hartree
O 0.120990 0.284406 -0.232207
H 0.345135 0.142633 0.676835
H -0.466125 -0.427039 -0.444628
O 3.696030 -0.053180 0.591184
H 3.448451 -0.229707 1.487149
H 3.567650 0.879643 0.498665
6
)Structure 391 | Energy: -152.057586 Hartree
O 0.066957 0.198962 -0.152583
H -0.231322 0.974268 -0.607148
H 0.967948 0.097502 -0.424432
O 3.696030 -0.053180 0.591184
H 3.448451 -0.229707 1.487149
H 3.567650 0.879643 0.498665
6
)Structure 392 | Energy: -152.057022 Hartree
O 2.653327 -3.000794 2.559820
H 1.815461 -3.386550 2.345647
H 2.939116 -2.594050 1.754299
O 3.696030 -0.053180 0.591184
H 3.448451 -0.229707 1.487149
H 3.567650 0.879643 0.498665
6
)Structure 393 | Energy: -152.056837 Hartree
O 2.653327 -3.000794 2.559820
H 1.815461 -3.386550 2.345647
H 2.939116 -2.594050 1.754299
O 3.067070 -0.137201 0.245086
H 2.937269 -0.256784 1.174635
H 2.797451 0.756408 0.090265
6
)Structure 394 | Energy: -152.057403 Hartree
O 2.653327 -3.000794 2.559820
H 1.815461 -3.386550 2.345647
H 2.939116 -2.594050 1.754299
O 2.709026 0.135519 0.591833
H 2.477194 -0.117649 1.473519
H 2.263523 0.960824 0.466938
6
)Structure 395 | Energy: -152.057576 Hartree
O -0.669069 1.856221 -3.185675
H -1.420667 1.399527 -3.536717
H -0.105002 1.168743 -2.861353
O 0.225778 -0.190712 -0.252264
H -0.006054 -0.443881 0.629422
H -0.219725 0.634593 -0.377158
6
)Structure 396 | Energy: -152.052321 Hartree
O -3.322201 0.425800 0.173714
H -3.455773 -0.497456 0.011066
H -3.155951 0.480310 1.103967
O -2.267005 3.992246 0.962764
H -1.542855 4.553198 0.725804
H -2.261334 3.999922 1.908867
6
)Structure 397 | Energy: -152.052649 Hartree
O -2.227997 4.072672 0.959493
H -2.361569 3.149415 0.796846
H -2.061748 4.127181 1.889746
O -3.361209 0.345374 0.176985
H -2.637059 0.906326 -0.059976
H -3.355538 0.353050 1.123087
6
)Structure 398 | Energy: -152.056834 Hartree
O -2.227997 4.072672 0.959493
H -2.361569 3.149415 0.796846
H -2.061748 4.127181 1.889746
O 1.625631 3.989067 0.187055
H 0.827963 4.166842 -0.289739
H 1.577511 4.566158 0.935287
6
)Structure 399 | Energy: -152.056834 Hartree
O -0.010893 0.289582 -0.255869
H -0.144464 -0.633674 -0.418516
H 0.155357 0.344092 0.674385
O -3.822322 1.082639 0.290181
H -3.208256 1.098953 -0.429449
H -3.404660 1.606458 0.958293
6
)Structure 400 | Energy: -152.056834 Hartree
O 1.545712 2.549018 -2.088926
H 0.843579 2.667771 -2.713110
H 1.384529 3.203616 -1.424470
O -0.343909 -0.180044 0.017173
H 0.270156 -0.163731 -0.702458
H 0.073752 0.343775 0.685285
6
)Structure 401 | Energy: -152.056013 Hartree
O 1.545712 2.549018 -2.088926
H 0.843579 2.667771 -2.713110
H 1.384529 3.203616 -1.424470
O -0.252657 1.956799 1.382603
H 0.200496 1.431113 0.739550
H 0.359666 2.649610 1.583289
6
)Structure 402 | Energy: -152.055395 Hartree
O -3.451549 0.493628 -1.123968
H -3.442496 0.959949 -1.948081
H -2.958996 1.046370 -0.534182
O -0.355159 -0.055708 0.147455
H 0.097994 -0.581394 -0.495597
H 0.257164 0.637103 0.348142
6
)Structure 403 | Energy: -152.052754 Hartree
O -1.076232 -0.624300 3.445597
H -0.561429 -1.333443 3.804475
H -0.435739 0.008598 3.153721
O -0.355159 -0.055708 0.147455
H 0.097994 -0.581394 -0.495597
H 0.257164 0.637103 0.348142
6
)Structure 404 | Energy: -152.053844 Hartree
O -1.076232 -0.624300 3.445597
H -0.561429 -1.333443 3.804475
H -0.435739 0.008598 3.153721
O -0.355158 -0.055710 0.147455
H -0.040804 0.683961 -0.351823
H 0.395960 -0.628233 0.204369
6
)Structure 405 | Energy: -152.055431 Hartree
O -0.360184 -0.042091 0.118955
H 0.154618 -0.751234 0.477832
H 0.280308 0.590807 -0.172921
O -1.071206 -0.637918 3.474098
H -0.756851 0.101752 2.974820
H -0.320088 -1.210442 3.531012
6
)Structure 406 | Energy: -152.056140 Hartree
O 0.090020 0.061009 0.310200
H 0.604822 -0.648134 0.669078
H 0.730512 0.693907 0.018324
O -1.071206 -0.637918 3.474098
H -0.756851 0.101752 2.974820
H -0.320088 -1.210442 3.531012
6
)Structure 407 | Energy: -152.055741 Hartree
O 0.090020 0.061009 0.310200
H 0.604822 -0.648134 0.669078
H 0.730512 0.693907 0.018324
O 0.201654 -0.875481 3.645705
H 0.213397 -0.087117 3.122680
H 1.002474 -1.319337 3.407209
6
)Structure 408 | Energy: -152.055740 Hartree
O 1.034368 -1.698256 -2.522712
H 0.576804 -0.869202 -2.521015
H 1.920500 -1.478668 -2.772775
O -0.270854 -0.114836 0.253840
H -0.259111 0.673528 -0.269184
H 0.529966 -0.558692 0.015344
6
)Structure 409 | Energy: -152.057925 Hartree
O -0.142856 -0.349548 0.082789
H -0.600420 0.479506 0.084486
H 0.743276 -0.129959 -0.167274
O -0.636422 -0.496197 -3.338257
H -0.522835 -1.394779 -3.064655
H -1.065818 -0.086058 -2.601639
6
)Structure 410 | Energy: -152.053886 Hartree
O -0.142856 -0.349548 0.082789
H -0.600420 0.479506 0.084486
H 0.743276 -0.129959 -0.167274
O 0.648031 0.372724 3.352065
H 0.002764 1.055550 3.239858
H 1.138243 0.387006 2.542936
6
)Structure 411 | Energy: -152.057643 Hartree
O 2.813672 -1.073310 1.078625
H 2.278613 -1.820892 1.305628
H 2.715010 -0.481077 1.810409
O 0.051685 -0.232369 0.307111
H -0.593582 0.450456 0.194905
H 0.541898 -0.218087 -0.502017
6
)Structure 412 | Energy: -152.057642 Hartree
O -0.416694 0.828634 3.061358
H -0.679920 -0.078996 3.121515
H 0.525050 0.808307 3.154562
O 0.051685 -0.232369 0.307111
H -0.593582 0.450456 0.194905
H 0.541898 -0.218087 -0.502017
6
)Structure 413 | Energy: -152.054796 Hartree
O -0.416694 0.828634 3.061358
H -0.679920 -0.078996 3.121515
H 0.525050 0.808307 3.154562
O -0.413548 0.028697 0.369365
H -1.058815 0.711522 0.257159
H 0.076665 0.042978 -0.439763
6
)Structure 414 | Energy: -152.055735 Hartree
O -0.460189 0.119624 0.309232
H -0.723415 -0.788005 0.369390
H 0.481555 0.099297 0.402436
O -0.370053 0.737706 3.121490
H -1.015320 1.420531 3.009284
H 0.120160 0.751987 2.312362
6
)Structure 415 | Energy: -152.055735 Hartree
O -0.226172 0.309319 -0.051121
H -0.489399 -0.598311 0.009037
H 0.715571 0.288992 0.042083
O 0.408803 0.396839 -2.859695
H -0.233647 1.076922 -3.000958
H 0.736185 0.569684 -1.988979
6
)Structure 416 | Energy: -152.054796 Hartree
O 0.353209 0.496485 -2.827461
H 0.089982 -0.411144 -2.767303
H 1.294953 0.476158 -2.734257
O -0.170578 0.209672 -0.083355
H -0.813028 0.889755 -0.224617
H 0.156804 0.382518 0.787361
6
)Structure 417 | Energy: -152.049583 Hartree
O -0.226172 0.309319 -0.051121
H -0.489399 -0.598311 0.009037
H 0.715571 0.288992 0.042083
O -0.081656 0.274239 2.780870
H 0.370901 -0.545446 2.916958
H 0.218577 0.821317 3.492043
6
)Structure 418 | Energy: -152.048255 Hartree
O -0.226487 0.309116 -0.034132
H -0.486901 -0.596699 -0.125694
H 0.718072 0.290606 -0.092833
O -0.081656 0.274239 2.780870
H 0.370901 -0.545446 2.916958
H 0.218577 0.821317 3.492043
6
)Structure 419 | Energy: -152.050163 Hartree
O -0.226487 0.309116 -0.034132
H -0.486901 -0.596699 -0.125694
H 0.718072 0.290606 -0.092833
O -0.816133 -1.297840 2.231274
H -0.626141 -2.155959 1.880924
H -0.587533 -1.369477 3.146594
6
)Structure 420 | Energy: -152.054589 Hartree
O -0.226487 0.309116 -0.034132
H -0.486901 -0.596699 -0.125694
H 0.718072 0.290606 -0.092833
O -0.008773 -1.874298 2.349021
H 0.181219 -2.732417 1.998672
H 0.219827 -1.945935 3.264342
6
)Structure 421 | Energy: -152.052304 Hartree
O -0.228049 0.308108 0.050088
H -0.488463 -0.597706 -0.041475
H 0.716511 0.289598 -0.008613
O -1.394360 -0.004025 2.737386
H -2.196742 0.479604 2.605115
H -1.252197 0.041206 3.671702
6
)Structure 422 | Energy: -152.054815 Hartree
O 0.507800 1.133967 0.163179
H 0.247386 0.228153 0.071617
H 1.452360 1.115458 0.104478
O -1.394360 -0.004025 2.737386
H -2.196742 0.479604 2.605115
H -1.252197 0.041206 3.671702
6
)Structure 423 | Energy: -152.056132 Hartree
O -2.810304 2.366190 0.080754
H -2.772075 1.891890 0.899458
H -2.801683 3.277893 0.335126
O 0.220073 -0.176286 -0.267348
H -0.582309 0.307342 -0.399619
H 0.362236 -0.131056 0.666967
6
)Structure 424 | Energy: -152.056308 Hartree
O -2.908201 2.189104 0.373261
H -2.683041 1.819331 1.215442
H -2.930996 3.123347 0.523769
O 0.220073 -0.176286 -0.267348
H -0.582309 0.307342 -0.399619
H 0.362236 -0.131056 0.666967
6
)Structure 425 | Energy: -152.056308 Hartree
O -0.095399 0.883590 3.549550
H -0.952558 1.016157 3.169548
H 0.111835 1.711069 3.959811
O 0.220073 -0.176286 -0.267348
H -0.582309 0.307342 -0.399619
H 0.362236 -0.131056 0.666967
6
)Structure 426 | Energy: -152.056756 Hartree
O -1.027747 0.028482 3.501813
H -1.057328 -0.884168 3.251029
H -1.892910 0.208583 3.840986
O 0.220073 -0.176286 -0.267348
H -0.582309 0.307342 -0.399619
H 0.362236 -0.131056 0.666967
6
)Structure 427 | Energy: -152.054010 Hartree
O 1.315548 -1.808808 0.114913
H 0.627252 -1.158470 0.117382
H 0.912895 -2.580558 0.486736
O -2.022118 3.064008 -1.734670
H -1.436463 2.780020 -1.047962
H -1.713561 3.931279 -1.953382
6
)Structure 428 | Energy: -152.054462 Hartree
O -2.220210 -2.207736 1.453595
H -2.529866 -1.447069 0.982218
H -2.866888 -2.875620 1.275492
O -2.022118 3.064008 -1.734670
H -1.436463 2.780020 -1.047962
H -1.713561 3.931279 -1.953382
6
)Structure 429 | Energy: -152.054519 Hartree
O -1.918574 3.091453 -1.672144
H -2.228230 3.852121 -2.143521
H -2.565252 2.423570 -1.850247
O -2.323755 -2.235181 1.391068
H -1.738099 -2.519169 2.077777
H -2.015197 -1.367910 1.172357
6
)Structure 430 | Energy: -152.053866 Hartree
O -1.918574 3.091453 -1.672144
H -2.228230 3.852121 -2.143521
H -2.565252 2.423570 -1.850247
O -2.234088 -2.223414 1.464668
H -2.212764 -1.393833 1.010189
H -2.963716 -2.680007 1.071772
6
)Structure 431 | Energy: -152.054041 Hartree
O -1.918574 3.091453 -1.672144
H -2.228230 3.852121 -2.143521
H -2.565252 2.423570 -1.850247
O -1.061212 -1.956892 1.766087
H -1.211438 -1.166439 1.268266
H -1.838947 -2.473697 1.613630
6
)Structure 432 | Energy: -152.054298 Hartree
O -1.918574 3.091453 -1.672144
H -2.228230 3.852121 -2.143521
H -2.565252 2.423570 -1.850247
O -1.098867 -1.971144 1.673339
H -0.783949 -1.137038 1.990046
H -1.668767 -2.276891 2.363944
6
)Structure 433 | Energy: -152.054326 Hartree
O -1.918574 3.091453 -1.672144
H -2.228230 3.852121 -2.143521
H -2.565252 2.423570 -1.850247
O -2.144070 -2.840669 0.504673
H -1.829152 -2.006563 0.821380
H -2.713969 -3.146416 1.195278
6
)Structure 434 | Energy: -152.054363 Hartree
O -1.918574 3.091453 -1.672144
H -2.228230 3.852121 -2.143521
H -2.565252 2.423570 -1.850247
O -2.220380 -2.831228 0.560949
H -1.830961 -2.140427 0.044851
H -1.500961 -3.162402 1.078599
6
)Structure 435 | Energy: -152.054492 Hartree
O -1.514507 1.814438 -1.182809
H -1.824163 2.575105 -1.654186
H -2.161185 1.146554 -1.360912
O -2.220380 -2.831228 0.560949
H -1.830961 -2.140427 0.044851
H -1.500961 -3.162402 1.078599
6
)Structure 436 | Energy: -152.053713 Hartree
O -1.514507 1.814438 -1.182809
H -1.824163 2.575105 -1.654186
H -2.161185 1.146554 -1.360912
O -2.116766 -2.768473 0.534415
H -1.936693 -3.426310 1.190185
H -3.039785 -2.872565 0.354410
6
)Structure 437 | Energy: -152.053939 Hartree
O -0.736151 2.372192 -1.746889
H -1.045808 3.132860 -2.218266
H -1.382829 1.704309 -1.924992
O -2.116766 -2.768473 0.534415
H -1.936693 -3.426310 1.190185
H -3.039785 -2.872565 0.354410
6
)Structure 438 | Energy: -152.053655 Hartree
O -2.104827 -2.816297 0.597376
H -2.414483 -2.055630 0.125999
H -2.751505 -3.484181 0.419273
O -0.748091 2.420016 -1.809850
H -0.568018 1.762179 -1.154080
H -1.671110 2.315924 -1.989855
6
)Structure 439 | Energy: -152.054060 Hartree
O -2.116653 -2.826550 0.513761
H -2.164462 -3.190184 1.386792
H -2.813817 -2.186900 0.485621
O -0.748091 2.420016 -1.809850
H -0.568018 1.762179 -1.154080
H -1.671110 2.315924 -1.989855
6
)Structure 440 | Energy: -152.054236 Hartree
O -0.234328 -1.557851 4.015901
H 0.196567 -0.903303 3.484305
H -0.805068 -2.013291 3.413562
O -1.205447 3.656179 -0.596675
H -1.887227 3.268689 -0.067300
H -1.524765 4.528346 -0.777126
6
)Structure 441 | Energy: -152.053985 Hartree
O -0.234328 -1.557851 4.015901
H 0.196567 -0.903303 3.484305
H -0.805068 -2.013291 3.413562
O -1.242844 3.709836 -0.520552
H -1.590440 2.842869 -0.671402
H -1.227973 4.102518 -1.381239
6
)Structure 442 | Energy: -152.054110 Hartree
O -1.253637 3.672158 -0.513704
H -0.822741 4.326706 -1.045300
H -1.824376 3.216717 -1.116042
O -0.223536 -1.520172 4.009053
H -0.571132 -2.387139 3.858203
H -0.208664 -1.127490 3.148366
6
)Structure 443 | Energy: -152.053985 Hartree
O -0.234328 -1.557851 4.015901
H 0.196567 -0.903303 3.484305
H -0.805068 -2.013291 3.413562
O -1.242844 3.709836 -0.520552
H -1.590440 2.842869 -0.671402
H -1.227973 4.102518 -1.381239
6
)Structure 444 | Energy: -152.054428 Hartree
O -0.234328 -1.557851 4.015901
H 0.196567 -0.903303 3.484305
H -0.805068 -2.013291 3.413562
O -1.233381 3.626649 -0.593171
H -1.289318 4.028269 0.261688
H -1.679297 4.237469 -1.161730
6
)Structure 445 | Energy: -152.053799 Hartree
O -0.234328 -1.557851 4.015901
H 0.196567 -0.903303 3.484305
H -0.805068 -2.013291 3.413562
O -1.316579 3.712305 -0.557788
H -0.629064 3.348504 -0.019104
H -1.019031 3.557692 -1.442526
6
)Structure 446 | Energy: -152.053742 Hartree
O -0.441047 -1.685649 3.019792
H -0.010152 -1.031101 2.488196
H -1.011787 -2.141090 2.417453
O -1.316579 3.712305 -0.557788
H -0.629064 3.348504 -0.019104
H -1.019031 3.557692 -1.442526
6
)Structure 447 | Energy: -152.053542 Hartree
O -0.441047 -1.685649 3.019792
H -0.010152 -1.031101 2.488196
H -1.011787 -2.141090 2.417453
O -1.674994 3.165001 0.105874
H -0.987478 2.801200 0.644559
H -1.377446 3.010387 -0.778864
6
)Structure 448 | Energy: -152.054438 Hartree
O -0.445014 -1.610020 2.950238
H -0.295348 -2.265890 2.283804
H -0.663630 -2.106689 3.725808
O -1.674994 3.165001 0.105874
H -0.987478 2.801200 0.644559
H -1.377446 3.010387 -0.778864
6
)Structure 449 | Energy: -152.054604 Hartree
O -0.445014 -1.610020 2.950238
H -0.295348 -2.265890 2.283804
H -0.663630 -2.106689 3.725808
O -2.479164 1.971939 -0.469802
H -1.791648 1.608138 0.068883
H -2.181616 1.817325 -1.354539
6
)Structure 450 | Energy: -152.054593 Hartree
O -0.526190 -2.607313 2.285759
H -0.376523 -3.263183 1.619326
H -0.744806 -3.103982 3.061329
O -2.479164 1.971939 -0.469802
H -1.791648 1.608138 0.068883
H -2.181616 1.817325 -1.354539
6
)Structure 451 | Energy: -152.054165 Hartree
O -0.526190 -2.607313 2.285759
H -0.376523 -3.263183 1.619326
H -0.744806 -3.103982 3.061329
O -1.057812 2.069697 -1.627320
H -0.370297 1.705896 -1.088635
H -0.760264 1.915083 -2.512057
6
)Structure 452 | Energy: -152.053972 Hartree
O -0.526190 -2.607313 2.285759
H -0.376523 -3.263183 1.619326
H -0.744806 -3.103982 3.061329
O -0.944017 2.067499 -1.637060
H -1.777064 2.506271 -1.730454
H -1.159649 1.149604 -1.715634
6
)Structure 453 | Energy: -152.054084 Hartree
O -0.526190 -2.607313 2.285759
H -0.376523 -3.263183 1.619326
H -0.744806 -3.103982 3.061329
O -1.275420 3.215803 -1.239433
H -2.108466 3.654575 -1.332827
H -1.491051 2.297908 -1.318007
6
)Structure 454 | Energy: -152.054140 Hartree
O -1.181635 -2.665979 2.278104
H -0.928498 -3.313995 1.635691
H -1.531444 -3.171059 2.998180
O -1.275420 3.215803 -1.239433
H -2.108466 3.654575 -1.332827
H -1.491051 2.297908 -1.318007
6
)Structure 455 | Energy: -152.054173 Hartree
O -1.181635 -2.665979 2.278104
H -0.928498 -3.313995 1.635691
H -1.531444 -3.171059 2.998180
O -1.274922 3.215978 -1.244099
H -2.112411 3.653184 -1.295805
H -1.494996 2.296517 -1.280984
6
)Structure 456 | Energy: -152.054089 Hartree
O -1.328687 3.253514 -1.253401
H -1.075551 2.605497 -1.895814
H -1.678497 2.748434 -0.533325
O -1.127870 -2.703515 2.287407
H -1.965358 -2.266308 2.235701
H -1.347943 -3.622975 2.250522
6
)Structure 457 | Energy: -152.054173 Hartree
O -1.181635 -2.665979 2.278104
H -0.928498 -3.313995 1.635691
H -1.531444 -3.171059 2.998180
O -1.274922 3.215978 -1.244099
H -2.112411 3.653184 -1.295805
H -1.494996 2.296517 -1.280984
6
)Structure 458 | Energy: -152.054144 Hartree
O -1.181660 -2.665982 2.278022
H -0.592226 -3.269171 2.708637
H -1.867306 -3.215828 1.926540
O -1.274922 3.215978 -1.244099
H -2.112411 3.653184 -1.295805
H -1.494996 2.296517 -1.280984
6
)Structure 459 | Energy: -152.054062 Hartree
O -1.181660 -2.665982 2.278022
H -0.592226 -3.269171 2.708637
H -1.867306 -3.215828 1.926540
O -1.736310 2.248995 -2.482820
H -2.597399 2.626655 -2.588219
H -1.908196 1.336659 -2.300338
6
)Structure 460 | Energy: -152.054138 Hartree
O -1.719868 -3.448725 2.365931
H -1.130434 -4.051913 2.796547
H -2.405514 -3.998571 2.014449
O -1.736310 2.248995 -2.482820
H -2.597399 2.626655 -2.588219
H -1.908196 1.336659 -2.300338
6
)Structure 461 | Energy: -152.053751 Hartree
O -1.719868 -3.448725 2.365931
H -1.130434 -4.051913 2.796547
H -2.405514 -3.998571 2.014449
O -1.782175 2.156350 -2.465200
H -1.156455 2.855151 -2.589145
H -2.621172 2.578624 -2.579084
6
)Structure 462 | Energy: -152.053851 Hartree
O -1.788725 2.283594 -2.482935
H -1.199291 1.680406 -2.052320
H -2.474371 1.733748 -2.834417
O -1.713318 -3.575969 2.383667
H -1.087598 -2.877168 2.259721
H -2.552316 -3.153695 2.269783
6
)Structure 463 | Energy: -152.053978 Hartree
O -1.846686 2.194540 -2.507564
H -1.583119 3.102578 -2.455631
H -1.170578 1.725057 -2.040183
O -1.713318 -3.575969 2.383667
H -1.087598 -2.877168 2.259721
H -2.552316 -3.153695 2.269783
6
)Structure 464 | Energy: -152.054031 Hartree
O -1.846686 2.194540 -2.507564
H -1.583119 3.102578 -2.455631
H -1.170578 1.725057 -2.040183
O -1.725616 -3.543283 2.428252
H -1.845449 -2.622046 2.248888
H -1.599272 -3.927601 1.572952
6
)Structure 465 | Energy: -152.053914 Hartree
O -1.846686 2.194540 -2.507564
H -1.583119 3.102578 -2.455631
H -1.170578 1.725057 -2.040183
O -0.111137 -3.943729 1.598708
H -0.230970 -3.022492 1.419343
H 0.015207 -4.328047 0.743407
6
)Structure 466 | Energy: -152.057659 Hartree
O 2.982344 0.687691 -1.619645
H 3.340616 1.504337 -1.301167
H 2.499456 0.928710 -2.397276
O 1.275809 -2.692708 -1.480298
H 2.175744 -2.510317 -1.708464
H 1.039861 -1.984426 -0.899036
6
)Structure 467 | Energy: -152.060357 Hartree
O 2.789649 0.091063 -1.414619
H 3.147920 0.907709 -1.096141
H 2.306761 0.332082 -2.192250
O 1.275809 -2.692708 -1.480298
H 2.175744 -2.510317 -1.708464
H 1.039861 -1.984426 -0.899036
6
)Structure 468 | Energy: -152.060524 Hartree
O 2.789649 0.091063 -1.414619
H 3.147920 0.907709 -1.096141
H 2.306761 0.332082 -2.192250
O 0.963495 -1.874701 -0.620078
H 1.863431 -1.692310 -0.848244
H 0.727548 -1.166419 -0.038815
6
)Structure 469 | Energy: -152.060255 Hartree
O 3.036689 -0.264200 -1.429320
H 3.394960 0.552447 -1.110842
H 2.553801 -0.023181 -2.206951
O 0.963495 -1.874701 -0.620078
H 1.863431 -1.692310 -0.848244
H 0.727548 -1.166419 -0.038815
6
)Structure 470 | Energy: -152.060208 Hartree
O 2.924768 -0.156174 -1.484408
H 3.245398 0.679945 -1.176513
H 2.409170 0.055562 -2.249463
O 0.963495 -1.874701 -0.620078
H 1.863431 -1.692310 -0.848244
H 0.727548 -1.166419 -0.038815
6
)Structure 471 | Energy: -152.060426 Hartree
O 3.009866 0.077596 -2.054708
H 3.330496 0.913715 -1.746812
H 2.494268 0.289333 -2.819762
O 0.963495 -1.874701 -0.620078
H 1.863431 -1.692310 -0.848244
H 0.727548 -1.166419 -0.038815
6
)Structure 472 | Energy: -152.060727 Hartree
O 3.009866 0.077596 -2.054708
H 3.330496 0.913715 -1.746812
H 2.494268 0.289333 -2.819762
O 0.983888 -1.885814 -0.584240
H 1.701596 -1.604118 -1.132649
H 0.565710 -1.078225 -0.323226
6
)Structure 473 | Energy: -152.060727 Hartree
O -0.587907 2.764299 0.416815
H 0.064740 3.446697 0.488118
H -1.024000 2.939226 -0.404893
O -0.099843 -0.363095 0.095798
H 0.617865 -0.081399 -0.452611
H -0.518021 0.444494 0.356812
6
)Structure 474 | Energy: -152.061172 Hartree
O -0.587907 2.764299 0.416815
H 0.064740 3.446697 0.488118
H -1.024000 2.939226 -0.404893
O 0.877783 -0.036420 0.774096
H 1.572192 0.391019 0.294200
H 0.192977 0.615275 0.813275
6
)Structure 475 | Energy: -152.061210 Hartree
O -1.033624 2.483835 0.661810
H -0.380977 3.166233 0.733113
H -1.469717 2.658761 -0.159898
O 0.877783 -0.036420 0.774096
H 1.572192 0.391019 0.294200
H 0.192977 0.615275 0.813275
6
)Structure 476 | Energy: -152.061901 Hartree
O -1.033624 2.483835 0.661810
H -0.380977 3.166233 0.733113
H -1.469717 2.658761 -0.159898
O -0.875243 -0.545738 1.476687
H -0.146749 -0.719864 0.898597
H -1.065516 0.370082 1.334314
6
)Structure 477 | Energy: -152.061901 Hartree
O -0.072184 -0.285775 0.250135
H 0.580462 0.396623 0.321438
H -0.508278 -0.110848 -0.571573
O -1.870489 -1.590837 2.470571
H -2.273570 -0.767658 2.705332
H -1.279914 -1.363212 1.767286
6
)Structure 478 | Energy: -152.061904 Hartree
O -0.072184 -0.285775 0.250135
H 0.580462 0.396623 0.321438
H -0.508278 -0.110848 -0.571573
O -1.254431 -1.304107 2.976393
H -1.840297 -0.566001 3.061076
H -0.789812 -1.135105 2.169691
6
)Structure 479 | Energy: -152.058503 Hartree
O -0.072184 -0.285775 0.250135
H 0.580462 0.396623 0.321438
H -0.508278 -0.110848 -0.571573
O -2.326752 1.924772 0.850094
H -1.894942 2.596169 0.342180
H -1.753297 1.176178 0.772910
6
)Structure 480 | Energy: -152.059853 Hartree
O 0.343397 1.535798 -2.478948
H 1.092816 0.973369 -2.615855
H -0.403490 0.963077 -2.579611
O -0.335088 0.025733 0.195033
H 0.096722 0.697129 -0.312881
H 0.238367 -0.722862 0.117849
6
)Structure 481 | Energy: -152.059312 Hartree
O 1.223565 1.025685 -2.542505
H 1.972984 0.463256 -2.679411
H 0.476678 0.452964 -2.643168
O -0.335088 0.025733 0.195033
H 0.096722 0.697129 -0.312881
H 0.238367 -0.722862 0.117849
6
)Structure 482 | Energy: -152.057436 Hartree
O 1.223565 1.025685 -2.542505
H 1.972984 0.463256 -2.679411
H 0.476678 0.452964 -2.643168
O -0.322744 0.068692 0.171858
H 0.477554 0.109528 -0.331197
H -0.338390 -0.817109 0.503994
6
)Structure 483 | Energy: -152.057436 Hartree
O 2.438167 1.927252 -0.766559
H 3.094011 1.308957 -1.056868
H 2.311395 1.724751 0.149357
O -0.261551 0.281655 0.056973
H 0.538748 0.322491 -0.446082
H -0.277197 -0.604146 0.389109
6
)Structure 484 | Energy: -152.060369 Hartree
O 2.438167 1.927252 -0.766559
H 3.094011 1.308957 -1.056868
H 2.311395 1.724751 0.149357
O -0.227517 0.175964 0.074703
H -0.776031 0.944969 0.129241
H 0.497396 0.450897 -0.467620
6
)Structure 485 | Energy: -152.060290 Hartree
O 2.314474 1.201273 0.096712
H 2.970317 0.582978 -0.193596
H 2.187702 0.998771 1.012629
O -0.227517 0.175964 0.074703
H -0.776031 0.944969 0.129241
H 0.497396 0.450897 -0.467620
6
)Structure 486 | Energy: -152.059666 Hartree
O 0.963174 -0.576755 -2.323519
H 1.636617 -1.240295 -2.377257
H 0.151948 -1.054992 -2.419344
O -0.058799 -0.347979 0.162595
H -0.607314 0.421025 0.217133
H 0.666113 -0.073046 -0.379728
6
)Structure 487 | Energy: -152.059340 Hartree
O 1.145164 -0.890515 -2.139757
H 1.818607 -1.554055 -2.193495
H 0.333938 -1.368752 -2.235582
O -0.058799 -0.347979 0.162595
H -0.607314 0.421025 0.217133
H 0.666113 -0.073046 -0.379728
6
)Structure 488 | Energy: -152.059768 Hartree
O -0.041220 -0.225681 0.143670
H 0.632223 -0.889221 0.089932
H -0.852446 -0.703918 0.047846
O 1.127584 -1.012813 -2.120833
H 0.579070 -0.243808 -2.066295
H 1.852497 -0.737880 -2.663156
6
)Structure 489 | Energy: -152.059428 Hartree
O -0.863362 0.023777 -3.635586
H -0.797566 -0.885859 -3.380770
H -0.416019 0.068868 -4.468552
O 1.127584 -1.012813 -2.120833
H 0.579070 -0.243808 -2.066295
H 1.852497 -0.737880 -2.663156
6
)Structure 490 | Energy: -152.053717 Hartree
O -0.430445 -0.879128 1.735698
H -0.341757 -0.649252 0.821373
H -1.291579 -0.567642 1.975292
O 0.392892 2.696731 -2.857426
H -0.422348 2.357097 -2.517952
H 0.150638 3.524284 -3.246874
6
)Structure 491 | Energy: -152.053746 Hartree
O -0.430367 -0.879097 1.735634
H -1.356924 -1.058175 1.657390
H -0.277648 -0.159217 1.140293
O 0.392892 2.696731 -2.857426
H -0.422348 2.357097 -2.517952
H 0.150638 3.524284 -3.246874
6
)Structure 492 | Energy: -152.053453 Hartree
O -1.197321 -0.472142 1.480377
H -2.123878 -0.651220 1.402133
H -1.044602 0.247738 0.885036
O 0.392892 2.696731 -2.857426
H -0.422348 2.357097 -2.517952
H 0.150638 3.524284 -3.246874
6
)Structure 493 | Energy: -152.054956 Hartree
O -1.197321 -0.472142 1.480377
H -2.123878 -0.651220 1.402133
H -1.044602 0.247738 0.885036
O 0.298168 2.726840 -2.805612
H 0.142366 3.171585 -3.626062
H 1.089391 2.231895 -2.961162
6
)Structure 494 | Energy: -152.053222 Hartree
O -1.262252 -0.398815 1.399234
H -0.377394 -0.505929 1.719002
H -1.760512 -1.061397 1.856074
O 0.298168 2.726840 -2.805612
H 0.142366 3.171585 -3.626062
H 1.089391 2.231895 -2.961162
6
)Structure 495 | Energy: -152.053428 Hartree
O -1.262252 -0.398815 1.399234
H -0.377394 -0.505929 1.719002
H -1.760512 -1.061397 1.856074
O 1.640908 3.108563 -1.647273
H 1.725735 3.750139 -2.337486
H 2.321590 2.479104 -1.836097
6
)Structure 496 | Energy: -152.053564 Hartree
O -1.262252 -0.398815 1.399234
H -0.377394 -0.505929 1.719002
H -1.760512 -1.061397 1.856074
O 2.024528 3.433168 -0.484625
H 2.109355 4.074745 -1.174838
H 2.705210 2.803709 -0.673449
6
)Structure 497 | Energy: -152.054704 Hartree
O -1.268446 -0.481889 1.399838
H -0.704561 -0.710248 2.125500
H -1.335021 0.461476 1.439981
O 2.024528 3.433168 -0.484625
H 2.109355 4.074745 -1.174838
H 2.705210 2.803709 -0.673449
6
)Structure 498 | Energy: -152.054412 Hartree
O -2.311016 -0.194044 1.927606
H -1.747130 -0.422402 2.653268
H -2.377591 0.749321 1.967749
O 2.024528 3.433168 -0.484625
H 2.109355 4.074745 -1.174838
H 2.705210 2.803709 -0.673449
6
)Structure 499 | Energy: -152.054192 Hartree
O -2.345836 -0.137257 1.968276
H -1.917662 -0.842737 1.503880
H -1.654384 0.268342 2.471629
O 2.024528 3.433168 -0.484625
H 2.109355 4.074745 -1.174838
H 2.705210 2.803709 -0.673449
6
)Structure 500 | Energy: -152.054167 Hartree
O -2.345843 -0.137297 1.968182
H -1.824725 -0.331801 2.734538
H -1.747208 -0.241973 1.242468
O 2.024528 3.433168 -0.484625
H 2.109355 4.074745 -1.174838
H 2.705210 2.803709 -0.673449
6
)Structure 501 | Energy: -152.054295 Hartree
O -2.235903 -0.194606 1.988597
H -3.119292 -0.413279 1.726864
H -2.197615 0.749116 1.926112
O 2.024528 3.433168 -0.484625
H 2.109355 4.074745 -1.174838
H 2.705210 2.803709 -0.673449
6
)Structure 502 | Energy: -152.054278 Hartree
O -2.235904 -0.194605 1.988600
H -3.105478 -0.415563 1.685753
H -2.211412 0.751398 1.967173
O 2.024528 3.433168 -0.484625
H 2.109355 4.074745 -1.174838
H 2.705210 2.803709 -0.673449
6
)Structure 503 | Energy: -152.053742 Hartree
O -2.235904 -0.194605 1.988600
H -3.105478 -0.415563 1.685753
H -2.211412 0.751398 1.967173
O 2.111700 3.444929 -0.487275
H 2.261323 3.190107 -1.386102
H 1.169644 3.501679 -0.420118
6
)Structure 504 | Energy: -152.053802 Hartree
O 2.114646 3.393278 -0.515666
H 1.245072 3.172320 -0.818513
H 2.139138 4.339281 -0.537092
O -2.238850 -0.142954 2.016990
H -2.089227 -0.397776 1.118164
H -3.180907 -0.086204 2.084148
6
)Structure 505 | Energy: -152.053826 Hartree
O 2.114646 3.393278 -0.515666
H 1.245072 3.172320 -0.818513
H 2.139138 4.339281 -0.537092
O -2.238849 -0.142954 2.016989
H -3.150394 0.110459 2.008249
H -2.119756 -0.594432 1.194076
6
)Structure 506 | Energy: -152.054152 Hartree
O 2.114646 3.393278 -0.515666
H 1.245072 3.172320 -0.818513
H 2.139138 4.339281 -0.537092
O -2.304475 -0.210513 1.945724
H -2.801150 0.444933 2.413607
H -1.427384 0.143383 1.919847
6
)Structure 507 | Energy: -152.054247 Hartree
O 1.732926 3.429862 -1.225384
H 0.863351 3.208904 -1.528232
H 1.757418 4.375865 -1.246811
O -2.304475 -0.210513 1.945724
H -2.801150 0.444933 2.413607
H -1.427384 0.143383 1.919847
6
)Structure 508 | Energy: -152.054332 Hartree
O 0.999606 2.483133 -2.661552
H 0.133117 2.116437 -2.768459
H 0.921273 3.371299 -2.979368
O -2.304475 -0.210513 1.945724
H -2.801150 0.444933 2.413607
H -1.427384 0.143383 1.919847
6
)Structure 509 | Energy: -152.054328 Hartree
O 0.910692 2.565728 -2.677689
H 1.853879 2.505878 -2.736968
H 0.611752 1.670919 -2.754720
O -2.304475 -0.210513 1.945724
H -2.801150 0.444933 2.413607
H -1.427384 0.143383 1.919847
6
)Structure 510 | Energy: -152.054595 Hartree
O 1.149137 0.747354 -1.978586
H 2.092325 0.687504 -2.037865
H 0.850198 -0.147455 -2.055617
O -2.304475 -0.210513 1.945724
H -2.801150 0.444933 2.413607
H -1.427384 0.143383 1.919847
6
)Structure 511 | Energy: -152.054483 Hartree
O 1.213089 0.651427 -1.945900
H 1.585149 1.448257 -2.297086
H 0.342326 0.614342 -2.315194
O -2.304475 -0.210513 1.945724
H -2.801150 0.444933 2.413607
H -1.427384 0.143383 1.919847
6
)Structure 512 | Energy: -152.054290 Hartree
O 1.213089 0.651427 -1.945900
H 1.585149 1.448257 -2.297086
H 0.342326 0.614342 -2.315194
O -1.840928 1.461089 2.339293
H -2.233159 2.278843 2.608816
H -0.953094 1.697533 2.113359
6
)Structure 513 | Energy: -152.054762 Hartree
O 3.165821 0.318123 0.905963
H 3.228369 -0.523564 0.476604
H 3.178149 0.113571 1.830077
O -1.840928 1.461089 2.339293
H -2.233159 2.278843 2.608816
H -0.953094 1.697533 2.113359
6
)Structure 514 | Energy: -152.054795 Hartree
O -1.817387 1.578615 2.314049
H -1.754839 0.736928 1.884690
H -1.805059 1.374062 3.238163
O 3.142280 0.200597 0.931207
H 2.750049 1.018351 1.200730
H 4.030114 0.437041 0.705273
6
)Structure 515 | Energy: -152.054541 Hartree
O -1.817387 1.578615 2.314049
H -1.754839 0.736928 1.884690
H -1.805059 1.374062 3.238163
O 3.580380 -0.247814 0.314227
H 3.188149 0.569940 0.583749
H 4.468214 -0.011370 0.088293
6
)Structure 516 | Energy: -152.054718 Hartree
O -1.817387 1.578615 2.314049
H -1.754839 0.736928 1.884690
H -1.805059 1.374062 3.238163
O 2.927241 0.994419 -0.206764
H 2.535010 1.812173 0.062758
H 3.815075 1.230863 -0.432698
6
)Structure 517 | Energy: -152.054442 Hartree
O -1.759842 1.556615 2.336352
H -2.357725 1.507163 3.069011
H -2.115527 0.953019 1.699845
O 2.927241 0.994419 -0.206764
H 2.535010 1.812173 0.062758
H 3.815075 1.230863 -0.432698
6
)Structure 518 | Energy: -152.054188 Hartree
O -1.759842 1.556615 2.336352
H -2.357725 1.507163 3.069011
H -2.115527 0.953019 1.699845
O 2.381115 2.055811 -0.517290
H 1.988884 2.873565 -0.247767
H 3.268949 2.292255 -0.743224
6
)Structure 519 | Energy: -152.056065 Hartree
O -0.202109 2.371756 2.026006
H -0.799992 2.322303 2.758665
H -0.557794 1.768160 1.389498
O 2.381115 2.055811 -0.517290
H 1.988884 2.873565 -0.247767
H 3.268949 2.292255 -0.743224
6
)Structure 520 | Energy: -152.055828 Hartree
O -0.473239 2.289909 1.721662
H -1.159650 2.204901 2.368433
H -0.788786 1.799285 0.976209
O 2.381115 2.055811 -0.517290
H 1.988884 2.873565 -0.247767
H 3.268949 2.292255 -0.743224
6
)Structure 521 | Energy: -152.057424 Hartree
O -0.473239 2.289909 1.721662
H -1.159650 2.204901 2.368433
H -0.788786 1.799285 0.976209
O -1.426540 -1.296722 1.962202
H -0.533711 -0.989235 1.902894
H -1.349138 -2.142969 2.378226
6
)Structure 522 | Energy: -152.057424 Hartree
O -3.061718 -1.457075 1.792532
H -3.039695 -0.539713 2.026330
H -3.033029 -1.460635 0.846411
O -0.323410 0.179587 -0.118905
H 0.569419 0.487073 -0.178214
H -0.246009 -0.666660 0.297119
6
)Structure 523 | Energy: -152.052821 Hartree
O -4.053729 -0.935153 -0.147105
H -3.914775 -0.025280 -0.369638
H -3.893836 -1.402995 -0.954285
O -0.429155 -0.857892 2.401873
H -0.145118 0.036039 2.526053
H 0.183733 -1.365150 2.913984
6
)Structure 524 | Energy: -152.053056 Hartree
O -4.053729 -0.935153 -0.147105
H -3.914775 -0.025280 -0.369638
H -3.893836 -1.402995 -0.954285
O -0.410741 -0.890127 2.418962
H -0.600198 0.007230 2.186437
H 0.346556 -0.824709 2.982364
6
)Structure 525 | Energy: -152.053090 Hartree
O -4.318618 -0.902533 0.539588
H -4.179664 0.007341 0.317056
H -4.158724 -1.370375 -0.267592
O -0.410741 -0.890127 2.418962
H -0.600198 0.007230 2.186437
H 0.346556 -0.824709 2.982364
6
)Structure 526 | Energy: -152.053138 Hartree
O -4.318618 -0.902533 0.539588
H -4.179664 0.007341 0.317056
H -4.158724 -1.370375 -0.267592
O -0.205148 -0.205196 2.360261
H -0.394604 0.692161 2.127737
H 0.552150 -0.139779 2.923664
6
)Structure 527 | Energy: -152.052604 Hartree
O -3.528301 -0.326158 1.153670
H -3.389347 0.583716 0.931137
H -3.368408 -0.794000 0.346490
O -0.205148 -0.205196 2.360261
H -0.394604 0.692161 2.127737
H 0.552150 -0.139779 2.923664
6
)Structure 528 | Energy: -152.057633 Hartree
O -3.559203 -0.305630 1.052177
H -3.624928 -0.027215 1.954875
H -2.642348 -0.508880 0.933657
O -0.205148 -0.205196 2.360261
H -0.394604 0.692161 2.127737
H 0.552150 -0.139779 2.923664
6
)Structure 529 | Energy: -152.057594 Hartree
O -3.498620 0.105126 1.511792
H -3.564345 0.383541 2.414490
H -2.581765 -0.098124 1.393272
O -0.205148 -0.205196 2.360261
H -0.394604 0.692161 2.127737
H 0.552150 -0.139779 2.923664
6
)Structure 530 | Energy: -152.060958 Hartree
O -1.318629 -2.335612 -2.419719
H -0.637174 -1.919290 -2.928634
H -1.216202 -1.977288 -1.549608
O -0.189280 -0.320925 -0.110293
H -0.378737 0.576432 -0.342817
H 0.568017 -0.255507 0.453110
6
)Structure 531 | Energy: -152.060964 Hartree
O -0.261294 -0.258215 -0.120399
H 0.420161 0.158107 -0.629314
H -0.158867 0.100108 0.749713
O 2.115765 1.879972 -0.787273
H 1.790777 2.763913 -0.696498
H 3.046249 1.962531 -0.636991
6
)Structure 532 | Energy: -152.061107 Hartree
O -0.046087 -0.559715 -0.699871
H 0.656583 -0.030656 -1.050656
H -0.142878 -0.261965 0.193414
O 2.115765 1.879972 -0.787273
H 1.790777 2.763913 -0.696498
H 3.046249 1.962531 -0.636991
6
)Structure 533 | Energy: -152.061100 Hartree
O -0.201960 -0.275603 -0.180833
H 0.500710 0.253456 -0.531618
H -0.298751 0.022147 0.712452
O 0.249484 1.670581 2.396519
H 0.044917 2.589267 2.299682
H 0.769672 1.634758 3.186026
6
)Structure 534 | Energy: -152.061100 Hartree
O -1.839319 -2.437949 -1.972083
H -2.534896 -2.124162 -1.411362
H -1.061823 -2.005596 -1.648737
O -0.105207 -0.294288 -0.230890
H -0.309774 0.624399 -0.327727
H 0.414981 -0.330111 0.558617
6
)Structure 535 | Energy: -152.057936 Hartree
O -1.839319 -2.437949 -1.972083
H -2.534896 -2.124162 -1.411362
H -1.061823 -2.005596 -1.648737
O -0.073273 -0.308151 -0.185178
H -0.582187 0.102805 -0.868795
H 0.180544 0.411526 0.374145
6
)Structure 536 | Energy: -152.058136 Hartree
O -0.092131 -0.286638 -0.241599
H -0.787708 0.027149 0.319121
H 0.685365 0.145716 0.081746
O -1.820461 -2.459463 -1.915662
H -2.329375 -2.048506 -2.599278
H -1.566644 -1.739785 -1.356339
6
)Structure 537 | Energy: -152.057936 Hartree
O -1.839319 -2.437949 -1.972083
H -2.534896 -2.124162 -1.411362
H -1.061823 -2.005596 -1.648737
O -0.073273 -0.308151 -0.185178
H -0.582187 0.102805 -0.868795
H 0.180544 0.411526 0.374145
6
)Structure 538 | Energy: -152.061104 Hartree
O -1.839319 -2.437949 -1.972083
H -2.534896 -2.124162 -1.411362
H -1.061823 -2.005596 -1.648737
O 0.047858 -0.407471 -1.384672
H -0.461055 0.003486 -2.068289
H 0.301675 0.312206 -0.825349
6
)Structure 539 | Energy: -152.060718 Hartree
O -2.147239 -1.820429 -0.254427
H -2.503800 -1.112038 0.263014
H -1.260035 -1.550879 -0.444671
O 0.047858 -0.407471 -1.384672
H -0.461055 0.003486 -2.068289
H 0.301675 0.312206 -0.825349
6
)Structure 540 | Energy: -152.059350 Hartree
O -2.147239 -1.820429 -0.254427
H -2.503800 -1.112038 0.263014
H -1.260035 -1.550879 -0.444671
O -2.637647 -0.595973 2.256707
H -3.540679 -0.875571 2.296314
H -2.213109 -1.099117 2.936276
6
)Structure 541 | Energy: -152.060079 Hartree
O -2.147239 -1.820429 -0.254427
H -2.503800 -1.112038 0.263014
H -1.260035 -1.550879 -0.444671
O -2.608288 -0.644167 2.264022
H -3.258909 -1.317648 2.399394
H -2.960870 0.107907 2.717092
6
)Structure 542 | Energy: -152.061741 Hartree
O 2.563101 0.768193 1.512638
H 2.114735 0.260188 0.851126
H 2.661832 0.172469 2.241573
O 0.334401 -0.026198 -0.196147
H -0.316220 -0.699679 -0.060775
H -0.018181 0.725876 0.256922
6
)Structure 543 | Energy: -152.060874 Hartree
O 2.220670 -1.002864 1.816083
H 1.876014 -0.856834 0.946263
H 2.104395 -1.930581 1.963741
O 0.334401 -0.026198 -0.196147
H -0.316220 -0.699679 -0.060775
H -0.018181 0.725876 0.256922
6
)Structure 544 | Energy: -152.058332 Hartree
O 2.220670 -1.002864 1.816083
H 1.876014 -0.856834 0.946263
H 2.104395 -1.930581 1.963741
O 0.363501 0.732615 -0.174769
H -0.287120 0.059134 -0.039397
H 0.010919 1.484689 0.278300
6
)Structure 545 | Energy: -152.059761 Hartree
O 2.220670 -1.002864 1.816083
H 1.876014 -0.856834 0.946263
H 2.104395 -1.930581 1.963741
O 0.363501 0.732614 -0.174769
H -0.414832 0.204359 -0.276524
H 0.138629 1.339465 0.515423
6
)Structure 546 | Energy: -152.059756 Hartree
O 2.220670 -1.002864 1.816083
H 1.876014 -0.856834 0.946263
H 2.104395 -1.930581 1.963741
O 0.363501 0.732614 -0.174769
H -0.509194 0.844164 -0.522863
H 0.232989 0.699671 0.761758
6
)Structure 547 | Energy: -152.053894 Hartree
O 0.461965 1.286091 -2.523256
H 0.952344 0.477481 -2.572016
H -0.377346 1.032403 -2.166632
O -0.057127 2.363584 2.687034
H -0.599838 1.981699 2.012616
H -0.281282 3.282580 2.666983
6
)Structure 548 | Energy: -152.053710 Hartree
O 0.461965 1.286091 -2.523256
H 0.952344 0.477481 -2.572016
H -0.377346 1.032403 -2.166632
O -0.141989 2.427191 2.611184
H 0.422527 2.755056 3.296046
H 0.043285 1.499661 2.587438
6
)Structure 549 | Energy: -152.053681 Hartree
O 0.466011 1.286899 -2.511089
H 0.920254 0.471069 -2.668514
H -0.409480 1.025982 -2.263263
O -0.141989 2.427191 2.611184
H 0.422527 2.755056 3.296046
H 0.043285 1.499661 2.587438
6
)Structure 550 | Energy: -152.053930 Hartree
O -0.076466 2.453885 2.643117
H 0.377777 1.638055 2.485693
H -0.951957 2.192968 2.890944
O 0.400488 1.260205 -2.543022
H 0.965004 1.588070 -1.858160
H 0.585762 0.332675 -2.566768
6
)Structure 551 | Energy: -152.054029 Hartree
O 0.691775 2.248705 3.852295
H 1.146017 1.432875 3.694870
H -0.183717 1.987788 4.100121
O 0.400488 1.260205 -2.543022
H 0.965004 1.588070 -1.858160
H 0.585762 0.332675 -2.566768
6
)Structure 552 | Energy: -152.053842 Hartree
O 0.691775 2.248705 3.852295
H 1.146017 1.432875 3.694870
H -0.183717 1.987788 4.100121
O 0.400488 1.260205 -2.543022
H 0.245737 0.867021 -1.696460
H 1.305017 1.053713 -2.728466
6
)Structure 553 | Energy: -152.053971 Hartree
O 0.466011 1.286899 -2.511089
H 0.920254 0.471069 -2.668514
H -0.409480 1.025982 -2.263263
O 0.626252 2.222012 3.820361
H 0.471500 1.828827 4.666924
H 1.530781 2.015519 3.634918
6
)Structure 554 | Energy: -152.054114 Hartree
O 0.466050 1.286887 -2.511049
H 0.416495 0.625014 -3.186449
H 0.093665 0.872224 -1.745957
O 0.626252 2.222012 3.820361
H 0.471500 1.828827 4.666924
H 1.530781 2.015519 3.634918
6
)Structure 555 | Energy: -152.053964 Hartree
O 0.466050 1.286887 -2.511049
H 0.416495 0.625014 -3.186449
H 0.093665 0.872224 -1.745957
O 0.715424 2.194120 3.812715
H 0.778007 1.832195 4.684669
H -0.191064 2.454847 3.738534
6
)Structure 556 | Energy: -152.053982 Hartree
O 0.466050 1.286887 -2.511049
H 0.416495 0.625014 -3.186449
H 0.093665 0.872224 -1.745957
O 0.715424 2.194119 3.812716
H 0.044926 2.823611 4.034938
H 0.542005 1.463447 4.388254
6
)Structure 557 | Energy: -152.053777 Hartree
O 0.691813 2.248694 3.852334
H 0.642259 1.586820 3.176934
H 0.319429 1.834031 4.617426
O 0.489661 1.232313 -2.550668
H -0.180837 1.861805 -2.328445
H 0.316242 0.501640 -1.975130
6
)Structure 558 | Energy: -152.053629 Hartree
O 2.839878 -0.060326 3.336190
H 2.195436 -0.316256 2.691293
H 2.484804 -0.365033 4.159026
O 0.489661 1.232313 -2.550668
H -0.180837 1.861805 -2.328445
H 0.316242 0.501640 -1.975130
6
)Structure 559 | Energy: -152.053599 Hartree
O 2.839878 -0.060326 3.336190
H 2.195436 -0.316256 2.691293
H 2.484804 -0.365033 4.159026
O -0.542069 0.940140 -1.372847
H -1.212567 1.569632 -1.150624
H -0.715488 0.209467 -0.797309
6
)Structure 560 | Energy: -152.053552 Hartree
O 2.216784 -0.186906 3.709042
H 1.674412 -0.429764 2.971783
H 1.765796 -0.542388 4.461520
O -0.542069 0.940140 -1.372847
H -1.212567 1.569632 -1.150624
H -0.715488 0.209467 -0.797309
6
)Structure 561 | Energy: -152.053155 Hartree
O 0.789822 -0.271509 3.499626
H 0.247449 -0.514367 2.762368
H 0.338834 -0.626991 4.252105
O -0.542069 0.940140 -1.372847
H -1.212567 1.569632 -1.150624
H -0.715488 0.209467 -0.797309
6
)Structure 562 | Energy: -152.053728 Hartree
O -0.533707 0.967958 -1.329061
H -1.076080 0.725100 -2.066320
H -0.984695 0.612476 -0.576583
O 0.781460 -0.299327 3.455841
H 0.110962 0.330165 3.678064
H 0.608041 -1.029999 4.031379
6
)Structure 563 | Energy: -152.053985 Hartree
O 0.196625 1.560683 -2.174544
H -0.345748 1.317825 -2.911802
H -0.254363 1.205201 -1.422065
O 0.781460 -0.299327 3.455841
H 0.110962 0.330165 3.678064
H 0.608041 -1.029999 4.031379
6
)Structure 564 | Energy: -152.053583 Hartree
O 0.789822 -0.271509 3.499626
H 0.247449 -0.514367 2.762368
H 0.338834 -0.626991 4.252105
O 0.188263 1.532865 -2.218330
H -0.482234 2.162357 -1.996107
H 0.014844 0.802192 -1.642791
6
)Structure 565 | Energy: -152.053715 Hartree
O -1.813177 0.389782 3.369783
H -2.164829 0.323657 2.493047
H -2.574956 0.378125 3.931511
O 0.188263 1.532865 -2.218330
H -0.482234 2.162357 -1.996107
H 0.014844 0.802192 -1.642791
6
)Structure 566 | Energy: -152.054138 Hartree
O 0.203344 1.531556 -2.156066
H -0.148308 1.465431 -3.032803
H -0.558435 1.519899 -1.594338
O -1.828257 0.391091 3.307520
H -2.498755 1.020583 3.529743
H -2.001677 -0.339581 3.883058
6
)Structure 567 | Energy: -152.054144 Hartree
O 0.998381 3.196840 -1.098971
H 0.815631 3.368762 -2.012067
H 0.155851 2.979922 -0.726047
O -1.828257 0.391091 3.307520
H -2.498755 1.020583 3.529743
H -2.001677 -0.339581 3.883058
6
)Structure 568 | Energy: -152.053988 Hartree
O 0.877357 3.186277 -1.138897
H 1.358260 3.084886 -0.329483
H 1.534117 3.431444 -1.774932
O -1.828257 0.391091 3.307520
H -2.498755 1.020583 3.529743
H -2.001677 -0.339581 3.883058
6
)Structure 569 | Energy: -152.054354 Hartree
O 0.877357 3.186277 -1.138897
H 1.358260 3.084886 -0.329483
H 1.534117 3.431444 -1.774932
O -0.324017 0.244691 2.284574
H -0.994515 0.874182 2.506797
H -0.497436 -0.485982 2.860112
6
)Structure 570 | Energy: -152.054462 Hartree
O 0.884058 2.999731 -0.522405
H 1.364961 2.898340 0.287009
H 1.540818 3.244897 -1.158440
O -0.324017 0.244691 2.284574
H -0.994515 0.874182 2.506797
H -0.497436 -0.485982 2.860112
6
)Structure 571 | Energy: -152.053973 Hartree
O 0.884058 2.999731 -0.522405
H 1.364961 2.898340 0.287009
H 1.540818 3.244897 -1.158440
O -0.772181 -0.365532 1.657190
H -1.442679 0.263959 1.879412
H -0.945600 -1.096205 2.232728
6
)Structure 572 | Energy: -152.053687 Hartree
O 0.884058 2.999731 -0.522405
H 1.364961 2.898340 0.287009
H 1.540818 3.244897 -1.158440
O -1.416715 0.412237 2.165351
H -2.087213 1.041728 2.387574
H -1.590134 -0.318436 2.740889
6
)Structure 573 | Energy: -152.053912 Hartree
O 0.884058 2.999731 -0.522405
H 1.364961 2.898340 0.287009
H 1.540818 3.244897 -1.158440
O -2.019600 -0.146022 3.483986
H -2.690098 0.483469 3.706208
H -2.193019 -0.876695 4.059524
6
)Structure 574 | Energy: -152.054655 Hartree
O 0.968170 3.024127 -0.572077
H 0.084503 2.822398 -0.297965
H 1.486261 2.933622 0.214925
O -2.019600 -0.146022 3.483986
H -2.690098 0.483469 3.706208
H -2.193019 -0.876695 4.059524
6
)Structure 575 | Energy: -152.054507 Hartree
O 2.198877 3.311298 -0.287323
H 1.315211 3.109568 -0.013210
H 2.716969 3.220792 0.499679
O -2.019600 -0.146022 3.483986
H -2.690098 0.483469 3.706208
H -2.193019 -0.876695 4.059524
6
)Structure 576 | Energy: -152.055276 Hartree
O 2.198877 3.311298 -0.287323
H 1.315211 3.109568 -0.013210
H 2.716969 3.220792 0.499679
O -0.843117 0.723211 2.335821
H -1.513615 1.352703 2.558044
H -1.016537 -0.007461 2.911359
6
)Structure 577 | Energy: -152.055169 Hartree
O 2.057261 3.642168 -0.098676
H 1.185816 3.380356 0.163502
H 2.585162 3.516671 0.676922
O -0.843117 0.723211 2.335821
H -1.513615 1.352703 2.558044
H -1.016537 -0.007461 2.911359
6
)Structure 578 | Energy: -152.054363 Hartree
O 3.622625 0.389073 1.809252
H 3.070961 1.131982 1.608125
H 3.313246 -0.297288 1.235515
O -1.145174 -0.769282 0.320142
H -1.217944 -1.695960 0.143554
H -0.733714 -0.730936 1.171278
6
)Structure 579 | Energy: -152.054293 Hartree
O 3.622625 0.389073 1.809252
H 3.070961 1.131982 1.608125
H 3.313246 -0.297288 1.235515
O -0.425050 -2.300692 0.195446
H -0.142549 -3.039574 -0.323646
H 0.108101 -2.352726 0.975346
6
)Structure 580 | Energy: -152.054293 Hartree
O -1.286070 -1.217463 4.708963
H -2.017968 -0.623064 4.621137
H -1.099577 -1.495236 3.823500
O -0.271884 0.263639 -0.086936
H 0.010617 -0.475244 -0.606028
H 0.261267 0.211605 0.692964
6
)Structure 581 | Energy: -152.054314 Hartree
O -2.657087 0.111979 4.270582
H -2.080444 -0.562482 4.601161
H -2.639716 -0.001799 3.331043
O -0.271884 0.263639 -0.086936
H 0.010617 -0.475244 -0.606028
H 0.261267 0.211605 0.692964
6
)Structure 582 | Energy: -152.054250 Hartree
O -2.657087 0.111979 4.270582
H -2.080444 -0.562482 4.601161
H -2.639716 -0.001799 3.331043
O -0.194263 1.434762 0.366875
H 0.088238 0.695879 -0.152217
H 0.338889 1.382728 1.146774
6
)Structure 583 | Energy: -152.054619 Hartree
O -0.198005 0.262747 0.202987
H 0.378639 -0.411715 0.533565
H -0.180634 0.148968 -0.736552
O -0.322656 -4.449125 -1.199927
H 0.378241 -4.925648 -0.779357
H -0.892871 -4.204570 -0.485610
6
)Structure 584 | Energy: -152.054448 Hartree
O -0.198005 0.262747 0.202987
H 0.378639 -0.411715 0.533565
H -0.180634 0.148968 -0.736552
O -0.289858 -4.484885 -1.080876
H -1.088653 -3.991103 -1.196272
H 0.053460 -4.571530 -1.958274
6
)Structure 585 | Energy: -152.054899 Hartree
O -0.198005 0.262747 0.202987
H 0.378639 -0.411715 0.533565
H -0.180634 0.148968 -0.736552
O -0.959662 -3.870697 -0.860499
H -1.758457 -3.376915 -0.975894
H -0.616343 -3.957342 -1.737896
6
)Structure 586 | Energy: -152.054515 Hartree
O 0.353552 0.439996 0.485431
H 0.930195 -0.234465 0.816010
H 0.370923 0.326218 -0.454108
O -0.959662 -3.870697 -0.860499
H -1.758457 -3.376915 -0.975894
H -0.616343 -3.957342 -1.737896
6
)Structure 587 | Energy: -152.054515 Hartree
O 3.549658 3.115574 0.286005
H 3.305784 2.858100 1.164032
H 2.742744 3.420698 -0.103572
O 0.151826 -0.135712 0.330931
H -0.646970 0.358069 0.215536
H 0.495144 -0.222357 -0.546466
6
)Structure 588 | Energy: -152.053893 Hartree
O 3.549658 3.115574 0.286005
H 3.305784 2.858100 1.164032
H 2.742744 3.420698 -0.103572
O 0.120435 -0.168568 0.308907
H -0.397854 0.618808 0.390312
H 0.744264 0.038386 -0.371687
6
)Structure 589 | Energy: -152.054100 Hartree
O 3.549658 3.115574 0.286005
H 3.305784 2.858100 1.164032
H 2.742744 3.420698 -0.103572
O 0.379721 0.395503 -0.860458
H -0.138568 1.182879 -0.779053
H 1.003551 0.602457 -1.541052
6
)Structure 590 | Energy: -152.054111 Hartree
O 3.549703 3.115572 0.286102
H 2.718646 2.884049 -0.104333
H 3.329168 3.394781 1.163250
O 0.379721 0.395503 -0.860458
H -0.138568 1.182879 -0.779053
H 1.003551 0.602457 -1.541052
6
)Structure 591 | Energy: -152.056730 Hartree
O -3.964300 -1.116599 0.618495
H -3.029216 -1.204277 0.497550
H -4.332211 -1.316361 -0.230456
O -0.035180 -0.331443 0.199730
H -0.553469 0.455932 0.281135
H 0.588649 -0.124489 -0.480864
6
)Structure 592 | Energy: -152.056810 Hartree
O -3.944702 -1.295895 0.008815
H -2.998803 -1.334771 -0.012658
H -4.204784 -1.365066 -0.898684
O -0.035180 -0.331443 0.199730
H -0.553469 0.455932 0.281135
H 0.588649 -0.124489 -0.480864
6
)Structure 593 | Energy: -152.055857 Hartree
O -3.664738 -1.233853 1.670024
H -2.881500 -1.220220 1.138000
H -4.332413 -0.853093 1.117563
O -0.035180 -0.331443 0.199730
H -0.553469 0.455932 0.281135
H 0.588649 -0.124489 -0.480864
6
)Structure 594 | Energy: -152.055858 Hartree
O -0.038521 -0.131464 0.361495
H 0.744718 -0.117832 -0.170529
H -0.706196 0.249296 -0.190966
O -2.758717 2.379458 -1.202913
H -1.930621 2.825769 -1.101553
H -3.189607 2.853592 -1.899140
6
)Structure 595 | Energy: -152.058672 Hartree
O -0.722890 0.349518 -0.759388
H 0.060348 0.363150 -1.291413
H -1.390566 0.730277 -1.311850
O -2.758717 2.379458 -1.202913
H -1.930621 2.825769 -1.101553
H -3.189607 2.853592 -1.899140
6
)Structure 596 | Energy: -152.057408 Hartree
O -0.706179 -0.120737 -1.238326
H 0.077059 -0.107105 -1.770350
H -1.373854 0.260022 -1.790787
O -2.758717 2.379458 -1.202913
H -1.930621 2.825769 -1.101553
H -3.189607 2.853592 -1.899140
6
)Structure 597 | Energy: -152.056683 Hartree
O -0.706179 -0.120737 -1.238326
H 0.077059 -0.107105 -1.770350
H -1.373854 0.260022 -1.790787
O -0.130772 -0.265966 -4.467314
H -0.271370 0.662993 -4.355615
H 0.682353 -0.317338 -4.948344
6
)Structure 598 | Energy: -152.056520 Hartree
O -0.099608 -0.238930 -4.427298
H 0.683631 -0.225297 -4.959322
H -0.767283 0.141830 -4.979759
O -0.737343 -0.147774 -1.278342
H -0.877942 0.781186 -1.166644
H 0.075782 -0.199146 -1.759372
6
)Structure 599 | Energy: -152.056520 Hartree
O -1.787592 1.878834 -1.657856
H -1.904861 2.818080 -1.630225
H -1.869295 1.657285 -2.574492
O -0.224175 -0.292529 0.123111
H -0.364774 0.636430 0.234809
H 0.588949 -0.343901 -0.357920
6
)Structure 600 | Energy: -152.053768 Hartree
O 1.448365 -2.941523 -0.359434
H 1.232815 -3.808943 -0.672194
H 2.356251 -2.822566 -0.599377
O -0.224175 -0.292529 0.123111
H -0.364774 0.636430 0.234809
H 0.588949 -0.343901 -0.357920
6
)Structure 601 | Energy: -152.050828 Hartree
O 0.026444 -3.419997 0.275723
H -0.548784 -4.141475 0.062932
H 0.897999 -3.769226 0.155669
O -0.224175 -0.292529 0.123111
H -0.364774 0.636430 0.234809
H 0.588949 -0.343901 -0.357920
6
)Structure 602 | Energy: -152.051864 Hartree
O -0.203126 -0.183515 0.121069
H -0.778354 -0.904994 -0.091722
H 0.668429 -0.532744 0.001016
O 0.005394 -3.529010 0.277764
H -0.135204 -2.600051 0.389462
H 0.818519 -3.580383 -0.203266
6
)Structure 603 | Energy: -152.061114 Hartree
O -0.203126 -0.183515 0.121069
H -0.778354 -0.904994 -0.091722
H 0.668429 -0.532744 0.001016
O -1.769531 0.967201 2.727553
H -1.437815 0.716720 1.877592
H -1.000827 0.974989 3.279128
6
)Structure 604 | Energy: -152.060670 Hartree
O -0.203126 -0.183515 0.121069
H -0.778354 -0.904994 -0.091722
H 0.668429 -0.532744 0.001016
O -0.600111 1.097701 2.929693
H -0.268395 0.847221 2.079731
H 0.168593 1.105490 3.481267
6
)Structure 605 | Energy: -152.054508 Hartree
O 2.640609 -1.282733 1.557261
H 2.674847 -0.570311 0.934380
H 3.546534 -1.520016 1.695020
O -0.997806 -2.834299 2.898687
H -0.883897 -3.426377 3.627849
H -0.465561 -3.211457 2.213364
6
)Structure 606 | Energy: -152.053458 Hartree
O -0.313388 -0.158380 0.161708
H -0.279150 0.554042 -0.461174
H 0.592537 -0.395663 0.299466
O 0.514706 -3.292570 3.113539
H 1.393264 -3.643395 3.129917
H 0.635461 -2.367695 3.272369
6
)Structure 607 | Energy: -152.054191 Hartree
O -0.547544 -1.735161 0.532804
H -0.513306 -1.022739 -0.090077
H 0.358381 -1.972445 0.670562
O 0.514706 -3.292570 3.113539
H 1.393264 -3.643395 3.129917
H 0.635461 -2.367695 3.272369
6
)Structure 608 | Energy: -152.054191 Hartree
O 0.258113 -1.417480 -2.949967
H 0.834043 -1.616970 -3.674679
H 0.502697 -0.541424 -2.687886
O -0.333104 -0.191350 -0.058402
H 0.545453 -0.542175 -0.042025
H -0.212349 0.733524 0.100427
6
)Structure 609 | Energy: -152.056277 Hartree
O 0.258113 -1.417480 -2.949967
H 0.834043 -1.616970 -3.674679
H 0.502697 -0.541424 -2.687886
O 0.014295 -1.368556 0.224988
H -0.032455 -2.267534 -0.066325
H 0.794492 -1.342343 0.759597
6
)Structure 610 | Energy: -152.054575 Hartree
O 0.258113 -1.417480 -2.949967
H 0.834043 -1.616970 -3.674679
H 0.502697 -0.541424 -2.687886
O 0.775913 -1.834252 0.762311
H 0.729163 -2.733230 0.470999
H 1.556110 -1.808039 1.296921
6
)Structure 611 | Energy: -152.054087 Hartree
O -0.273504 -0.225522 0.154210
H 0.302425 -0.425012 -0.570502
H -0.028921 0.650534 0.416292
O 3.720680 -1.025777 0.725449
H 3.768499 -0.973294 -0.218039
H 4.045650 -1.892263 0.922421
6
)Structure 612 | Energy: -152.054208 Hartree
O -0.273504 -0.225522 0.154210
H 0.302425 -0.425012 -0.570502
H -0.028921 0.650534 0.416292
O 3.790483 -1.098300 0.650048
H 3.214543 -0.397759 0.380333
H 3.491685 -1.316718 1.520803
6
)Structure 613 | Energy: -152.053910 Hartree
O -0.273504 -0.225522 0.154210
H 0.302425 -0.425012 -0.570502
H -0.028921 0.650534 0.416292
O 4.535636 -1.640875 1.024344
H 3.959696 -0.940335 0.754629
H 4.236837 -1.859294 1.895099
6
)Structure 614 | Energy: -152.055188 Hartree
O -0.273504 -0.225522 0.154210
H 0.302425 -0.425012 -0.570502
H -0.028921 0.650534 0.416292
O 1.926681 -3.790966 2.496041
H 1.197005 -3.217123 2.313047
H 2.599146 -3.208947 2.818911
6
)Structure 615 | Energy: -152.054671 Hartree
O -0.273454 -0.225606 0.154175
H -0.352319 0.679004 -0.114449
H 0.625027 -0.452139 -0.039206
O 1.926681 -3.790966 2.496041
H 1.197005 -3.217123 2.313047
H 2.599146 -3.208947 2.818911
6
)Structure 616 | Energy: -152.053610 Hartree
O -0.273454 -0.225606 0.154175
H -0.352319 0.679004 -0.114449
H 0.625027 -0.452139 -0.039206
O 4.020441 -2.420030 -0.320568
H 3.075331 -2.387848 -0.351248
H 4.224379 -2.267112 0.590599
6
)Structure 617 | Energy: -152.053178 Hartree
O -0.273205 -0.226026 0.154002
H -0.352071 0.678584 -0.114622
H 0.625276 -0.452558 -0.039380
O 1.826968 -4.236746 0.916281
H 1.781458 -3.459738 0.378324
H 2.213841 -3.932366 1.724293
6
)Structure 618 | Energy: -152.053183 Hartree
O -0.352331 -0.511513 -0.502646
H -0.431197 0.393097 -0.771270
H 0.546150 -0.738045 -0.696028
O 1.826968 -4.236746 0.916281
H 1.781458 -3.459738 0.378324
H 2.213841 -3.932366 1.724293
6
)Structure 619 | Energy: -152.053229 Hartree
O -0.352328 -0.511500 -0.502623
H -0.470065 0.228483 -1.081640
H 0.584970 -0.573631 -0.386036
O 1.826968 -4.236746 0.916281
H 1.781458 -3.459738 0.378324
H 2.213841 -3.932366 1.724293
6
)Structure 620 | Energy: -152.054277 Hartree
O 0.721496 0.565491 -0.277243
H 0.603760 1.305474 -0.856260
H 1.658795 0.503360 -0.160656
O 1.826968 -4.236746 0.916281
H 1.781458 -3.459738 0.378324
H 2.213841 -3.932366 1.724293
6
)Structure 621 | Energy: -152.054016 Hartree
O -0.077547 1.654526 0.093309
H -0.195283 2.394510 -0.485708
H 0.859751 1.592396 0.209896
O 1.826968 -4.236746 0.916281
H 1.781458 -3.459738 0.378324
H 2.213841 -3.932366 1.724293
6
)Structure 622 | Energy: -152.054141 Hartree
O 0.475609 2.803066 0.380766
H 0.357872 3.543050 -0.198252
H 1.412907 2.740936 0.497352
O 1.826968 -4.236746 0.916281
H 1.781458 -3.459738 0.378324
H 2.213841 -3.932366 1.724293
6
)Structure 623 | Energy: -152.054198 Hartree
O 0.479668 2.791818 0.361642
H 0.325677 3.632255 -0.046588
H 1.380667 2.830263 0.649225
O 1.826968 -4.236746 0.916281
H 1.781458 -3.459738 0.378324
H 2.213841 -3.932366 1.724293
6
)Structure 624 | Energy: -152.054244 Hartree
O 0.479668 2.791818 0.361642
H 0.325677 3.632255 -0.046588
H 1.380667 2.830263 0.649225
O 1.826967 -4.236746 0.916280
H 2.705690 -3.926943 1.080834
H 1.289623 -3.465169 1.021794
6
)Structure 625 | Energy: -152.054308 Hartree
O 1.345008 3.154215 0.726136
H 1.191017 3.994652 0.317907
H 2.246008 3.192660 1.013719
O 1.826967 -4.236746 0.916280
H 2.705690 -3.926943 1.080834
H 1.289623 -3.465169 1.021794
6
)Structure 626 | Energy: -152.054332 Hartree
O 1.345008 3.154215 0.726136
H 1.191017 3.994652 0.317907
H 2.246008 3.192660 1.013719
O 1.838118 -4.239350 0.916966
H 2.644485 -3.781577 1.105182
H 1.173843 -3.569202 0.986553
6
)Structure 627 | Energy: -152.054327 Hartree
O 1.345008 3.154215 0.726136
H 1.191017 3.994652 0.317907
H 2.246008 3.192660 1.013719
O 1.838487 -4.238579 0.913771
H 2.641557 -3.787692 1.130542
H 1.170914 -3.575317 1.011913
6
)Structure 628 | Energy: -152.054180 Hartree
O 1.388689 3.211503 0.783741
H 2.107492 3.271156 0.170176
H 0.636239 3.006883 0.247148
O 1.838487 -4.238579 0.913771
H 2.641557 -3.787692 1.130542
H 1.170914 -3.575317 1.011913
6
)Structure 629 | Energy: -152.054231 Hartree
O 0.845806 2.511718 0.839193
H 1.564609 2.571371 0.225628
H 0.093356 2.307098 0.302600
O 1.838487 -4.238579 0.913771
H 2.641557 -3.787692 1.130542
H 1.170914 -3.575317 1.011913
6
)Structure 630 | Energy: -152.053909 Hartree
O 1.663073 2.055062 0.146569
H 1.314013 1.195079 -0.041275
H 2.160186 1.939442 0.943746
O -2.441706 -3.680385 0.958103
H -3.232222 -3.198179 1.152456
H -1.789079 -3.282808 1.515966
6
)Structure 631 | Energy: -152.053738 Hartree
O 1.663073 2.055062 0.146569
H 1.314013 1.195079 -0.041275
H 2.160186 1.939442 0.943746
O -1.403443 -4.225815 -0.159076
H -2.193959 -3.743610 0.035276
H -0.750815 -3.828238 0.398786
6
)Structure 632 | Energy: -152.053827 Hartree
O 2.410843 2.461613 0.454307
H 2.061784 1.601630 0.266464
H 2.907957 2.345993 1.251485
O -1.403443 -4.225815 -0.159076
H -2.193959 -3.743610 0.035276
H -0.750815 -3.828238 0.398786
6
)Structure 633 | Energy: -152.054028 Hartree
O 2.373053 2.449409 0.505481
H 2.299432 1.507633 0.439623
H 3.270114 2.633696 0.266104
O -1.403443 -4.225815 -0.159076
H -2.193959 -3.743610 0.035276
H -0.750815 -3.828238 0.398786
6
)Structure 634 | Energy: -152.054140 Hartree
O 2.565267 1.406307 -0.638075
H 2.491645 0.464531 -0.703933
H 3.462327 1.590595 -0.877451
O -1.403443 -4.225815 -0.159076
H -2.193959 -3.743610 0.035276
H -0.750815 -3.828238 0.398786
6
)Structure 635 | Energy: -152.054335 Hartree
O 2.548929 1.362789 -0.637421
H 3.101385 0.627577 -0.863152
H 3.111893 2.118261 -0.728608
O -1.403443 -4.225815 -0.159076
H -2.193959 -3.743610 0.035276
H -0.750815 -3.828238 0.398786
6
)Structure 636 | Energy: -152.054257 Hartree
O 2.610972 1.392403 -0.596847
H 2.481572 1.799239 -1.442091
H 2.746967 0.476570 -0.793661
O -1.403443 -4.225815 -0.159076
H -2.193959 -3.743610 0.035276
H -0.750815 -3.828238 0.398786
6
)Structure 637 | Energy: -152.054301 Hartree
O 2.610972 1.392403 -0.596847
H 2.481572 1.799239 -1.442091
H 2.746967 0.476570 -0.793661
O -1.403444 -4.225816 -0.159076
H -1.917904 -3.439507 -0.269799
H -1.026866 -4.132336 0.703857
6
)Structure 638 | Energy: -152.054367 Hartree
O 2.610972 1.392403 -0.596847
H 2.481572 1.799239 -1.442091
H 2.746967 0.476570 -0.793661
O -4.178077 0.696829 0.378558
H -3.927299 1.606220 0.305567
H -3.789774 0.418008 1.195063
6
)Structure 639 | Energy: -152.053828 Hartree
O 2.673667 1.357352 -0.671981
H 2.182074 2.160100 -0.568878
H 2.051362 0.672038 -0.474341
O -4.178077 0.696829 0.378558
H -3.927299 1.606220 0.305567
H -3.789774 0.418008 1.195063
6
)Structure 640 | Energy: -152.053730 Hartree
O 2.673667 1.357352 -0.671981
H 2.182074 2.160100 -0.568878
H 2.051362 0.672038 -0.474341
O -4.182055 0.720625 0.470591
H -3.841652 0.099294 -0.156532
H -3.812275 1.547236 0.196405
6
)Structure 641 | Energy: -152.053738 Hartree
O 2.673660 1.357428 -0.672037
H 2.277815 1.172171 0.168013
H 1.955737 1.658764 -1.210335
O -4.182055 0.720625 0.470591
H -3.841652 0.099294 -0.156532
H -3.812275 1.547236 0.196405
6
)Structure 642 | Energy: -152.053597 Hartree
O -4.079999 0.725616 0.403276
H -4.475844 0.540360 1.243327
H -4.797922 1.026952 -0.135022
O 2.571604 1.352437 -0.604722
H 2.912006 0.731105 -1.231845
H 2.941383 2.179048 -0.878908
6
)Structure 643 | Energy: -152.054382 Hartree
O -4.162461 0.753753 0.362395
H -3.283351 0.510029 0.616288
H -4.681571 0.610696 1.140881
O 2.571604 1.352437 -0.604722
H 2.912006 0.731105 -1.231845
H 2.941383 2.179048 -0.878908
6
)Structure 644 | Energy: -152.053709 Hartree
O -4.162461 0.753753 0.362395
H -3.283351 0.510029 0.616288
H -4.681571 0.610696 1.140881
O 2.646379 1.411795 -0.682262
H 2.202956 1.415502 0.153545
H 2.463600 0.552515 -1.033587
6
)Structure 645 | Energy: -152.053514 Hartree
O -4.162461 0.753753 0.362395
H -3.283351 0.510029 0.616288
H -4.681571 0.610696 1.140881
O 1.773889 2.379920 0.561505
H 1.330466 2.383627 1.397312
H 1.591110 1.520639 0.210179
6
)Structure 646 | Energy: -152.054160 Hartree
O -4.162461 0.753753 0.362395
H -3.283351 0.510029 0.616288
H -4.681571 0.610696 1.140881
O 1.682237 2.351041 0.562375
H 2.057810 2.612809 1.390405
H 2.318466 1.749826 0.203272
6
)Structure 647 | Energy: -152.053843 Hartree
O 1.718708 2.353689 0.530848
H 2.597818 2.109965 0.784742
H 1.199598 2.210632 1.309335
O -4.198932 0.751104 0.393922
H -3.823359 1.012873 1.221951
H -3.562703 0.149890 0.034819
6
)Structure 648 | Energy: -152.053916 Hartree
O 3.434279 2.302859 -0.480049
H 4.313390 2.059135 -0.226156
H 2.915170 2.159801 0.298437
O -4.198932 0.751104 0.393922
H -3.823359 1.012873 1.221951
H -3.562703 0.149890 0.034819
6
)Structure 649 | Energy: -152.053892 Hartree
O 3.434285 2.302824 -0.480064
H 4.242907 2.509843 -0.032883
H 2.985567 1.709641 0.105399
O -4.198932 0.751104 0.393922
H -3.823359 1.012873 1.221951
H -3.562703 0.149890 0.034819
6
)Structure 650 | Energy: -152.053793 Hartree
O 3.511042 2.312891 -0.420913
H 3.155323 1.731675 0.236620
H 2.854856 2.328020 -1.102948
O -4.198932 0.751104 0.393922
H -3.823359 1.012873 1.221951
H -3.562703 0.149890 0.034819
6
)Structure 651 | Energy: -152.053730 Hartree
O -4.085698 0.763786 0.421531
H -4.441417 0.182569 1.079064
H -4.741885 0.778914 -0.260504
O 3.397809 2.300210 -0.448522
H 3.773381 2.561979 0.379507
H 4.034038 1.698995 -0.807625
6
)Structure 652 | Energy: -152.054106 Hartree
O -4.176030 0.779594 0.448793
H -3.725037 0.057203 0.862863
H -4.024521 0.653375 -0.477002
O 3.397809 2.300210 -0.448522
H 3.773381 2.561979 0.379507
H 4.034038 1.698995 -0.807625
6
)Structure 653 | Energy: -152.053825 Hartree
O -4.081527 0.737628 0.442181
H -4.402285 0.924763 -0.428907
H -4.847232 0.451901 0.919713
O 3.397809 2.300210 -0.448522
H 3.773381 2.561979 0.379507
H 4.034038 1.698995 -0.807625
6
)Structure 654 | Energy: -152.053782 Hartree
O -4.079214 0.740849 0.432505
H -4.536155 0.885893 -0.384113
H -4.750076 0.439639 1.028490
O 3.397809 2.300210 -0.448522
H 3.773381 2.561979 0.379507
H 4.034038 1.698995 -0.807625
6
)Structure 655 | Energy: -152.053749 Hartree
O -4.079214 0.740849 0.432505
H -4.536155 0.885893 -0.384113
H -4.750076 0.439639 1.028490
O 3.317225 2.646340 0.301738
H 3.692797 2.908108 1.129767
H 3.953454 2.045125 -0.057365
6
)Structure 656 | Energy: -152.053827 Hartree
O -4.113247 0.753243 0.366130
H -5.027961 0.540532 0.487584
H -3.718094 0.588288 1.210302
O 3.317225 2.646340 0.301738
H 3.692797 2.908108 1.129767
H 3.953454 2.045125 -0.057365
6
)Structure 657 | Energy: -152.053880 Hartree
O -4.113247 0.753243 0.366130
H -5.027961 0.540532 0.487584
H -3.718094 0.588288 1.210302
O 3.361056 2.600677 0.269841
H 2.831743 3.213721 0.758937
H 4.118828 2.464267 0.819727
6
)Structure 658 | Energy: -152.053257 Hartree
O -2.814556 -3.667096 0.951835
H -2.702037 -3.082361 1.688124
H -2.949821 -3.092315 0.212030
O 0.847021 -0.412428 -0.011653
H 0.995136 -0.473144 0.920862
H -0.011049 -0.792627 -0.131510
6
)Structure 659 | Energy: -152.053256 Hartree
O 0.007582 -0.386506 0.001172
H 0.120101 0.198230 0.737461
H -0.127683 0.188276 -0.738633
O 3.776662 2.871987 -0.321961
H 3.612268 2.800154 -1.250952
H 3.005511 2.494879 0.075931
6
)Structure 660 | Energy: -152.053256 Hartree
O -4.578876 -0.794568 0.519705
H -4.045323 -1.078548 1.248660
H -4.216442 -1.246684 -0.228770
O 0.311848 0.149647 0.177033
H 0.147454 0.077814 -0.751958
H -0.459302 -0.227461 0.574925
6
)Structure 661 | Energy: -152.053031 Hartree
O -4.578876 -0.794568 0.519705
H -4.045323 -1.078548 1.248660
H -4.216442 -1.246684 -0.228770
O 0.294203 0.172728 0.174275
H 0.287484 -0.105355 -0.730067
H -0.319270 -0.410634 0.596816
6
)Structure 662 | Energy: -152.053031 Hartree
O -0.298662 0.245365 0.006507
H 0.234891 -0.038614 0.735462
H 0.063771 -0.206751 -0.741968
O -0.220473 -4.656186 0.884326
H -0.136388 -4.823126 -0.043182
H 0.285972 -3.868791 1.021159
6
)Structure 663 | Energy: -152.053031 Hartree
O 4.498341 1.447784 0.402892
H 3.862144 1.959492 0.882587
H 4.183793 1.456165 -0.489840
O -0.196844 -0.206818 0.263558
H -0.112758 -0.373758 -0.663950
H 0.309602 0.580577 0.400391
6
)Structure 664 | Energy: -152.052679 Hartree
O 4.058959 0.612757 0.464686
H 3.422762 1.124465 0.944380
H 3.744411 0.621138 -0.428046
O -0.196844 -0.206818 0.263558
H -0.112758 -0.373758 -0.663950
H 0.309602 0.580577 0.400391
6
)Structure 665 | Energy: -152.053210 Hartree
O 3.968670 -0.956010 -0.684054
H 3.699855 -0.536486 0.121201
H 3.541828 -0.455956 -1.365034
O -0.196844 -0.206818 0.263558
H -0.112758 -0.373758 -0.663950
H 0.309602 0.580577 0.400391
6
)Structure 666 | Energy: -152.053210 Hartree
O 3.955055 -0.986773 -0.718363
H 3.251363 -1.549859 -1.008964
H 3.690870 -0.119193 -0.989459
O -0.196844 -0.206818 0.263558
H -0.112758 -0.373758 -0.663950
H 0.309602 0.580577 0.400391
6
)Structure 667 | Energy: -152.054973 Hartree
O 3.955055 -0.986773 -0.718363
H 3.251363 -1.549859 -1.008964
H 3.690870 -0.119193 -0.989459
O -0.099113 -0.163790 0.220140
H -0.598299 -0.804650 -0.264962
H -0.756032 0.328528 0.690545
6
)Structure 668 | Energy: -152.053376 Hartree
O 3.955055 -0.986773 -0.718363
H 3.251363 -1.549859 -1.008964
H 3.690870 -0.119193 -0.989459
O -0.214663 -0.143159 0.248122
H 0.703335 0.067952 0.337129
H -0.223666 -0.871539 -0.355685
6
)Structure 669 | Energy: -152.054350 Hartree
O 3.955055 -0.986773 -0.718363
H 3.251363 -1.549859 -1.008964
H 3.690870 -0.119193 -0.989459
O 0.479516 -1.951026 1.689085
H 1.353805 -1.596564 1.617064
H 0.254894 -2.186261 0.800597
6
)Structure 670 | Energy: -152.054386 Hartree
O 4.377592 -0.727022 0.260538
H 3.645795 -0.918153 -0.309234
H 4.297323 0.197656 0.446300
O 0.479516 -1.951026 1.689085
H 1.353805 -1.596564 1.617064
H 0.254894 -2.186261 0.800597
6
)Structure 671 | Energy: -152.054365 Hartree
O 4.035144 0.052878 1.114830
H 3.303347 -0.138253 0.545057
H 3.954874 0.977556 1.300592
O 0.479516 -1.951026 1.689085
H 1.353805 -1.596564 1.617064
H 0.254894 -2.186261 0.800597
6
)Structure 672 | Energy: -152.054365 Hartree
O 3.762376 0.952739 -0.093320
H 3.174018 0.418882 -0.608616
H 4.329713 0.330057 0.338395
O -0.216555 -0.039742 0.320170
H 0.657733 0.314720 0.248148
H -0.441178 -0.274977 -0.568318
6
)Structure 673 | Energy: -152.057317 Hartree
O 3.751089 0.841800 -0.142401
H 3.682171 1.779491 -0.255021
H 4.000700 0.730276 0.763821
O -0.216555 -0.039742 0.320170
H 0.657733 0.314720 0.248148
H -0.441178 -0.274977 -0.568318
6
)Structure 674 | Energy: -152.057413 Hartree
O -0.060231 -0.275389 -0.264534
H -0.129149 0.662302 -0.377154
H 0.189380 -0.386913 0.641688
O 2.832602 -1.593833 -2.652838
H 2.185115 -1.329592 -2.015541
H 3.647027 -1.575390 -2.171618
6
)Structure 675 | Energy: -152.058251 Hartree
O -0.060231 -0.275389 -0.264534
H -0.129149 0.662302 -0.377154
H 0.189380 -0.386913 0.641688
O 2.906354 -1.584875 -2.582608
H 2.393793 -1.727616 -3.364987
H 2.267757 -1.319556 -1.936853
6
)Structure 676 | Energy: -152.059188 Hartree
O 0.501748 0.103523 -0.207787
H 0.432830 1.041214 -0.320406
H 0.751359 -0.008001 0.698435
O 2.906354 -1.584875 -2.582608
H 2.393793 -1.727616 -3.364987
H 2.267757 -1.319556 -1.936853
6
)Structure 677 | Energy: -152.056733 Hartree
O 2.831833 -1.624243 -2.634658
H 2.762915 -0.686551 -2.747277
H 3.081443 -1.735767 -1.728436
O 0.576270 0.142891 -0.155738
H 0.063709 0.000150 -0.938116
H -0.062328 0.408210 0.490018
6
)Structure 678 | Energy: -152.056993 Hartree
O 2.488128 -0.683390 -3.400103
H 2.419210 0.254302 -3.512722
H 2.737739 -0.794914 -2.493881
O 0.576270 0.142891 -0.155738
H 0.063709 0.000150 -0.938116
H -0.062328 0.408210 0.490018
6
)Structure 679 | Energy: -152.054071 Hartree
O 2.488128 -0.683390 -3.400103
H 2.419210 0.254302 -3.512722
H 2.737739 -0.794914 -2.493881
O 1.410464 1.179483 -0.184147
H 2.340498 1.130610 -0.351051
H 1.353151 1.574802 0.673547
6
)Structure 680 | Energy: -152.055385 Hartree
O 2.520910 -0.591781 -3.315233
H 3.011192 -1.114225 -3.934405
H 1.625445 -0.880407 -3.419250
O 1.410464 1.179483 -0.184147
H 2.340498 1.130610 -0.351051
H 1.353151 1.574802 0.673547
6
)Structure 681 | Energy: -152.054956 Hartree
O 0.135061 0.270356 0.241063
H 0.625343 -0.252087 -0.378109
H -0.760404 -0.018269 0.137046
O -3.202777 -2.421512 -0.607852
H -2.402831 -2.731050 -1.007205
H -3.812581 -3.133245 -0.737373
6
)Structure 682 | Energy: -152.055831 Hartree
O 0.135061 0.270356 0.241063
H 0.625343 -0.252087 -0.378109
H -0.760404 -0.018269 0.137046
O -2.283843 -3.360821 -0.018374
H -1.953852 -3.213659 0.856074
H -2.888376 -4.081380 0.084265
6
)Structure 683 | Energy: -152.055833 Hartree
O 0.135061 0.270356 0.241063
H 0.625343 -0.252087 -0.378109
H -0.760404 -0.018269 0.137046
O 0.652775 -3.854486 -1.108250
H 1.015844 -3.712884 -0.246078
H 0.942745 -4.725417 -1.337591
6
)Structure 684 | Energy: -152.055833 Hartree
O 0.135061 0.270356 0.241063
H 0.625343 -0.252087 -0.378109
H -0.760404 -0.018269 0.137046
O 0.078406 -1.058320 -3.922398
H 0.281411 -0.137492 -3.844465
H 0.228506 -1.248331 -4.837038
6
)Structure 685 | Energy: -152.054778 Hartree
O 0.135061 0.270356 0.241063
H 0.625343 -0.252087 -0.378109
H -0.760404 -0.018269 0.137046
O 0.036742 -1.001225 -3.954407
H 0.334785 -1.664010 -4.560292
H 0.836410 -0.628022 -3.613157
6
)Structure 686 | Energy: -152.055178 Hartree
O 0.135101 0.270314 0.241088
H 0.104951 0.299853 -0.704912
H -0.240645 -0.569537 0.463452
O 0.036742 -1.001225 -3.954407
H 0.334785 -1.664010 -4.560292
H 0.836410 -0.628022 -3.613157
6
)Structure 687 | Energy: -152.056137 Hartree
O -1.990879 0.119423 -0.263844
H -1.354365 0.102516 -0.964746
H -2.792021 -0.186354 -0.664660
O 0.036742 -1.001225 -3.954407
H 0.334785 -1.664010 -4.560292
H 0.836410 -0.628022 -3.613157
6
)Structure 688 | Energy: -152.055872 Hartree
O -1.990802 0.119484 -0.263874
H -2.355171 -0.695206 -0.580440
H -1.792433 0.610397 -1.048498
O 0.036742 -1.001225 -3.954407
H 0.334785 -1.664010 -4.560292
H 0.836410 -0.628022 -3.613157
6
)Structure 689 | Energy: -152.055873 Hartree
O 0.055333 0.107925 0.367064
H -0.309035 -0.706764 0.050497
H 0.253702 0.598839 -0.417561
O 1.375262 -2.654594 -2.733377
H 1.880826 -2.835889 -3.512317
H 1.784748 -3.186690 -2.066747
6
)Structure 690 | Energy: -152.055674 Hartree
O 0.055333 0.107925 0.367064
H -0.309035 -0.706764 0.050497
H 0.253702 0.598839 -0.417561
O 0.333086 -4.131935 -0.486707
H 0.845475 -4.925929 -0.534040
H -0.283633 -4.299750 0.210930
6
)Structure 691 | Energy: -152.052686 Hartree
O 0.270017 0.088675 0.262055
H -0.554515 0.527825 0.107157
H 0.284498 -0.616501 -0.369212
O 1.152060 3.043733 2.280948
H 1.895684 2.866788 2.838554
H 0.816739 3.867894 2.602693
6
)Structure 692 | Energy: -152.052830 Hartree
O 0.263673 0.080945 0.269449
H -0.504205 0.589129 0.048516
H 0.334877 -0.555113 -0.427932
O 1.152060 3.043733 2.280948
H 1.895684 2.866788 2.838554
H 0.816739 3.867894 2.602693
6
)Structure 693 | Energy: -152.056839 Hartree
O 0.263673 0.080945 0.269449
H -0.504205 0.589129 0.048516
H 0.334877 -0.555113 -0.427932
O 1.205839 3.122398 2.368821
H 1.468897 2.242511 2.141201
H 0.389945 3.243606 1.905328
6
)Structure 694 | Energy: -152.057819 Hartree
O 1.213888 3.087102 2.381533
H 0.446010 3.595286 2.160601
H 1.285091 2.451044 1.684152
O 0.255625 0.116241 0.256737
H 0.518683 -0.763645 0.029117
H -0.560270 0.237449 -0.206756
6
)Structure 695 | Energy: -152.057819 Hartree
O 2.540021 1.927138 2.660683
H 3.121454 1.183398 2.734736
H 2.077976 1.785841 1.846723
O 0.184279 0.252893 0.230370
H 0.447337 -0.626994 0.002751
H -0.631616 0.374101 -0.233122
6
)Structure 696 | Energy: -152.058246 Hartree
O 1.215154 2.128283 3.343460
H 2.006586 1.625516 3.475967
H 1.001893 1.997196 2.430598
O 0.184279 0.252893 0.230370
H 0.447337 -0.626994 0.002751
H -0.631616 0.374101 -0.233122
6
)Structure 697 | Energy: -152.056729 Hartree
O 1.211881 2.600070 3.544591
H 2.003313 2.097303 3.677098
H 0.998620 2.468983 2.631729
O 0.184279 0.252893 0.230370
H 0.447337 -0.626994 0.002751
H -0.631616 0.374101 -0.233122
6
)Structure 698 | Energy: -152.056729 Hartree
O 2.485610 3.500023 1.537766
H 3.162801 2.916538 1.850267
H 1.703539 2.967043 1.521093
O 0.184279 0.252893 0.230370
H 0.447337 -0.626994 0.002751
H -0.631616 0.374101 -0.233122
6
)Structure 699 | Energy: -152.052360 Hartree
O 0.034960 0.372155 -0.098609
H 0.712151 -0.211330 0.213891
H -0.747111 -0.160825 -0.115282
O -1.795511 2.156355 -2.739534
H -1.394558 2.749932 -3.357687
H -2.640495 1.966725 -3.120640
6
)Structure 700 | Energy: -152.055361 Hartree
O -1.044382 0.831167 -3.828778
H -0.921816 0.752247 -4.764431
H -1.729322 0.209823 -3.626862
O 0.148011 -0.134649 0.333087
H 0.548964 0.458928 -0.285067
H -0.696974 -0.324279 -0.048020
6
)Structure 701 | Energy: -152.055361 Hartree
O -1.689941 2.100225 -3.028904
H -2.016467 2.904139 -3.408117
H -2.464365 1.654790 -2.716116
O 0.148011 -0.134649 0.333087
H 0.548964 0.458928 -0.285067
H -0.696974 -0.324279 -0.048020
6
)Structure 702 | Energy: -152.055361 Hartree
O -1.044382 0.831167 -3.828778
H -0.921816 0.752247 -4.764431
H -1.729322 0.209823 -3.626862
O 0.148011 -0.134649 0.333087
H 0.548964 0.458928 -0.285067
H -0.696974 -0.324279 -0.048020
6
)Structure 703 | Energy: -152.055363 Hartree
O 0.187458 0.233421 0.244579
H 0.310024 0.154501 -0.691074
H -0.497482 -0.387922 0.446495
O 4.476124 1.348671 0.050335
H 3.903867 1.288134 0.801379
H 3.885441 1.329963 -0.688546
6
)Structure 704 | Energy: -152.055712 Hartree
O 0.486286 -0.281963 -0.554483
H 0.608851 -0.360883 -1.490137
H -0.198654 -0.903307 -0.352568
O 4.476124 1.348671 0.050335
H 3.903867 1.288134 0.801379
H 3.885441 1.329963 -0.688546
6
)Structure 705 | Energy: -152.055234 Hartree
O 0.486286 -0.281963 -0.554483
H 0.608851 -0.360883 -1.490137
H -0.198654 -0.903307 -0.352568
O 3.293845 -3.669857 -0.275553
H 2.870728 -3.380071 0.519561
H 3.219558 -2.927248 -0.857114
6
)Structure 706 | Energy: -152.055243 Hartree
O 0.486286 -0.281963 -0.554483
H 0.608851 -0.360883 -1.490137
H -0.198654 -0.903307 -0.352568
O 3.293845 -3.669857 -0.275552
H 2.577886 -3.478354 0.312614
H 3.512396 -2.828966 -0.650169
6
)Structure 707 | Energy: -152.055020 Hartree
O 0.187458 0.233421 0.244579
H 0.310024 0.154501 -0.691074
H -0.497482 -0.387922 0.446495
O -2.929555 3.169094 -0.754614
H -3.108342 2.240408 -0.726569
H -2.215215 3.282340 -0.144617
6
)Structure 708 | Energy: -152.055610 Hartree
O 0.187458 0.233421 0.244579
H 0.310024 0.154501 -0.691074
H -0.497482 -0.387922 0.446495
O -2.946948 3.132908 -0.762757
H -2.678037 2.319445 -0.361290
H -2.369452 3.777652 -0.380651
6
)Structure 709 | Energy: -152.055850 Hartree
O 0.187458 0.233421 0.244579
H 0.310024 0.154501 -0.691074
H -0.497482 -0.387922 0.446495
O -2.946948 3.132908 -0.762756
H -2.159489 2.616992 -0.857359
H -2.887991 3.480110 0.115410
6
)Structure 710 | Energy: -152.055850 Hartree
O 0.187458 0.233421 0.244579
H 0.310024 0.154501 -0.691074
H -0.497482 -0.387922 0.446495
O 3.062752 -3.066164 0.547358
H 2.619821 -2.312919 0.184530
H 3.223763 -2.824231 1.447772
6
)Structure 711 | Energy: -152.055962 Hartree
O 0.187458 0.233421 0.244579
H 0.310024 0.154501 -0.691074
H -0.497482 -0.387922 0.446495
O -2.918066 3.171401 -0.713103
H -2.080371 2.734003 -0.666626
H -3.230001 3.162220 0.180101
6
)Structure 712 | Energy: -152.054576 Hartree
O 0.187441 0.233471 0.244545
H 0.539253 -0.497592 -0.243791
H -0.726433 0.263377 -0.000244
O -2.918066 3.171401 -0.713103
H -2.080371 2.734003 -0.666626
H -3.230001 3.162220 0.180101
6
)Structure 713 | Energy: -152.056547 Hartree
O 0.187441 0.233471 0.244545
H 0.539253 -0.497592 -0.243791
H -0.726433 0.263377 -0.000244
O -0.186004 2.827344 3.682508
H 0.156297 2.409369 2.905761
H -0.440702 2.104338 4.237118
6
)Structure 714 | Energy: -152.057552 Hartree
O 0.260335 1.078261 0.131022
H 0.612148 0.347197 -0.357315
H -0.653538 1.108166 -0.113767
O -0.186004 2.827344 3.682508
H 0.156297 2.409369 2.905761
H -0.440702 2.104338 4.237118
6
)Structure 715 | Energy: -152.056821 Hartree
O -0.521814 -0.651847 3.666456
H -0.999684 -0.353504 4.427594
H 0.387884 -0.598211 3.922493
O -0.029201 0.380327 0.074046
H 0.313100 -0.037648 -0.702702
H -0.283899 -0.342679 0.628656
6
)Structure 716 | Energy: -152.057245 Hartree
O -0.749022 -0.747566 3.600349
H -1.378943 -0.571636 4.285146
H 0.081210 -0.481137 3.968738
O -0.029201 0.380327 0.074046
H 0.313100 -0.037648 -0.702702
H -0.283899 -0.342679 0.628656
6
)Structure 717 | Energy: -152.057577 Hartree
O -0.749022 -0.747566 3.600349
H -1.378943 -0.571636 4.285146
H 0.081210 -0.481137 3.968738
O -1.143302 0.879435 0.233291
H -0.801001 0.461460 -0.543457
H -1.398000 0.156429 0.787901
6
)Structure 718 | Energy: -152.056554 Hartree
O -0.749022 -0.747566 3.600349
H -1.378943 -0.571636 4.285146
H 0.081210 -0.481137 3.968738
O -2.046555 0.883981 0.566611
H -1.704254 0.466006 -0.210137
H -2.301253 0.160975 1.121221
6
)Structure 719 | Energy: -152.055859 Hartree
O -0.752048 -0.706368 3.598140
H -1.354948 -0.898359 4.302661
H 0.105238 -0.808307 3.986277
O -2.046555 0.883981 0.566611
H -1.704254 0.466006 -0.210137
H -2.301253 0.160975 1.121221
6
)Structure 720 | Energy: -152.053139 Hartree
O 1.439718 1.072588 1.591157
H 1.635962 1.150519 2.514257
H 2.255434 1.279438 1.157797
O -2.046555 0.883981 0.566611
H -1.704254 0.466006 -0.210137
H -2.301253 0.160975 1.121221
6
)Structure 721 | Energy: -152.054365 Hartree
O -3.171989 -0.629503 -1.739007
H -3.479905 -0.021335 -2.396288
H -3.779361 -1.354088 -1.784368
O -0.029201 0.380327 0.074046
H 0.313100 -0.037648 -0.702702
H -0.283899 -0.342679 0.628656
6
)Structure 722 | Energy: -152.057782 Hartree
O -3.171989 -0.629503 -1.739007
H -3.479905 -0.021335 -2.396288
H -3.779361 -1.354088 -1.784368
O -0.029200 0.380327 0.074045
H -0.715593 -0.217629 -0.183876
H 0.744777 -0.162701 0.109839
6
)Structure 723 | Energy: -152.058891 Hartree
O -2.586216 -2.219617 -0.963010
H -3.132685 -1.991079 -1.701821
H -2.853939 -3.098111 -0.733765
O -0.029200 0.380327 0.074045
H -0.715593 -0.217629 -0.183876
H 0.744777 -0.162701 0.109839
6
)Structure 724 | Energy: -152.058749 Hartree
O -2.593509 -2.204893 -0.979839
H -3.252909 -2.293874 -1.653613
H -2.617953 -3.029020 -0.514868
O -0.029200 0.380327 0.074045
H -0.715593 -0.217629 -0.183876
H 0.744777 -0.162701 0.109839
6
)Structure 725 | Energy: -152.058579 Hartree
O -2.593509 -2.204893 -0.979839
H -3.252909 -2.293874 -1.653613
H -2.617953 -3.029020 -0.514868
O -0.006270 0.366982 0.098755
H -0.872540 0.001633 -0.007577
H 0.537774 -0.170150 -0.458655
6
)Structure 726 | Energy: -152.057424 Hartree
O 0.013964 0.367577 0.073300
H -0.645436 0.278595 -0.600475
H -0.010480 -0.456550 0.538271
O -2.613743 -2.205487 -0.954383
H -3.480013 -2.570836 -1.060716
H -2.069699 -2.742619 -1.511794
6
)Structure 727 | Energy: -152.056082 Hartree
O 0.734419 -0.676749 0.142902
H 0.075019 -0.765730 -0.530873
H 0.709975 -1.500876 0.607873
O -2.613743 -2.205487 -0.954383
H -3.480013 -2.570836 -1.060716
H -2.069699 -2.742619 -1.511794
6
)Structure 728 | Energy: -152.053819 Hartree
O -3.200546 -0.900076 -3.603395
H -3.130272 -0.006030 -3.907438
H -2.823489 -0.884860 -2.735306
O 2.752463 1.230628 -2.496422
H 3.357904 1.935037 -2.676585
H 1.924383 1.552922 -2.821401
6
)Structure 729 | Energy: -152.053799 Hartree
O -3.200546 -0.900076 -3.603395
H -3.130272 -0.006030 -3.907438
H -2.823489 -0.884860 -2.735306
O 2.752464 1.230628 -2.496422
H 1.909801 1.625047 -2.668358
H 3.372463 1.862907 -2.829628
6
)Structure 730 | Energy: -152.054142 Hartree
O -1.859017 -3.152623 -3.133743
H -2.249866 -2.290440 -3.109733
H -1.252594 -3.157571 -2.406964
O 2.752464 1.230628 -2.496422
H 1.909801 1.625047 -2.668358
H 3.372463 1.862907 -2.829628
6
)Structure 731 | Energy: -152.054260 Hartree
O -1.859017 -3.152623 -3.133743
H -2.249866 -2.290440 -3.109733
H -1.252594 -3.157571 -2.406964
O 0.007843 0.560259 1.748914
H -0.129575 1.058047 0.956113
H 0.638317 1.072839 2.233645
6
)Structure 732 | Energy: -152.054486 Hartree
O -1.859017 -3.152623 -3.133743
H -2.249866 -2.290440 -3.109733
H -1.252594 -3.157571 -2.406964
O -0.431291 -0.709191 0.672841
H -0.568709 -0.211403 -0.119960
H 0.199183 -0.196611 1.157572
6
)Structure 733 | Energy: -152.054408 Hartree
O -1.859017 -3.152623 -3.133743
H -2.249866 -2.290440 -3.109733
H -1.252594 -3.157571 -2.406964
O 0.723962 -0.844106 0.700183
H 0.586544 -0.346317 -0.092618
H 1.354436 -0.331525 1.184915
6
)Structure 734 | Energy: -152.053550 Hartree
O -1.768057 -1.549234 -3.837051
H -2.158905 -0.687051 -3.813041
H -1.161633 -1.554182 -3.110272
O 0.723962 -0.844106 0.700183
H 0.586544 -0.346317 -0.092618
H 1.354436 -0.331525 1.184915
6
)Structure 735 | Energy: -152.052922 Hartree
O -1.134730 -1.155915 -3.301083
H -1.525578 -0.293732 -3.277072
H -0.528307 -1.160863 -2.574304
O 0.723962 -0.844106 0.700183
H 0.586544 -0.346317 -0.092618
H 1.354436 -0.331525 1.184915
6
)Structure 736 | Energy: -152.053642 Hartree
O -1.134730 -1.155915 -3.301083
H -1.525578 -0.293732 -3.277072
H -0.528307 -1.160863 -2.574304
O -0.230263 1.700123 -0.022762
H -0.641381 1.649778 -0.873443
H -0.183283 2.628572 0.153238
6
)Structure 737 | Energy: -152.053362 Hartree
O -1.132393 -2.620202 -3.421027
H -1.034163 -2.892545 -2.519429
H -0.893152 -1.704375 -3.418717
O 0.121379 -0.292701 0.224894
H -0.289738 -0.343046 -0.625787
H 0.168359 0.635748 0.400894
6
)Structure 738 | Energy: -152.054055 Hartree
O -1.132393 -2.620202 -3.421027
H -1.034163 -2.892545 -2.519429
H -0.893152 -1.704375 -3.418717
O -3.229929 -0.629099 0.006052
H -2.856972 -0.607162 -0.863219
H -3.425194 0.277533 0.193381
6
)Structure 739 | Energy: -152.054088 Hartree
O 0.285579 -2.885422 -3.442560
H 0.383810 -3.157765 -2.540962
H 0.524821 -1.969595 -3.440251
O -3.229929 -0.629099 0.006052
H -2.856972 -0.607162 -0.863219
H -3.425194 0.277533 0.193381
6
)Structure 740 | Energy: -152.054213 Hartree
O 0.285579 -2.885422 -3.442560
H 0.383810 -3.157765 -2.540962
H 0.524821 -1.969595 -3.440251
O -3.115259 -0.135114 -0.971180
H -2.742301 -0.113178 -1.840451
H -3.310523 0.771517 -0.783850
6
)Structure 741 | Energy: -152.054552 Hartree
O 0.286836 -2.883048 -3.444606
H 1.114036 -2.451841 -3.281823
H -0.225342 -2.713194 -2.666914
O -3.115259 -0.135114 -0.971180
H -2.742301 -0.113178 -1.840451
H -3.310523 0.771517 -0.783850
6
)Structure 742 | Energy: -152.055448 Hartree
O 0.286836 -2.883048 -3.444606
H 1.114036 -2.451841 -3.281823
H -0.225342 -2.713194 -2.666914
O -3.231874 -1.092119 -1.634463
H -2.858916 -1.070183 -2.503734
H -3.427138 -0.185488 -1.447134
6
)Structure 743 | Energy: -152.055530 Hartree
O -3.028304 0.619656 3.054609
H -3.319214 -0.173151 3.483009
H -2.877659 0.361411 2.156501
O -0.059231 -0.309523 0.227314
H 0.313726 -0.287586 -0.641957
H -0.254495 0.597109 0.414643
6
)Structure 744 | Energy: -152.055530 Hartree
O 0.046755 0.350351 0.156569
H -0.244155 -0.442456 0.584969
H 0.197400 0.092106 -0.741538
O -1.516693 0.505086 -3.742668
H -1.435041 0.596686 -4.680833
H -1.051160 1.253693 -3.399060
6
)Structure 745 | Energy: -152.053721 Hartree
O -1.290798 0.349549 -4.134839
H -1.002929 1.140570 -4.568561
H -1.466855 0.618768 -3.244610
O -0.182395 -0.280069 0.198185
H -0.100743 -0.188469 -0.739979
H 0.283138 0.468538 0.541794
6
)Structure 746 | Energy: -152.056165 Hartree
O -0.037270 -0.353413 -0.152169
H 0.250599 0.437608 -0.585891
H -0.213328 -0.084195 0.738060
O 1.156694 -0.957939 -4.163849
H 0.692919 -1.000579 -3.340256
H 1.772990 -1.674234 -4.115886
6
)Structure 747 | Energy: -152.056018 Hartree
O 1.158971 -1.059728 -4.140626
H 1.446840 -0.268706 -4.574348
H 0.982914 -0.790509 -3.250397
O -0.039548 -0.251624 -0.175392
H -0.503323 -0.294265 0.648201
H 0.576748 -0.967920 -0.127429
6
)Structure 748 | Energy: -152.054154 Hartree
O 0.801539 2.345613 -3.717024
H 1.117927 1.649702 -4.275866
H 1.457002 2.420139 -3.038205
O -2.170823 -0.666518 -0.542083
H -3.030234 -0.826839 -0.903912
H -2.317468 0.010145 0.102760
6
)Structure 749 | Energy: -152.053756 Hartree
O 0.801539 2.345613 -3.717024
H 1.117927 1.649702 -4.275866
H 1.457002 2.420139 -3.038205
O -1.534498 1.291042 0.905903
H -1.035611 0.701586 1.452587
H -2.210934 0.742143 0.536652
6
)Structure 750 | Energy: -152.053442 Hartree
O -1.598811 1.262115 0.909118
H -1.282423 0.566204 0.350275
H -0.943348 1.336641 1.587937
O 0.865852 2.374539 -3.720239
H 1.364739 1.785084 -3.173555
H 0.189416 1.825640 -4.089489
6
)Structure 751 | Energy: -152.053402 Hartree
O -0.189546 1.954916 1.509360
H -0.058483 1.181247 0.979306
H 0.634128 2.074989 1.960054
O 0.865852 2.374539 -3.720239
H 1.364739 1.785084 -3.173555
H 0.189416 1.825640 -4.089489
6
)Structure 752 | Energy: -152.053957 Hartree
O 0.802497 2.347415 -3.705870
H 0.933560 1.573746 -4.235924
H 1.626171 2.467489 -3.255176
O -0.126191 1.982040 1.494992
H 0.372697 1.392584 2.041676
H -0.802626 1.433141 1.125741
6
)Structure 753 | Energy: -152.054128 Hartree
O 1.328154 2.717208 -3.538407
H 1.882921 2.091465 -3.982679
H 1.920230 3.208064 -2.986604
O -0.126191 1.982040 1.494992
H 0.372697 1.392584 2.041676
H -0.802626 1.433141 1.125741
6
)Structure 754 | Energy: -152.053928 Hartree
O 1.328154 2.717208 -3.538407
H 1.882921 2.091465 -3.982679
H 1.920230 3.208064 -2.986604
O -0.290491 1.120666 1.312474
H 0.208396 0.531210 1.859158
H -0.966927 0.571767 0.943224
6
)Structure 755 | Energy: -152.053953 Hartree
O 1.328154 2.717208 -3.538407
H 1.882921 2.091465 -3.982679
H 1.920230 3.208064 -2.986604
O -0.412456 0.072388 2.030514
H 0.086432 -0.517067 2.577198
H -1.088891 -0.476511 1.661263
6
)Structure 756 | Energy: -152.053905 Hartree
O 1.328149 2.717114 -3.538472
H 1.946783 3.315073 -3.142954
H 1.856446 1.985945 -3.825308
O -0.412456 0.072388 2.030514
H 0.086432 -0.517067 2.577198
H -1.088891 -0.476511 1.661263
6
)Structure 757 | Energy: -152.054054 Hartree
O 1.450948 2.682256 -3.537195
H 0.622389 2.336352 -3.838091
H 1.231769 3.517938 -3.150442
O -0.412456 0.072388 2.030514
H 0.086432 -0.517067 2.577198
H -1.088891 -0.476511 1.661263
6
)Structure 758 | Energy: -152.054365 Hartree
O -0.363766 -0.018711 2.035638
H -1.192325 -0.364615 1.734741
H -0.582944 0.816971 2.422391
O 1.402258 2.773355 -3.542319
H 1.901145 2.183900 -2.995635
H 0.725822 2.224456 -3.911569
6
)Structure 759 | Energy: -152.054248 Hartree
O -0.363766 -0.018711 2.035638
H -1.192325 -0.364615 1.734741
H -0.582944 0.816971 2.422391
O 1.402259 2.773355 -3.542318
H 0.579883 2.326285 -3.404348
H 2.047064 2.082073 -3.502862
6
)Structure 760 | Energy: -152.054328 Hartree
O -0.363766 -0.018711 2.035638
H -1.192325 -0.364615 1.734741
H -0.582944 0.816971 2.422391
O 1.011046 2.803160 -2.846260
H 0.188670 2.356090 -2.708289
H 1.655851 2.111878 -2.806804
6
)Structure 761 | Energy: -152.053918 Hartree
O -0.363766 -0.018711 2.035638
H -1.192325 -0.364615 1.734741
H -0.582944 0.816971 2.422391
O 0.961666 2.695425 -2.863880
H 1.903137 2.758854 -2.933302
H 0.725143 3.419085 -2.302120
6
)Structure 762 | Energy: -152.053826 Hartree
O -0.363766 -0.018711 2.035638
H -1.192325 -0.364615 1.734741
H -0.582944 0.816971 2.422391
O 0.510749 2.723088 -2.068212
H 1.452220 2.786517 -2.137634
H 0.274226 3.446748 -1.506452
6
)Structure 763 | Energy: -152.053829 Hartree
O -0.601566 0.837644 2.235916
H -1.430125 0.491740 1.935020
H -0.820744 1.673326 2.622670
O 0.510749 2.723088 -2.068212
H 1.452220 2.786517 -2.137634
H 0.274226 3.446748 -1.506452
6
)Structure 764 | Energy: -152.053829 Hartree
O 1.602648 -3.801201 2.559377
H 1.365454 -4.478554 1.941615
H 2.501093 -3.591927 2.347285
O -0.234983 -0.262363 -0.164113
H 0.706488 -0.198934 -0.233535
H -0.471506 0.461297 0.397647
6
)Structure 765 | Energy: -152.054013 Hartree
O 1.602648 -3.801201 2.559377
H 1.365454 -4.478554 1.941615
H 2.501093 -3.591927 2.347285
O -1.226370 0.785028 -0.842007
H -0.284899 0.848457 -0.911429
H -1.462893 1.508688 -0.280247
6
)Structure 766 | Energy: -152.054111 Hartree
O 2.206149 -2.911688 2.060337
H 1.968955 -3.589042 1.442575
H 3.104593 -2.702415 1.848246
O -1.226370 0.785028 -0.842007
H -0.284899 0.848457 -0.911429
H -1.462893 1.508688 -0.280247
6
)Structure 767 | Energy: -152.053883 Hartree
O 1.067504 -3.625806 1.789171
H 0.830310 -4.303159 1.171409
H 1.965949 -3.416532 1.577079
O -1.226370 0.785028 -0.842007
H -0.284899 0.848457 -0.911429
H -1.462893 1.508688 -0.280247
6
)Structure 768 | Energy: -152.053975 Hartree
O 1.067504 -3.625806 1.789171
H 0.830310 -4.303159 1.171409
H 1.965949 -3.416532 1.577079
O -1.930478 1.502505 -0.983440
H -0.989007 1.565934 -1.052862
H -2.167001 2.226164 -0.421680
6
)Structure 769 | Energy: -152.054130 Hartree
O 1.067504 -3.625806 1.789171
H 0.830310 -4.303159 1.171409
H 1.965949 -3.416532 1.577079
O -1.930478 1.502504 -0.983440
H -1.409721 2.166750 -1.410991
H -1.746295 1.625357 -0.063557
6
)Structure 770 | Energy: -152.053855 Hartree
O 1.117795 -3.640321 1.680304
H 0.431467 -4.188041 2.034782
H 1.566559 -3.301256 2.441637
O -1.930478 1.502504 -0.983440
H -1.409721 2.166750 -1.410991
H -1.746295 1.625357 -0.063557
6
)Structure 771 | Energy: -152.053918 Hartree
O 1.117795 -3.640321 1.680304
H 0.431467 -4.188041 2.034782
H 1.566559 -3.301256 2.441637
O -0.865443 0.558231 -2.027256
H -0.344686 1.222477 -2.454807
H -0.681260 0.681084 -1.107373
6
)Structure 772 | Energy: -152.054077 Hartree
O -0.812707 0.613947 -2.062142
H -1.499035 0.066227 -1.707664
H -0.363944 0.953012 -1.300809
O 1.065059 -3.696037 1.715190
H 1.585816 -3.031791 1.287639
H 1.249243 -3.573184 2.635073
6
)Structure 773 | Energy: -152.053908 Hartree
O -0.812707 0.613947 -2.062142
H -1.499035 0.066227 -1.707664
H -0.363944 0.953012 -1.300809
O 1.065059 -3.696036 1.715189
H 1.553778 -3.774906 2.521503
H 1.281280 -2.830081 1.401228
6
)Structure 774 | Energy: -152.053910 Hartree
O -0.812707 0.613947 -2.062142
H -1.499035 0.066227 -1.707664
H -0.363944 0.953012 -1.300809
O 1.157158 -2.525481 1.988940
H 1.645877 -2.604351 2.795254
H 1.373378 -1.659526 1.674979
6
)Structure 775 | Energy: -152.053538 Hartree
O -0.812707 0.613947 -2.062142
H -1.499035 0.066227 -1.707664
H -0.363944 0.953012 -1.300809
O 1.197931 -2.531131 1.974257
H 1.322308 -2.559518 2.911772
H 1.049803 -1.614692 1.791500
6
)Structure 776 | Energy: -152.055949 Hartree
O -1.657417 3.791795 -0.472364
H -2.575619 3.591983 -0.589329
H -1.373670 4.104107 -1.319672
O 2.271488 1.713116 -0.888917
H 1.391370 1.611716 -0.556773
H 2.741481 2.112300 -0.171310
6
)Structure 777 | Energy: -152.055992 Hartree
O -0.572157 4.683647 0.056603
H -1.490358 4.483836 -0.060362
H -0.288410 4.995960 -0.790705
O 2.271488 1.713116 -0.888917
H 1.391370 1.611716 -0.556773
H 2.741481 2.112300 -0.171310
6
)Structure 778 | Energy: -152.056887 Hartree
O -0.572157 4.683647 0.056603
H -1.490358 4.483836 -0.060362
H -0.288410 4.995960 -0.790705
O 2.894313 2.814034 -1.063889
H 2.014195 2.712634 -0.731745
H 3.364306 3.213218 -0.346282
6
)Structure 779 | Energy: -152.056889 Hartree
O 0.211485 -0.037500 0.321424
H -0.706716 -0.237312 0.204460
H 0.495232 0.274812 -0.525884
O -0.639570 -3.748069 1.829171
H -0.069593 -3.231161 1.278588
H -0.431586 -3.460603 2.706273
6
)Structure 780 | Energy: -152.052940 Hartree
O 0.211485 -0.037500 0.321424
H -0.706716 -0.237312 0.204460
H 0.495232 0.274812 -0.525884
O -3.785385 -1.812017 0.436340
H -2.910667 -1.897541 0.085965
H -4.227774 -1.255591 -0.188066
6
)Structure 781 | Energy: -152.053544 Hartree
O 0.238998 -0.015888 0.269838
H -0.303092 -0.351952 0.969765
H -0.345090 0.046424 -0.472415
O -3.785385 -1.812017 0.436340
H -2.910667 -1.897541 0.085965
H -4.227774 -1.255591 -0.188066
6
)Structure 782 | Energy: -152.055167 Hartree
O 0.128502 0.011076 0.280455
H 0.573207 -0.565790 0.885568
H 0.532411 -0.167708 -0.556728
O -3.785385 -1.812017 0.436340
H -2.910667 -1.897541 0.085965
H -4.227774 -1.255591 -0.188066
6
)Structure 783 | Energy: -152.056532 Hartree
O -0.282871 0.251883 0.077357
H 0.161833 -0.324983 0.682470
H 0.121038 0.073100 -0.759826
O -0.759832 4.370662 0.675169
H -1.069146 3.478899 0.740690
H -0.305097 4.514934 1.492239
6
)Structure 784 | Energy: -152.056231 Hartree
O -0.300257 0.209121 0.066037
H 0.299712 0.014143 0.772238
H 0.259105 0.412691 -0.669934
O -0.759832 4.370662 0.675169
H -1.069146 3.478899 0.740690
H -0.305097 4.514934 1.492239
6
)Structure 785 | Energy: -152.055091 Hartree
O -0.282759 -0.463587 0.532780
H 0.317209 -0.658566 1.238981
H 0.276603 -0.260018 -0.203191
O -0.759832 4.370662 0.675169
H -1.069146 3.478899 0.740690
H -0.305097 4.514934 1.492239
6
)Structure 786 | Energy: -152.055091 Hartree
O -3.031505 -3.260618 1.255252
H -2.906857 -3.273652 2.193864
H -3.686486 -2.592219 1.113040
O -0.048474 0.249164 -0.294197
H -0.357788 -0.642599 -0.228676
H 0.406262 0.393435 0.522873
6
)Structure 787 | Energy: -152.055006 Hartree
O -3.062723 -3.159254 1.294992
H -3.251686 -3.796019 0.620068
H -2.846175 -3.678700 2.056087
O -0.048474 0.249164 -0.294197
H -0.357788 -0.642599 -0.228676
H 0.406262 0.393435 0.522873
6
)Structure 788 | Energy: -152.053426 Hartree
O -3.062723 -3.159254 1.294992
H -3.251686 -3.796019 0.620068
H -2.846175 -3.678700 2.056087
O -0.027537 0.172373 -0.191261
H 0.223038 1.065443 -0.377938
H -0.506877 -0.095785 -0.961667
6
)Structure 789 | Energy: -152.054171 Hartree
O -0.041880 0.272033 -0.249634
H -0.230844 -0.364732 -0.924558
H 0.174667 -0.247412 0.511460
O -3.048379 -3.258914 1.353366
H -2.797805 -2.365844 1.166688
H -3.527720 -3.527072 0.582960
6
)Structure 790 | Energy: -152.053426 Hartree
O -3.062723 -3.159254 1.294992
H -3.251686 -3.796019 0.620068
H -2.846175 -3.678700 2.056087
O -0.027537 0.172373 -0.191261
H 0.223038 1.065443 -0.377938
H -0.506877 -0.095785 -0.961667
6
)Structure 791 | Energy: -152.053325 Hartree
O -3.062723 -3.159254 1.294992
H -3.251686 -3.796019 0.620068
H -2.846175 -3.678700 2.056087
O -0.371869 0.260912 -0.593503
H -0.193342 1.155921 -0.843098
H -0.891065 -0.076163 -1.309057
6
)Structure 792 | Energy: -152.054954 Hartree
O -3.062723 -3.159254 1.294992
H -3.251686 -3.796019 0.620068
H -2.846175 -3.678700 2.056087
O -0.377707 0.354354 -0.633096
H -0.546731 -0.023664 -1.483827
H -0.445007 -0.379687 -0.039921
6
)Structure 793 | Energy: -152.054936 Hartree
O -3.062723 -3.159254 1.294992
H -3.251686 -3.796019 0.620068
H -2.846175 -3.678700 2.056087
O -0.377707 0.354354 -0.633096
H -0.559780 -0.021269 -1.482194
H -0.431958 -0.382081 -0.041554
6
)Structure 794 | Energy: -152.054057 Hartree
O -3.062723 -3.159254 1.294992
H -3.251686 -3.796019 0.620068
H -2.846175 -3.678700 2.056087
O 0.753896 -0.575727 -0.907727
H 0.571823 -0.951350 -1.756825
H 0.699645 -1.312162 -0.316185
6
)Structure 795 | Energy: -152.054948 Hartree
O -3.062723 -3.159254 1.294992
H -3.251686 -3.796019 0.620068
H -2.846175 -3.678700 2.056087
O 1.707874 -2.488820 -0.476931
H 2.027967 -2.244379 0.379223
H 0.883347 -2.030781 -0.551468
6
)Structure 796 | Energy: -152.054298 Hartree
O -3.062723 -3.159254 1.294992
H -3.251686 -3.796019 0.620068
H -2.846175 -3.678700 2.056087
O 1.650901 -2.461473 -0.490510
H 2.476697 -2.795583 -0.171698
H 1.338892 -1.913628 0.214981
6
)Structure 797 | Energy: -152.057729 Hartree
O 0.231140 2.288964 1.428062
H 0.802639 2.429852 2.169841
H 0.651967 1.600782 0.932792
O 1.141630 -0.369327 1.037511
H 0.937237 -0.554298 0.132404
H 1.563389 -1.159583 1.342168
6
)Structure 798 | Energy: -152.059067 Hartree
O 0.231140 2.288964 1.428062
H 0.802639 2.429852 2.169841
H 0.651967 1.600782 0.932792
O 1.123910 -0.374604 0.973389
H 1.363917 -1.218990 0.620375
H 1.417974 -0.411135 1.871940
6
)Structure 799 | Energy: -152.058617 Hartree
O -1.807055 -2.556323 -0.407270
H -1.773638 -2.433215 -1.345580
H -1.659601 -1.692226 -0.050095
O -0.178024 0.293639 -0.181845
H 0.061983 -0.550747 -0.534859
H 0.116040 0.257108 0.716705
6
)Structure 800 | Energy: -152.058617 Hartree
O -1.677002 -0.613006 2.603458
H -1.591365 0.290403 2.874045
H -1.585659 -0.587347 1.661662
O -0.178024 0.293639 -0.181845
H 0.061983 -0.550747 -0.534859
H 0.116040 0.257108 0.716705
6
)Structure 801 | Energy: -152.054624 Hartree
O -0.158043 0.192364 -0.113764
H -0.072406 1.095773 0.156823
H -0.066701 0.218023 -1.055560
O -1.696982 -0.511731 2.535377
H -1.456975 -1.356117 2.182363
H -1.402918 -0.548262 3.433927
6
)Structure 802 | Energy: -152.054630 Hartree
O -0.058993 -0.309689 0.223736
H 0.026644 0.593720 0.494324
H 0.032349 -0.284030 -0.718060
O -1.584257 -3.053204 0.051481
H -1.350391 -2.981736 0.965488
H -1.284649 -3.916509 -0.193754
6
)Structure 803 | Energy: -152.054630 Hartree
O 1.505096 0.765973 -2.830362
H 1.658940 0.699638 -3.762365
H 1.532891 1.695114 -2.651739
O -0.177825 0.263946 -0.222924
H 0.056041 0.335414 0.691083
H 0.121783 -0.599359 -0.468159
6
)Structure 804 | Energy: -152.060170 Hartree
O 1.575700 0.834868 -2.884039
H 1.099010 0.153264 -3.336678
H 0.972193 1.147991 -2.225468
O -0.177825 0.263946 -0.222924
H 0.056041 0.335414 0.691083
H 0.121783 -0.599359 -0.468159
6
)Structure 805 | Energy: -152.060416 Hartree
O 1.575700 0.834868 -2.884039
H 1.099010 0.153264 -3.336678
H 0.972193 1.147991 -2.225468
O -0.168783 0.226705 -0.246916
H -0.229602 0.847857 0.464197
H 0.263910 -0.520719 0.139525
6
)Structure 806 | Energy: -152.059617 Hartree
O 1.574347 0.820184 -2.898675
H 0.886182 0.220203 -3.149971
H 1.206488 1.314115 -2.179862
O -0.168783 0.226705 -0.246916
H -0.229602 0.847857 0.464197
H 0.263910 -0.520719 0.139525
6
)Structure 807 | Energy: -152.059617 Hartree
O 1.215399 1.755279 -2.751989
H 0.277102 1.848940 -2.838736
H 1.332133 0.905376 -2.351965
O -0.123958 0.042091 -0.365851
H -0.184777 0.663243 0.345262
H 0.308735 -0.705333 0.020589
6
)Structure 808 | Energy: -152.057183 Hartree
O 0.273854 0.252081 -0.104426
H -0.664443 0.345742 -0.191173
H 0.390589 -0.597822 0.295598
O 2.045718 -1.968985 -0.643800
H 1.822046 -2.319522 -1.493685
H 2.964908 -1.757699 -0.718967
6
)Structure 809 | Energy: -152.060423 Hartree
O 0.211590 0.223105 -0.025517
H -0.170649 0.575533 -0.816963
H 0.885059 -0.367716 -0.331050
O 2.045718 -1.968985 -0.643800
H 1.822046 -2.319522 -1.493685
H 2.964908 -1.757699 -0.718967
6
)Structure 810 | Energy: -152.057938 Hartree
O 1.799636 0.193933 1.305323
H 1.605611 1.012272 0.870153
H 2.006479 -0.404647 0.601832
O 2.045718 -1.968985 -0.643800
H 1.822046 -2.319522 -1.493685
H 2.964908 -1.757699 -0.718967
6
)Structure 811 | Energy: -152.058266 Hartree
O 1.799661 0.194027 1.305342
H 1.274338 -0.213244 0.630905
H 2.337349 0.819378 0.840789
O 2.045718 -1.968985 -0.643800
H 1.822046 -2.319522 -1.493685
H 2.964908 -1.757699 -0.718967
6
)Structure 812 | Energy: -152.056890 Hartree
O 2.315053 1.650233 -1.457220
H 1.467032 1.307572 -1.702457
H 2.119153 2.422461 -0.946076
O -0.231839 0.046417 0.308351
H -0.455511 -0.304120 -0.541534
H 0.687350 0.257703 0.233183
6
)Structure 813 | Energy: -152.055847 Hartree
O 1.736594 2.883267 0.159912
H 1.432658 2.273049 -0.497320
H 0.963805 3.372564 0.403565
O -0.231839 0.046417 0.308351
H -0.455511 -0.304120 -0.541534
H 0.687350 0.257703 0.233183
6
)Structure 814 | Energy: -152.054377 Hartree
O 1.736594 2.883267 0.159912
H 1.432658 2.273049 -0.497320
H 0.963805 3.372564 0.403565
O -1.224713 -0.234633 0.830709
H -1.448385 -0.585170 -0.019175
H -0.305523 -0.023347 0.755542
6
)Structure 815 | Energy: -152.053226 Hartree
O 1.736594 2.883267 0.159912
H 1.432658 2.273049 -0.497320
H 0.963805 3.372564 0.403565
O -2.570999 3.605350 0.061379
H -2.988170 2.759358 0.135383
H -1.799149 3.527176 0.602986
6
)Structure 816 | Energy: -152.052994 Hartree
O 1.736594 2.883267 0.159912
H 1.432658 2.273049 -0.497320
H 0.963805 3.372564 0.403565
O -2.596835 3.577483 0.055837
H -2.552492 2.714576 0.441369
H -1.824767 4.014269 0.384974
6
)Structure 817 | Energy: -152.057612 Hartree
O -2.258976 3.419729 0.139529
H -2.029402 3.297583 1.050065
H -1.952304 2.633463 -0.289096
O -0.272137 0.142040 -0.238223
H -0.227794 -0.720867 0.147309
H 0.499931 0.578826 0.090914
6
)Structure 818 | Energy: -152.056853 Hartree
O -2.944260 2.943761 1.026936
H -2.714686 2.821615 1.937472
H -2.637589 2.157495 0.598311
O -0.272137 0.142040 -0.238223
H -0.227794 -0.720867 0.147309
H 0.499931 0.578826 0.090914
6
)Structure 819 | Energy: -152.056217 Hartree
O -2.944260 2.943761 1.026936
H -2.714686 2.821615 1.937472
H -2.637589 2.157495 0.598311
O -0.272138 0.142039 -0.238223
H 0.666979 0.236644 -0.303953
H -0.394828 -0.378669 0.542169
6
)Structure 820 | Energy: -152.055351 Hartree
O -2.944260 2.943761 1.026936
H -2.714686 2.821615 1.937472
H -2.637589 2.157495 0.598311
O -0.244848 0.079041 -0.149422
H -0.795545 0.556545 -0.752690
H 0.634556 0.301350 -0.418546
6
)Structure 821 | Energy: -152.055353 Hartree
O -0.178748 0.302804 -0.160637
H 0.050825 0.180658 0.749899
H 0.127923 -0.483462 -0.589262
O 2.265014 -0.371757 3.071844
H 1.683321 0.371291 3.003121
H 3.124966 0.017195 3.138173
6
)Structure 822 | Energy: -152.055478 Hartree
O 0.185184 -0.213094 -1.033829
H 0.414758 -0.335239 -0.123294
H 0.491855 -0.999360 -1.462454
O 2.265014 -0.371757 3.071844
H 1.683321 0.371291 3.003121
H 3.124966 0.017195 3.138173
6
)Structure 823 | Energy: -152.052927 Hartree
O 0.185184 -0.213094 -1.033829
H 0.414758 -0.335239 -0.123294
H 0.491855 -0.999360 -1.462454
O 2.272417 -0.258572 3.112977
H 2.273177 -0.237998 2.167046
H 2.417607 -1.169993 3.321381
6
)Structure 824 | Energy: -152.052682 Hartree
O -1.021914 -4.171547 1.204434
H -1.041271 -3.278549 0.889983
H -0.590234 -4.655614 0.515004
O -0.048650 0.296949 0.245842
H -0.047890 0.317523 -0.700089
H 0.096540 -0.614472 0.454247
6
)Structure 825 | Energy: -152.056131 Hartree
O -0.137441 -0.136310 0.334627
H -0.156798 0.756687 0.020176
H 0.294239 -0.620377 -0.354803
O 0.890222 -4.044772 1.644107
H 1.486952 -3.800148 2.336410
H 0.418298 -3.246332 1.457074
6
)Structure 826 | Energy: -152.054375 Hartree
O 3.451916 -2.286266 1.379714
H 2.758314 -2.162294 0.747064
H 4.241966 -2.054329 0.912802
O -2.012078 1.237007 -2.367282
H -2.476292 0.951493 -3.140714
H -2.655893 1.736242 -1.886171
6
)Structure 827 | Energy: -152.054382 Hartree
O 3.451916 -2.286266 1.379714
H 2.758314 -2.162294 0.747064
H 4.241966 -2.054329 0.912802
O -2.012078 1.237006 -2.367283
H -2.744965 1.402797 -1.792304
H -2.387225 1.284945 -3.234559
6
)Structure 828 | Energy: -152.054199 Hartree
O 3.451916 -2.286266 1.379714
H 2.758314 -2.162294 0.747064
H 4.241966 -2.054329 0.912802
O -2.030662 1.297161 -2.376808
H -2.597484 0.925414 -1.716713
H -2.239742 0.807553 -3.158966
6
)Structure 829 | Energy: -152.054142 Hartree
O -2.079473 1.229051 -2.322114
H -2.773075 1.353023 -2.954763
H -1.289422 1.460988 -2.789025
O 3.500727 -2.218156 1.325019
H 2.933904 -2.589903 1.985115
H 3.291647 -2.707764 0.542862
6
)Structure 830 | Energy: -152.054131 Hartree
O -2.079473 1.229051 -2.322114
H -2.773075 1.353023 -2.954763
H -1.289422 1.460988 -2.789025
O 3.479271 -2.219325 1.357694
H 3.796286 -3.107029 1.275878
H 2.769815 -2.172080 0.733482
6
)Structure 831 | Energy: -152.054095 Hartree
O -2.017835 1.264034 -2.412288
H -2.155281 0.969714 -1.522804
H -2.885526 1.289039 -2.789739
O 3.479271 -2.219325 1.357694
H 3.796286 -3.107029 1.275878
H 2.769815 -2.172080 0.733482
6
)Structure 832 | Energy: -152.054094 Hartree
O -2.585193 0.746056 -3.012857
H -2.722639 0.451735 -2.123373
H -3.452884 0.771061 -3.390309
O 3.479271 -2.219325 1.357694
H 3.796286 -3.107029 1.275878
H 2.769815 -2.172080 0.733482
6
)Structure 833 | Energy: -152.054032 Hartree
O 3.513553 -2.251283 1.289540
H 3.376107 -2.545603 2.179024
H 2.645863 -2.226278 0.912088
O -2.619476 0.778014 -2.944702
H -2.302460 -0.109690 -3.026519
H -3.328931 0.825259 -3.568915
6
)Structure 834 | Energy: -152.054216 Hartree
O 2.310850 -0.541530 3.252642
H 2.172318 -0.084703 4.070454
H 1.484436 -0.466776 2.797194
O -2.619476 0.778014 -2.944702
H -2.302460 -0.109690 -3.026519
H -3.328931 0.825259 -3.568915
6
)Structure 835 | Energy: -152.054217 Hartree
O 2.310850 -0.541530 3.252642
H 2.172318 -0.084703 4.070454
H 1.484436 -0.466776 2.797194
O -1.417332 1.294418 -2.873173
H -1.100316 0.406714 -2.954989
H -2.126788 1.341663 -3.497385
6
)Structure 836 | Energy: -152.053996 Hartree
O 2.310850 -0.541530 3.252642
H 2.172318 -0.084703 4.070454
H 1.484436 -0.466776 2.797194
O -1.381195 1.276874 -2.915846
H -1.649826 0.471805 -3.334070
H -2.150835 1.555024 -2.440990
6
)Structure 837 | Energy: -152.053864 Hartree
O 2.254587 -0.539979 3.214514
H 2.985895 -0.507905 3.815229
H 1.563870 -0.068196 3.657585
O -1.381195 1.276874 -2.915846
H -1.649826 0.471805 -3.334070
H -2.150835 1.555024 -2.440990
6
)Structure 838 | Energy: -152.053952 Hartree
O 2.200648 -0.507263 3.240810
H 2.996401 -0.936794 2.959779
H 2.409481 -0.158572 4.095669
O -1.381195 1.276874 -2.915846
H -1.649826 0.471805 -3.334070
H -2.150835 1.555024 -2.440990
6
)Structure 839 | Energy: -152.054070 Hartree
O 2.200648 -0.507263 3.240810
H 2.996401 -0.936794 2.959779
H 2.409481 -0.158572 4.095669
O -1.381195 1.276873 -2.915846
H -2.178619 1.510085 -3.368545
H -1.622050 0.516761 -2.406515
6
)Structure 840 | Energy: -152.053995 Hartree
O 2.200648 -0.507263 3.240810
H 2.996401 -0.936794 2.959779
H 2.409481 -0.158572 4.095669
O -1.485099 1.204500 -2.894898
H -0.581654 1.241437 -2.616272
H -1.569841 1.934121 -3.491281
6
)Structure 841 | Energy: -152.053851 Hartree
O -1.495500 1.251915 -2.944785
H -0.699747 0.822384 -3.225816
H -1.286667 1.600606 -2.089926
O 2.211049 -0.554678 3.290697
H 3.114494 -0.517741 3.569323
H 2.126308 0.174943 2.694314
6
)Structure 842 | Energy: -152.054074 Hartree
O -1.495500 1.251915 -2.944785
H -0.699747 0.822384 -3.225816
H -1.286667 1.600606 -2.089926
O 2.663623 1.469358 2.592502
H 3.567068 1.506295 2.871128
H 2.578881 2.198979 1.996119
6
)Structure 843 | Energy: -152.053963 Hartree
O -1.327147 2.063395 -3.886957
H -0.531393 1.633864 -4.167987
H -1.118313 2.412086 -3.032098
O 2.663623 1.469358 2.592502
H 3.567068 1.506295 2.871128
H 2.578881 2.198979 1.996119
