5
Structure 1
N -1.483672 -0.904149 3.697499
N -1.383854 -0.853132 2.573046
O 1.326476 -0.019733 1.708558
H 1.311608 0.169680 2.656109
H 1.832275 0.726618 1.371311
5
Structure 2
N -1.483268 0.204254 0.436366
N -0.700213 0.996346 0.627092
O 1.291258 -1.962630 -3.838580
H 1.294799 -2.356853 -2.956238
H 1.234960 -1.024640 -3.629743
5
Structure 3
N -1.483672 -0.904149 3.697499
N -1.383854 -0.853132 2.573046
O -1.364409 -1.341033 0.654614
H -2.011332 -0.623675 0.683583
H -1.730139 -1.955748 1.298799
5
Structure 4
N -3.142175 1.089908 1.602722
N -3.379820 2.146415 1.925643
O 1.291258 -1.962630 -3.838580
H 1.294799 -2.356853 -2.956238
H 1.234960 -1.024640 -3.629743
5
Structure 5
N -1.483672 -0.904149 3.697499
N -1.383854 -0.853132 2.573046
O -1.072591 1.074804 -1.470071
H -1.031666 2.021639 -1.280918
H -0.187454 0.790532 -1.220413
5
Structure 6
N 3.071263 1.033725 -1.565253
N 4.096660 0.646543 -1.840230
O 1.291258 -1.962630 -3.838580
H 1.294799 -2.356853 -2.956238
H 1.234960 -1.024640 -3.629743
5
Structure 7
N -1.483672 -0.904149 3.697499
N -1.383854 -0.853132 2.573046
O 0.934176 1.263505 -1.845433
H 1.768016 0.937257 -2.209058
H 0.355969 0.505922 -1.980905
5
Structure 8
N -0.700020 3.259218 -3.069033
N -0.067774 2.409091 -3.462114
O 1.291258 -1.962630 -3.838580
H 1.294799 -2.356853 -2.956238
H 1.234960 -1.024640 -3.629743
5
Structure 9
N -1.483268 0.204254 0.436366
N -0.700213 0.996346 0.627092
O -1.364409 -1.341033 0.654614
H -2.011332 -0.623675 0.683583
H -1.730139 -1.955748 1.298799
5
Structure 10
N -3.142175 1.089908 1.602722
N -3.379820 2.146415 1.925643
O 1.326476 -0.019733 1.708558
H 1.311608 0.169680 2.656109
H 1.832275 0.726618 1.371311
5
Structure 11
N -1.483268 0.204254 0.436366
N -0.700213 0.996346 0.627092
O -1.072591 1.074804 -1.470071
H -1.031666 2.021639 -1.280918
H -0.187454 0.790532 -1.220413
5
Structure 12
N 3.071263 1.033725 -1.565253
N 4.096660 0.646543 -1.840230
O 1.326476 -0.019733 1.708558
H 1.311608 0.169680 2.656109
H 1.832275 0.726618 1.371311
5
Structure 13
N -1.483268 0.204254 0.436366
N -0.700213 0.996346 0.627092
O 0.934176 1.263505 -1.845433
H 1.768016 0.937257 -2.209058
H 0.355969 0.505922 -1.980905
5
Structure 14
N -0.700020 3.259218 -3.069033
N -0.067774 2.409091 -3.462114
O 1.326476 -0.019733 1.708558
H 1.311608 0.169680 2.656109
H 1.832275 0.726618 1.371311
5
Structure 15
N -3.142175 1.089908 1.602722
N -3.379820 2.146415 1.925643
O -1.072591 1.074804 -1.470071
H -1.031666 2.021639 -1.280918
H -0.187454 0.790532 -1.220413
5
Structure 16
N 3.071263 1.033725 -1.565253
N 4.096660 0.646543 -1.840230
O -1.364409 -1.341033 0.654614
H -2.011332 -0.623675 0.683583
H -1.730139 -1.955748 1.298799
5
Structure 17
N -3.142175 1.089908 1.602722
N -3.379820 2.146415 1.925643
O 0.934176 1.263505 -1.845433
H 1.768016 0.937257 -2.209058
H 0.355969 0.505922 -1.980905
5
Structure 18
N -0.700020 3.259218 -3.069033
N -0.067774 2.409091 -3.462114
O -1.364409 -1.341033 0.654614
H -2.011332 -0.623675 0.683583
H -1.730139 -1.955748 1.298799
5
Structure 19
N 3.071263 1.033725 -1.565253
N 4.096660 0.646543 -1.840230
O 0.934176 1.263505 -1.845433
H 1.768016 0.937257 -2.209058
H 0.355969 0.505922 -1.980905
5
Structure 20
N -0.700020 3.259218 -3.069033
N -0.067774 2.409091 -3.462114
O -1.072591 1.074804 -1.470071
H -1.031666 2.021639 -1.280918
H -0.187454 0.790532 -1.220413
