6
Structure 1 | Energy: -10.146597 Hartree
O -0.295368 -0.368421 -1.808739
H -0.863558 0.195523 -1.302947
H -0.177118 -1.134024 -1.264819
O 0.764355 -2.166485 0.160416
H 1.186047 -1.403027 0.527185
H 1.419904 -2.535548 -0.413387
6
Structure 2 | Energy: -10.147256 Hartree
O -0.766162 -0.439253 -1.641911
H -0.472290 -1.075601 -2.278620
H 0.018267 0.031363 -1.398657
O 1.642271 0.877441 -0.750599
H 2.115773 0.704819 0.050155
H 1.608874 1.821876 -0.796722
6
Structure 3 | Energy: -10.140889 Hartree
O 0.620386 2.896257 3.833029
H 1.053951 2.368582 3.177073
H 0.929467 3.776101 3.670778
O -4.543676 0.605960 2.782629
H -3.874571 1.151562 2.395555
H -4.286115 0.538740 3.690563
6
Structure 4 | Energy: -10.146963 Hartree
O -0.232153 -0.346168 -2.234303
H 0.158528 -0.865443 -2.923085
H 0.505108 -0.002624 -1.750150
O 2.115806 0.236226 -0.691953
H 2.148192 -0.433032 -0.023930
H 2.669250 0.924393 -0.352354
6
Structure 5 | Energy: -10.143102 Hartree
O 0.786612 1.969065 -2.675970
H 0.349902 1.459270 -3.343872
H 0.713328 1.443758 -1.891966
O 0.593444 -1.127636 -0.013584
H 1.384673 -1.616814 0.159250
H 0.055168 -1.288175 0.747788
