6
)Structure 1
O 0.064213 -2.687912 -0.756220
H -0.435543 -2.362248 -1.491669
H 0.589987 -3.386664 -1.118559
O -0.070354 0.256298 -0.283453
H -0.204259 0.364788 0.646875
H 0.274613 -0.621086 -0.363422
6
)Structure 2
O 1.585599 -3.478991 -1.384054
H 0.876544 -3.073301 -0.905143
H 2.367231 -3.070721 -1.040036
O -0.594552 -1.691385 1.496080
H 0.073629 -1.215218 1.967257
H -1.107476 -2.099777 2.178228
6
)Structure 3
O 1.351190 -2.567457 3.349610
H 1.404266 -1.691967 2.992681
H 1.533665 -3.134193 2.613747
O 1.144045 -0.041622 1.968307
H 0.440236 0.572737 2.118060
H 1.422267 0.141740 1.082772
6
)Structure 4
O 3.297399 0.433938 -0.334587
H 3.772596 -0.346265 -0.583927
H 2.865307 0.199178 0.474217
O 0.719883 -0.680722 3.524102
H 0.695381 0.241647 3.733498
H 0.886654 -1.099124 4.356165
6
)Structure 5
O -0.041442 0.069691 -0.376335
H -0.611530 -0.570372 0.026178
H 0.321653 0.553748 0.351560
O -0.011799 -0.596936 1.946255
H 0.452987 -0.062452 2.573559
H -0.285425 -1.351197 2.447673
