9
Structure 1
O -1.328123 -1.007374 0.458436
H -1.227597 -1.905174 0.138631
H -0.461755 -0.578043 0.357504
O -1.978402 1.273860 -0.969857
H -2.046240 0.420837 -0.504923
H -2.408247 1.918906 -0.405947
O 0.682592 0.658782 -0.542326
H 1.219088 0.593960 -1.333535
H -0.146434 1.097966 -0.808423
9
Structure 2
O 0.936026 1.655058 -0.562470
H 0.953210 2.193060 0.230455
H 1.494474 0.879593 -0.383729
O 1.670209 -0.982493 0.003591
H 0.790758 -1.063024 -0.409991
H 1.631215 -1.483634 0.819290
O -0.776186 -0.435942 -1.161481
H -0.420677 0.459774 -1.020271
H -0.878872 -0.534908 -2.109355
9
Structure 3
O 0.417333 -0.072510 -1.219875
H -0.340867 -0.078910 -0.611394
H 0.205231 0.552538 -1.914691
O 1.631504 0.423336 1.218349
H 1.489880 0.282796 0.265081
H 2.091245 -0.355271 1.536494
O -1.128255 0.398482 1.061755
H -1.561941 1.194313 1.372571
H -0.208598 0.444143 1.382870
9
Structure 4
O -1.134640 0.574034 0.089014
H -1.783113 1.272900 0.177258
H -0.667486 0.513409 0.941561
O 0.681395 -1.555015 -0.207519
H 1.371273 -1.252994 -0.801098
H -0.094250 -1.007108 -0.396200
O 0.426478 -0.277487 2.226150
H 0.727529 -0.853089 1.498654
H 0.058821 -0.861026 2.891814
9
Structure 5
O -0.089794 1.224636 -1.163836
H -0.257602 0.318158 -0.855124
H 0.126241 1.160742 -2.095332
O 0.286965 -1.226774 0.126825
H 0.841876 -0.603582 0.631479
H 0.848729 -1.971580 -0.091655
O 1.614940 1.031499 1.009240
H 1.145167 1.372707 0.227327
H 1.269255 1.517030 1.759964
9
Structure 6
O -0.335637 -0.125900 -1.722697
H 0.195038 -0.447717 -0.970527
H 0.092903 0.673128 -2.032430
O -2.208993 -0.530198 0.312989
H -1.833458 -0.434391 -0.578603
H -2.705192 0.270768 0.488282
O 0.479612 -1.011492 0.765870
H 0.641904 -1.946313 0.902217
H -0.474990 -0.879666 0.906926
9
Structure 7
O 1.456697 -0.510153 -0.988803
H 1.278835 -0.572478 -0.035057
H 2.106921 -1.184703 -1.190422
O -1.300949 -0.750384 -0.932027
H -1.721785 0.091592 -1.113115
H -0.384150 -0.668140 -1.250226
O 0.133528 -1.074046 1.408771
H -0.584051 -0.992119 0.753529
H -0.012255 -1.903529 1.865659
9
Structure 8
O 0.774355 0.136018 1.177936
H 0.133887 -0.163894 1.824676
H 0.955268 -0.620695 0.595019
O 0.300345 1.213498 -1.327996
H 0.379710 1.112047 -0.362621
H 1.018756 1.789286 -1.594744
O 0.757029 -1.502304 -1.087678
H 0.591172 -0.607726 -1.438679
H 0.071987 -2.065391 -1.450563
9
Structure 9
O 1.862516 0.921504 -0.542579
H 1.507659 0.592132 -1.387622
H 1.954624 1.870132 -0.644587
O -0.570101 -0.129160 0.244941
H -0.521164 -0.821720 0.905246
H 0.304861 0.301272 0.233645
O 0.152627 -0.117984 -2.455960
H -0.401763 -0.137301 -1.657569
H 0.138832 -1.004338 -2.820122
9
Structure 10
O -1.512799 0.881839 1.020389
H -2.171907 0.447852 1.564514
H -1.549665 0.444267 0.151240
O -0.863818 -0.685889 -1.168608
H -0.087595 -0.803587 -0.594977
H -0.531870 -0.417870 -2.026726
O 1.019023 -0.211997 0.841574
H 1.736619 0.421921 0.877244
H 0.221826 0.259132 1.147452
