6
Structure 1 | Energy: -264.376560 Hartree
C -0.903022 0.914038 0.613260
O -0.055186 1.726667 0.536990
O -1.762871 0.112437 0.645863
O -0.078016 0.273785 3.196336
H -0.409848 -0.281536 3.912363
H 0.731555 0.642118 3.571459
6
Structure 2 | Energy: -264.374537 Hartree
C -3.410867 0.463108 0.988374
O -2.865981 1.455643 0.661930
O -3.954301 -0.523983 1.318183
O -1.965432 2.885994 -1.992631
H -2.144877 2.392024 -1.182964
H -2.112038 3.794044 -1.702124
6
Structure 3 | Energy: -264.374506 Hartree
C 2.527414 -2.486001 1.115681
O 1.803180 -2.352153 2.035452
O 3.254333 -2.621090 0.203294
O -0.903381 -0.668452 2.266476
H -0.096530 -1.197445 2.276413
H -0.975066 -0.391118 3.187250
6
Structure 4 | Energy: -264.374417 Hartree
C 0.531050 2.211894 0.147519
O 1.031978 2.918434 0.940408
O 0.031312 1.500795 -0.647032
O -1.469240 -0.035477 -2.948347
H -1.144392 0.538110 -2.243643
H -0.812263 -0.741552 -2.942767
6
Structure 5 | Energy: -264.371482 Hartree
C -0.587845 -2.123768 -0.860980
O -0.921529 -3.216297 -1.140420
O -0.250059 -1.030162 -0.584212
O 1.068577 1.509431 3.197443
H 1.031731 2.292320 2.636442
H 1.104535 0.798737 2.545125
