8
Structure 1 | Energy: -112.777278 Hartree
N -3.490699 -1.347608 -0.870829
H -3.246029 -0.350875 -0.839065
H -2.776052 -1.795590 -0.291620
H -3.236111 -1.631580 -1.820341
N -2.834116 1.869331 -0.780962
H -2.029340 2.277603 -0.300646
H -2.884093 2.368608 -1.671837
H -3.644981 2.203335 -0.254850
8
Structure 2 | Energy: -112.777274 Hartree
N 3.511491 0.538934 -2.559037
H 3.225105 1.520344 -2.544208
H 3.418424 0.261310 -3.538865
H 4.520186 0.558485 -2.390362
N 1.048773 -1.391519 -1.635146
H 1.871258 -0.799553 -1.796533
H 1.440132 -2.271369 -1.290910
H 0.608271 -0.985344 -0.805071
8
Structure 3 | Energy: -112.777255 Hartree
N -1.764603 2.513124 -1.565642
H -2.681942 2.323289 -1.975553
H -1.490173 3.413660 -1.964610
H -1.957444 2.713743 -0.581974
N 0.291586 0.358970 -2.954204
H 1.156871 0.372615 -2.408589
H -0.110742 -0.555932 -2.735661
H -0.321388 1.020548 -2.463621
8
Structure 4 | Energy: -112.777126 Hartree
N 0.020113 1.177839 -0.876640
H -0.623115 1.067884 -1.663497
H 0.948812 1.031884 -1.279054
H -0.012163 2.175654 -0.655477
N -0.570363 -0.749726 1.695456
H -0.423975 -0.110823 0.904069
H -0.769924 -1.649677 1.251209
H 0.367389 -0.880609 2.083231
8
Structure 5 | Energy: -112.770613 Hartree
N 1.981813 -3.626827 -1.006448
H 1.707187 -2.737557 -1.430104
H 2.758839 -3.376500 -0.390051
H 1.216127 -3.840379 -0.363250
N 2.994381 1.924469 0.799072
H 3.032125 1.881568 1.819821
H 3.975873 1.974655 0.517626
H 2.633922 2.861822 0.604873
