6
Structure 1 | Energy: -152.473807 Hartree
O -1.318650 -1.817935 -0.817196
H -0.605956 -2.449865 -0.966234
H -1.415136 -1.853211 0.148081
O -1.738923 -1.807696 2.057197
H -2.687389 -1.982182 2.131998
H -1.682580 -0.870629 2.288226
6
Structure 2 | Energy: -152.473799 Hartree
O 0.040201 -2.544389 0.021835
H -0.820721 -2.134720 -0.119420
H 0.636992 -1.782496 -0.041582
O 2.023004 -0.447384 -0.244539
H 2.584403 -0.890853 -0.894566
H 2.557091 -0.499032 0.559096
6
Structure 3 | Energy: -152.473784 Hartree
O 3.174026 0.564429 -1.670999
H 4.133492 0.455789 -1.713694
H 2.961946 0.884295 -2.557918
O 2.281407 -2.178554 -1.964945
H 1.811423 -2.392979 -1.151660
H 2.540985 -1.257844 -1.805088
6
Structure 4 | Energy: -152.463031 Hartree
O -1.052798 -2.377645 3.444058
H -1.845279 -2.130961 2.952972
H -0.835643 -1.552233 3.893850
O 0.568683 2.393216 3.006891
H 0.630132 3.311731 2.719465
H 1.306032 1.989882 2.533929
