4
Structure 1 | Energy: -200.457689 Hartree
F -3.358242 -2.234982 -0.229496
H -3.026661 -1.378933 -0.109598
F -2.913569 0.370442 0.229617
H -3.768342 0.656965 0.435540
4
Structure 2 | Energy: -200.457688 Hartree
F -0.655303 1.032024 -3.371678
H -1.005153 1.084555 -2.516559
F -2.107943 1.504670 -1.170704
H -2.772325 2.016836 -1.559971
4
Structure 3 | Energy: -200.457688 Hartree
F 0.909405 3.827124 -0.866680
H 0.853153 2.911531 -0.996698
F 1.105255 1.258856 -1.619312
H 1.733113 1.320217 -2.295432
4
Structure 4 | Energy: -200.457664 Hartree
F -1.745877 0.972890 -2.845004
H -1.291469 0.168198 -2.801617
F -0.785845 -1.529729 -2.718966
H -1.517425 -2.095296 -2.714316
