5
Structure 1 | Energy: -185.500851 Hartree
N -3.387821 -2.462049 -0.237980
N -2.601675 -1.652236 -0.236738
O 0.289689 -0.213851 -0.479993
H -0.588930 -0.614634 -0.488795
H 0.091161 0.712785 -0.308359
5
Structure 2 | Energy: -185.500334 Hartree
N 1.886656 -3.133357 -1.647053
N 1.784985 -2.029779 -1.435086
O -1.170570 -1.483189 -1.263063
H -0.536085 -0.975482 -0.742083
H -1.262766 -0.931170 -2.049126
5
Structure 3 | Energy: -185.498751 Hartree
N -1.809273 0.025026 -0.767402
N -1.900164 0.858947 -1.522495
O -0.212568 -3.766455 1.057223
H -0.381804 -2.887775 0.697391
H -0.498670 -3.666472 1.973645
5
Structure 4 | Energy: -185.497960 Hartree
N 1.770465 -1.837498 1.297250
N 2.283644 -2.841711 1.265961
O -2.861033 3.226055 -0.167207
H -2.387852 2.798398 0.555140
H -3.461977 2.527152 -0.453699
